# HZ S RI R 50
10000 0.930725 0.075773
1495879 1.077765 1.264835
2981758 1.34542 0.964483
4467637 1.284254 0.629855
5953516 1.323662 0.540905
7439395 1.342081 0.57141
8925274 6.425422 11.239516
10411153 1.057289 8.001214
11897032 -0.307119 5.708463
13382911 -0.743243 4.412882
14868790 -0.926323 3.58769
16354669 -1.003893 3.027635
17840548 -0.888893 2.668796
19326427 -1.068457 2.344794
20812306 -1.084235 2.116742
22298185 -1.093632 1.932924
23784064 -1.101059 1.788921
25269943 -1.110281 1.669659
26755822 -1.11777 1.568824
28241701 -1.125994 1.486232
29727580 -1.135702 1.415374
31213459 -0.943311 1.242021
32699338 -0.740227 1.052457
34185217 -0.565913 0.874171
35671096 -0.424995 0.700594
37156975 -0.30496 0.531218
38642854 -0.19587 0.365438
40128733 -0.097376 0.196558
41614612 0.005018 0.023216
43100491 0.11729 -0.160062
44586370 0.262685 -0.349294
46072249 0.461127 -0.535311
47558128 0.742727 -0.671206
49044007 1.083636 -0.672636
50529886 1.369172 -0.491902
52015765 1.423549 -0.236626
53501644 1.370882 -0.049959
54987523 1.257931 0.028235
56473402 1.148896 0.012747
57959281 1.074508 0.002581
59445160 1.017221 -0.00239
60931039 0.999577 -0.006803
62416918 1.003888 -0.01566
63902797 1.00706 -0.023429
65388676 1.008463 -0.030994
66874555 1.013094 -0.025632
68360434 1.009288 -0.109835
69846313 1.006363 -0.049344
71332192 1.015168 -0.014647
72818071 1.018803 -0.019645
74303950 1.016691 -0.048129
75789829 1.015231 0.057576
77275708 1.015393 0.012522
78761587 1.013767 0.055947
80247466 1.01148 -0.095195
81733345 1.014147 -0.010135
83219224 1.009476 -0.056553
84705103 1.007712 -0.044273
86190982 1.001825 0.041862
87676861 1.003188 -0.035771
89162740 0.996362 -0.046049
90648619 0.997134 -0.026394
92134498 0.998879 -0.042258
93620377 1.002212 -0.009914
95106256 1.004104 -0.036267
96592135 1.007184 -0.033353
98078014 1.0103 -0.028624
99563893 1.01208 -0.024699
101049772 1.013177 -0.03711
102535651 1.013451 -0.037651
104021530 1.014451 -0.036079
105507409 1.013 -0.036812
106993288 1.012425 -0.036636
108479167 1.013238 -0.03698
109965046 1.010402 -0.03622
111450925 1.00933 -0.03744
112936804 1.006851 -0.03732
114422683 1.004599 -0.035831
115908562 1.001118 -0.036925
117394441 0.997033 -0.034622
118880320 0.993451 -0.036298
120366199 0.990798 -0.036171
121852078 0.996142 -0.03693
123337957 1.000879 -0.039628
124823836 1.003622 -0.038392
126309715 1.006701 -0.037378
127795594 1.008327 -0.038128
129281473 1.013499 -0.040172
130767352 1.013928 -0.039526
132253231 1.014816 -0.039269
133739110 1.017849 -0.038952
135224989 1.004503 -0.050846
136710868 1.00256 -0.050821
138196747 1.002872 -0.049255
139682626 1.002079 -0.049455
141168505 1.002405 -0.04799
142654384 1.000301 -0.048413
144140263 0.997463 -0.047557
145626142 0.995471 -0.046709
147112021 0.993203 -0.045483
148597900 0.988992 -0.046392
150083779 0.985786 -0.045424
151569658 0.990217 -0.047212
153055537 0.992513 -0.04837
154541416 0.995419 -0.048463
156027295 0.996908 -0.048422
157513174 0.999367 -0.050435
158999053 1.00359 -0.049803
160484932 1.003379 -0.048481
161970811 1.004046 -0.050155
163456690 1.003888 -0.050026
164942569 1.002863 -0.049188
166428448 1.00342 -0.050508
167914327 1.002674 -0.049536
169400206 1.001311 -0.048768
170886085 0.999883 -0.049358
172371964 0.997306 -0.048763
173857843 0.996187 -0.049418
175343722 0.992886 -0.049326
176829601 0.990471 -0.049543
178315480 0.98606 -0.050605
179801359 0.982719 -0.051338
181287238 0.985554 -0.0512
182773117 0.988031 -0.052444
184258996 0.991217 -0.052106
185744875 0.993677 -0.05277
187230754 0.995561 -0.05159
188716633 0.997332 -0.053243
190202512 0.998364 -0.052415
191688391 0.998417 -0.052685
193174270 0.998878 -0.051965
194660149 0.998954 -0.051639
196146028 0.998744 -0.052172
197631907 0.993856 -0.071923
199117786 0.996479 -0.052789
200603665 0.994959 -0.05373
202089544 0.991711 -0.052605
203575423 0.98931 -0.054929
205061302 0.986968 -0.054838
206547181 0.98311 -0.056365
208033060 0.9807 -0.055411
209518939 0.975568 -0.054951
211004818 0.976068 -0.057323
212490697 0.981278 -0.057236
213976576 0.983556 -0.057971
215462455 0.986425 -0.057591
216948334 0.988875 -0.057577
218434213 0.990901 -0.058014
219920092 0.99324 -0.05813
221405971 0.994466 -0.05773
222891850 0.994719 -0.05805
224377729 0.994186 -0.05763
225863608 0.994126 -0.05631
227349487 0.993446 -0.057764
228835366 0.991553 -0.057211
230321245 0.990069 -0.057154
231807124 0.988894 -0.057577
233293003 0.986084 -0.058323
234778882 0.982816 -0.058179
236264761 0.979298 -0.059541
237750640 0.975545 -0.060119
239236519 0.972288 -0.061896
240722398 0.971989 -0.06175
242208277 0.975574 -0.061469
243694156 0.978875 -0.062954
245180035 0.981701 -0.06301
246665914 0.984861 -0.06253
248151793 0.98664 -0.061371
249637672 0.988741 -0.062239
251123551 0.990058 -0.063104
252609430 0.990808 -0.062831
254095309 0.990861 -0.062459
255581188 0.991103 -0.061969
257067067 0.989655 -0.061271
258552946 0.988728 -0.061142
260038825 0.986563 -0.062365
261524704 0.985047 -0.06153
263010583 0.981123 -0.062621
264496462 0.978457 -0.062846
265982341 0.974395 -0.064111
267468220 0.971545 -0.064536
268954099 0.96679 -0.065777
270439978 0.96461 -0.066622
271925857 0.967961 -0.067606
273411736 0.973874 -0.06637
274897615 0.976525 -0.066543
276383494 0.979942 -0.067853
277869373 0.981314 -0.067727
279355252 0.984729 -0.066422
280841131 0.984081 -0.068333
282327010 0.986731 -0.06648
283812889 0.988086 -0.06621
285298768 0.986303 -0.067235
286784647 0.986137 -0.066349
288270526 0.98429 -0.066119
289756405 0.983892 -0.066836
291242284 0.98066 -0.065156
292728163 0.978907 -0.064002
294214042 0.975083 -0.065181
295699921 0.971013 -0.066457
297185800 0.96716 -0.066472
298671679 0.961606 -0.067486
300157558 0.959638 -0.068729
301643437 0.963383 -0.068899
303129316 0.967573 -0.070563
304615195 0.971326 -0.071372
306101074 0.972919 -0.072521
307586953 0.977441 -0.072079
309072832 0.979701 -0.073588
310558711 0.979849 -0.072046
312044590 0.981983 -0.073215
313530469 0.981147 -0.071303
315016348 0.981681 -0.072431
316502227 0.982484 -0.070794
317988106 0.980448 -0.071497
319473985 0.97785 -0.071394
320959864 0.975734 -0.070584
322445743 0.973352 -0.070416
323931622 0.969629 -0.073578
325417501 0.966858 -0.071183
326903380 0.963313 -0.071208
328389259 0.958213 -0.071785
329875138 0.953697 -0.072499
331361017 0.957075 -0.072928
332846896 0.9607 -0.075559
334332775 0.964179 -0.076394
335818654 0.967112 -0.077223
337304533 0.970077 -0.075018
338790412 0.971386 -0.076249
340276291 0.975232 -0.076582
341762170 0.97605 -0.076
343248049 0.976205 -0.077641
344733928 0.975946 -0.076556
346219807 0.975428 -0.075254
347705686 0.97339 -0.075821
349191565 0.973626 -0.07725
350677444 0.971231 -0.074587
352163323 0.967691 -0.074402
353649202 0.965498 -0.074089
355135081 0.960854 -0.072584
356620960 0.957748 -0.072295
358106839 0.953186 -0.073303
359592718 0.947368 -0.074507
361078597 0.950042 -0.075195
362564476 0.9532 -0.077331
364050355 0.958123 -0.077592
365536234 0.96082 -0.077811
367022113 0.964384 -0.078994
368507992 0.965604 -0.078679
369993871 0.969208 -0.080008
371479750 0.969237 -0.079182
372965629 0.970854 -0.08013
374451508 0.969842 -0.080806
375937387 0.969969 -0.079714
377423266 0.969798 -0.078833
378909145 0.968628 -0.077711
380395024 0.967426 -0.076757
381880903 0.964475 -0.075703
383366782 0.96237 -0.076293
384852661 0.959282 -0.073381
386338540 0.955623 -0.075276
387824419 0.950403 -0.075335
389310298 0.946623 -0.074525
390796177 0.945155 -0.074283
392282056 0.949885 -0.07821
393767935 0.953271 -0.078236
395253814 0.956388 -0.07953
396739693 0.957912 -0.079676
398225572 0.961603 -0.078837
399711451 0.961734 -0.080031
401197330 0.963346 -0.078784
402683209 0.963963 -0.081141
404169088 0.965115 -0.078083
405654967 0.964415 -0.079538
407140846 0.964275 -0.07746
408626725 0.963164 -0.077512
410112604 0.961879 -0.079117
411598483 0.958811 -0.079121
413084362 0.955547 -0.077657
414570241 0.954962 -0.076384
416056120 0.950399 -0.076772
417541999 0.94642 -0.076598
419027878 0.941392 -0.07581
420513757 0.939553 -0.077355
421999636 0.943369 -0.079148
423485515 0.946878 -0.077973
424971394 0.949751 -0.079146
426457273 0.953423 -0.077995
427943152 0.954351 -0.081576
429429031 0.955616 -0.080994
430914910 0.957121 -0.081084
432400789 0.958201 -0.080748
433886668 0.957072 -0.080754
435372547 0.958993 -0.079829
436858426 0.956664 -0.079306
438344305 0.954442 -0.078113
439830184 0.955681 -0.077033
441316063 0.952682 -0.078644
442801942 0.950597 -0.076127
444287821 0.948457 -0.077324
445773700 0.945111 -0.077016
447259579 0.941613 -0.077399
448745458 0.935634 -0.078299
450231337 0.933077 -0.076068
451717216 0.938256 -0.077339
453203095 0.939555 -0.077451
454688974 0.94311 -0.076998
456174853 0.947242 -0.078883
457660732 0.948009 -0.080538
459146611 0.952064 -0.081847
460632490 0.952896 -0.080862
462118369 0.952896 -0.082813
463604248 0.953874 -0.083997
465090127 0.95221 -0.082075
466576006 0.952557 -0.079248
468061885 0.951884 -0.080086
469547764 0.950178 -0.080213
471033643 1.09776 -0.039391
472519522 0.946311 -0.080528
474005401 0.943894 -0.080387
475491280 0.940721 -0.079136
476977159 0.937659 -0.078242
478463038 0.934627 -0.080752
479948917 0.930807 -0.077401
481434796 0.933888 -0.078208
482920675 0.937886 -0.079793
484406554 0.940684 -0.082857
485892433 0.941699 -0.082165
487378312 0.945091 -0.080567
488864191 0.945337 -0.080868
490350070 0.948041 -0.081727
491835949 0.949048 -0.080674
493321828 0.948524 -0.082729
494807707 0.949905 -0.080436
496293586 0.949316 -0.079588
497779465 0.946985 -0.082543
499265344 0.946914 -0.079712
500751223 0.944378 -0.080159
502237102 0.943233 -0.078891
503722981 0.938893 -0.079457
505208860 0.93744 -0.077573
506694739 0.933156 -0.078822
508180618 0.930437 -0.07898
509666497 0.926311 -0.079649
511152376 0.928301 -0.079571
512638255 0.932372 -0.078766
514124134 0.935555 -0.083008
515610013 0.93817 -0.082334
517095892 0.939605 -0.083436
518581771 0.943004 -0.082038
520067650 0.944299 -0.079955
521553529 0.944114 -0.083315
523039408 0.944908 -0.081426
524525287 0.945857 -0.078946
526011166 0.946447 -0.080658
527497045 0.945818 -0.080348
528982924 0.944486 -0.079506
530468803 0.941907 -0.078732
531954682 0.939866 -0.079078
533440561 0.939573 -0.077887
534926440 0.935933 -0.078147
536412319 0.933145 -0.078974
537898198 0.930145 -0.080637
539384077 0.922743 -0.078354
540869956 0.923162 -0.079865
542355835 0.925341 -0.080459
543841714 0.928695 -0.080198
545327593 0.932273 -0.079454
546813472 0.934174 -0.081029
548299351 0.936137 -0.07873
549785230 0.936189 -0.078871
551271109 0.936992 -0.078775
552756988 0.93709 -0.080787
554242867 0.937337 -0.078352
555728746 0.936403 -0.077645
557214625 0.933939 -0.079588
558700504 0.931924 -0.079363
560186383 0.929972 -0.076538
561672262 0.929046 -0.077282
563158141 0.924713 -0.077926
564644020 0.919187 -0.07704
566129899 0.916476 -0.076843
567615778 0.91164 -0.077704
569101657 0.908595 -0.078502
570587536 0.906681 -0.075859
572073415 0.910275 -0.080633
573559294 0.914541 -0.078429
575045173 0.918072 -0.084082
576531052 0.920698 -0.083678
578016931 0.92443 -0.083914
579502810 0.927104 -0.084616
580988689 0.930486 -0.083273
582474568 0.929959 -0.085029
583960447 0.93186 -0.085657
585446326 0.93153 -0.085725
586932205 0.932127 -0.084537
588418084 0.931139 -0.085325
589903963 0.931374 -0.084262
591389842 0.929843 -0.084087
592875721 0.928285 -0.084941
594361600 0.927688 -0.084105
595847479 0.924337 -0.083582
597333358 0.920448 -0.083801
598819237 0.917769 -0.088013
600305116 0.914325 -0.084095
601790995 0.918589 -0.086351
603276874 0.923332 -0.084463
604762753 0.926555 -0.089204
606248632 0.929992 -0.089161
607734511 0.930593 -0.084737
609220390 0.933041 -0.086988
610706269 0.935405 -0.087182
612192148 0.93689 -0.088463
613678027 0.938282 -0.088007
615163906 0.938178 -0.087165
616649785 0.937845 -0.085816
618135664 0.936821 -0.088059
619621543 0.93615 -0.084575
621107422 0.935385 -0.082745
622593301 0.932402 -0.083647
624079180 0.927869 -0.080835
625565059 0.925479 -0.080923
627050938 0.922704 -0.081099
628536817 0.918041 -0.081856
630022696 0.912679 -0.081756
631508575 0.915713 -0.086623
632994454 0.918969 -0.0852
634480333 0.923255 -0.084713
635966212 0.926621 -0.083959
637452091 0.92909 -0.086758
638937970 0.930289 -0.086047
640423849 0.931955 -0.088812
641909728 0.933368 -0.083417
643395607 0.933837 -0.087322
644881486 0.934112 -0.08421
646367365 0.933548 -0.085026
647853244 0.930935 -0.084823
649339123 0.93229 -0.085772
650825002 0.931263 -0.082703
652310881 0.928205 -0.083791
653796760 0.92611 -0.079736
655282639 0.922097 -0.083266
656768518 0.918174 -0.083522
658254397 0.914446 -0.081825
659740276 0.909221 -0.081759
661226155 0.911951 -0.080014
662712034 0.914556 -0.083046
664197913 0.919446 -0.083919
665683792 0.922583 -0.083634
667169671 0.925642 -0.082607
668655550 0.928009 -0.083458
670141429 0.930639 -0.08675
671627308 0.931075 -0.081995
673113187 0.933354 -0.081755
674599066 0.93949 -0.047613
676084945 0.933029 -0.080152
677570824 0.93351 -0.080066
679056703 0.931162 -0.078827
680542582 0.930613 -0.076454
682028461 0.927636 -0.07771
683514340 0.925989 -0.074668
685000219 0.923352 -0.07354
686486098 0.917901 -0.072003
687971977 0.915495 -0.071307
689457856 0.911862 -0.069241
690943735 0.912356 -0.070759
692429614 0.917114 -0.072755
693915493 0.919539 -0.073901
695401372 0.921675 -0.077223
696887251 0.920964 -0.076835
698373130 0.927435 -0.077149
699859009 0.927418 -0.078512
701344888 0.927557 -0.079249
702830767 0.928147 -0.080284
704316646 0.928571 -0.081112
705802525 0.928633 -0.077178
707288404 0.929927 -0.078061
708774283 0.929134 -0.0791
710260162 0.927805 -0.08183
711746041 0.92417 -0.079976
713231920 0.922885 -0.080583
714717799 0.918861 -0.080845
716203678 0.914941 -0.080559
717689557 0.910772 -0.085054
719175436 0.90906 -0.080926
720661315 0.907048 -0.081114
722147194 0.910761 -0.085913
723633073 0.914101 -0.085354
725118952 0.917252 -0.085402
726604831 0.920392 -0.084634
728090710 0.924384 -0.08488
729576589 0.92452 -0.084035
731062468 0.925021 -0.08569
732548347 0.92716 -0.08596
734034226 0.924812 -0.085584
735520105 0.927727 -0.083627
737005984 0.92532 -0.083148
738491863 0.927018 -0.083729
739977742 0.921166 -0.084263
741463621 0.920143 -0.082084
742949500 0.920587 -0.082899
744435379 0.91664 -0.083171
745921258 0.912701 -0.077797
747407137 0.911784 -0.078957
748893016 0.907649 -0.078873
750378895 0.906118 -0.07712
751864774 0.906701 -0.080363
753350653 0.914278 -0.079651
754836532 0.912771 -0.08071
756322411 0.914496 -0.08046
757808290 0.919511 -0.086192
759294169 0.922788 -0.082811
760780048 0.920984 -0.083948
762265927 0.924944 -0.081614
763751806 0.92434 -0.079126
765237685 0.923007 -0.082131
766723564 0.923934 -0.08017
768209443 0.921319 -0.080353
769695322 0.920051 -0.082559
771181201 0.916981 -0.085129
772667080 0.916937 -0.081131
774152959 0.915771 -0.08143
775638838 0.910892 -0.080972
777124717 0.909916 -0.08004
778610596 0.904655 -0.076881
780096475 0.901667 -0.080032
781582354 0.904756 -0.08157
783068233 0.908849 -0.082568
784554112 0.911295 -0.083074
786039991 0.91542 -0.081667
787525870 0.916566 -0.084784
789011749 0.917878 -0.079977
790497628 0.922999 -0.084488
791983507 0.920961 -0.080251
793469386 0.922994 -0.082039
794955265 0.92235 -0.084539
796441144 0.924159 -0.08338
797927023 0.922748 -0.082992
799412902 0.922167 -0.077909
800898781 0.919258 -0.079614
802384660 0.917865 -0.082161
803870539 0.916101 -0.080369
805356418 0.912355 -0.081544
806842297 0.908792 -0.082075
808328176 0.905749 -0.080655
809814055 0.902572 -0.082051
811299934 0.90618 -0.080886
812785813 0.907213 -0.080199
814271692 0.912 -0.080182
815757571 0.912715 -0.082457
817243450 0.916222 -0.081874
818729329 0.919793 -0.081653
820215208 0.920389 -0.077352
821701087 0.921807 -0.08382
823186966 0.920247 -0.082743
824672845 1.011998 -0.020644
826158724 0.92069 -0.080504
827644603 0.920801 -0.080885
829130482 0.919887 -0.080459
830616361 0.9194 -0.080241
832102240 0.91473 -0.080102
833588119 0.912349 -0.079136
835073998 0.908714 -0.079226
836559877 0.908418 -0.078938
838045756 0.901909 -0.078941
839531635 0.898433 -0.080213
841017514 0.900107 -0.08145
842503393 0.903118 -0.084043
843989272 0.908266 -0.082014
845475151 0.911572 -0.082827
846961030 0.912768 -0.083348
848446909 0.91519 -0.084516
849932788 0.917167 -0.083855
851418667 0.917707 -0.082823
852904546 0.918331 -0.086674
854390425 0.920785 -0.079844
855876304 0.919776 -0.081303
857362183 0.918759 -0.084021
858848062 0.916363 -0.0822
860333941 0.91776 -0.082799
861819820 0.914844 -0.080981
863305699 0.911748 -0.082243
864791578 0.910442 -0.080788
866277457 0.906064 -0.081879
867763336 0.902164 -0.080403
869249215 0.897688 -0.082792
870735094 0.898358 -0.080676
872220973 0.902645 -0.080448
873706852 0.905796 -0.083463
875192731 0.908152 -0.083359
876678610 0.912699 -0.083926
878164489 0.914825 -0.086363
879650368 0.914359 -0.085466
881136247 0.917437 -0.084607
882622126 0.921186 -0.084869
884108005 0.920091 -0.083285
885593884 0.918928 -0.086779
887079763 0.918873 -0.085433
888565642 0.920249 -0.080463
890051521 0.916932 -0.080886
891537400 0.917059 -0.080276
893023279 0.91251 -0.082755
894509158 0.910297 -0.079162
895995037 0.907005 -0.084867
897480916 0.902175 -0.083657
898966795 0.897906 -0.081402
900452674 0.898061 -0.083568
901938553 0.901005 -0.082432
903424432 0.903855 -0.08106
904910311 0.908759 -0.080785
906396190 0.91117 -0.084237
907882069 0.913086 -0.083501
909367948 0.91334 -0.086257
910853827 0.915543 -0.085946
912339706 0.915948 -0.086452
913825585 0.917402 -0.087544
915311464 0.917111 -0.086883
916797343 0.916236 -0.084855
918283222 0.9168 -0.086493
919769101 0.91288 -0.084801
921254980 0.915074 -0.083591
922740859 0.909359 -0.084014
924226738 0.908152 -0.081675
925712617 0.902318 -0.082442
927198496 0.900121 -0.085921
928684375 0.89681 -0.083179
930170254 0.892761 -0.078481
931656133 0.895542 -0.084198
933142012 0.900277 -0.084619
934627891 0.900648 -0.088036
936113770 0.904714 -0.089329
937599649 0.909145 -0.08674
939085528 0.909289 -0.086853
940571407 0.911122 -0.090516
942057286 0.912809 -0.088112
943543165 0.914337 -0.089157
945029044 0.913823 -0.086339
946514923 0.911993 -0.087668
948000802 0.912933 -0.08498
949486681 0.910836 -0.089471
950972560 0.909787 -0.084902
952458439 0.908981 -0.086343
953944318 0.905919 -0.081812
955430197 0.902829 -0.083947
956916076 0.900491 -0.081556
958401955 0.895821 -0.086992
959887834 0.894391 -0.078428
961373713 0.893732 -0.083226
962859592 0.898366 -0.086827
964345471 0.902012 -0.087159
965831350 0.906496 -0.086089
967317229 0.907069 -0.087115
968803108 0.907089 -0.090025
970288987 0.909287 -0.088088
971774866 0.912231 -0.091398
973260745 0.910294 -0.09054
974746624 0.91291 -0.085018
976232503 0.911846 -0.087742
977718382 0.912301 -0.088341
979204261 0.909811 -0.088643
980690140 0.91135 -0.089428
982176019 0.90773 -0.086713
983661898 0.904944 -0.084814
985147777 0.903418 -0.08915
986633656 0.899773 -0.082522
988119535 0.897811 -0.082106
989605414 0.892823 -0.083682
991091293 0.894103 -0.083155
992577172 0.897959 -0.083904
994063051 0.901679 -0.086482
995548930 0.902461 -0.084092
997034809 0.906081 -0.088887
998520688 0.907733 -0.088268
1000006567 0.90644 -0.09257
1001492446 0.908879 -0.086142
1002978325 0.909437 -0.08791
1004464204 0.909948 -0.087471
1005950083 0.908827 -0.086775
1007435962 0.909817 -0.084218
1008921841 0.907774 -0.090075
1010407720 0.907354 -0.084446
1011893599 0.906032 -0.084383
1013379478 0.903769 -0.082529
1014865357 0.90099 -0.080647
1016351236 0.896144 -0.08329
1017837115 0.89519 -0.083194
1019322994 0.891751 -0.078774
1020808873 0.890072 -0.083802
1022294752 0.893803 -0.080756
1023780631 0.896959 -0.086227
1025266510 0.899505 -0.081657
1026752389 0.901393 -0.084165
1028238268 0.904872 -0.083903
1029724147 0.905422 -0.083349
1031210026 0.906618 -0.081606
1032695905 0.908963 -0.081939
1034181784 0.909118 -0.081208
1035667663 0.907167 -0.08273
1037153542 0.909174 -0.086435
1038639421 0.908727 -0.086232
1040125300 0.90501 -0.082564
1041611179 0.904615 -0.083729
1043097058 0.904993 -0.081516
1044582937 0.900354 -0.08112
1046068816 0.89918 -0.081344
1047554695 0.896882 -0.076461
1049040574 0.890151 -0.082685
1050526453 0.891577 -0.078172
1052012332 0.894096 -0.079891
1053498211 0.898052 -0.079196
1054984090 0.899858 -0.084909
1056469969 0.903002 -0.080291
1057955848 0.904944 -0.08148
1059441727 0.905621 -0.082224
1060927606 0.905346 -0.084541
1062413485 0.908879 -0.083155
1063899364 0.908341 -0.084731
1065385243 0.908449 -0.081318
1066871122 0.907594 -0.081475
1068357001 0.906061 -0.083709
1069842880 0.905378 -0.084594
1071328759 0.904527 -0.080046
1072814638 0.902042 -0.080951
1074300517 0.900521 -0.079215
1075786396 0.897622 -0.079698
1077272275 0.894854 -0.078825
1078758154 0.891658 -0.076778
1080244033 0.889685 -0.08146
1081729912 0.893146 -0.081925
1083215791 0.897049 -0.080764
1084701670 0.900008 -0.078346
1086187549 0.902346 -0.082005
1087673428 0.903827 -0.078805
1089159307 0.904604 -0.082196
1090645186 0.905392 -0.07738
1092131065 0.908749 -0.076732
1093616944 0.908707 -0.078595
1095102823 0.907864 -0.081488
1096588702 0.908924 -0.078722
1098074581 0.90769 -0.08135
1099560460 0.906426 -0.077875
1101046339 0.905613 -0.073024
1102532218 0.902422 -0.080273
1104018097 0.901343 -0.077441
1105503976 0.896792 -0.081023
1106989855 0.895923 -0.074502
1108475734 0.892539 -0.077287
1109961613 0.889036 -0.077106
1111447492 0.893164 -0.076388
1112933371 0.895848 -0.078911
1114419250 0.898423 -0.078637
1115905129 0.902419 -0.074695
1117391008 0.90374 -0.079848
1118876887 0.906012 -0.079415
1120362766 0.907932 -0.07594
1121848645 0.90891 -0.076396
1123334524 0.909625 -0.077765
1124820403 0.905846 -0.087592
1126306282 0.909046 -0.077368
1127792161 0.906496 -0.080231
1129278040 0.907262 -0.07815
1130763919 0.903728 -0.07599
1132249798 0.905692 -0.078413
1133735677 0.902063 -0.078941
1135221556 0.89878 -0.074698
1136707435 0.895317 -0.081861
1138193314 0.891595 -0.073882
1139679193 0.886718 -0.077181
1141165072 0.891075 -0.078041
1142650951 0.896347 -0.074329
1144136830 0.897403 -0.079624
1145622709 0.902627 -0.077875
1147108588 0.906835 -0.077625
1148594467 0.906424 -0.075349
1150080346 0.906718 -0.080759
1151566225 0.908562 -0.080994
1153052104 0.908383 -0.077672
1154537983 0.908433 -0.072647
1156023862 0.910659 -0.077884
1157509741 0.909462 -0.075653
1158995620 0.906399 -0.076706
1160481499 0.906192 -0.080085
1161967378 0.906362 -0.075095
1163453257 0.901776 -0.075224
1164939136 0.900787 -0.075099
1166425015 0.893652 -0.074738
1167910894 0.892767 -0.080343
1169396773 0.887217 -0.076868
1170882652 0.888579 -0.072707
1172368531 0.892152 -0.078751
1173854410 0.897267 -0.076861
1175340289 0.897399 -0.077167
1176826168 0.90135 -0.078832
1178312047 0.904164 -0.083933
1179797926 0.906471 -0.079231
1181283805 0.906873 -0.082595
1182769684 0.906929 -0.082408
1184255563 0.908561 -0.077569
1185741442 0.907765 -0.077578
1187227321 0.907978 -0.078699
1188713200 0.910502 -0.078314
1190199079 0.90689 -0.084033
1191684958 0.904917 -0.078472
1193170837 0.903577 -0.080051
1194656716 0.899836 -0.076052
1196142595 0.892993 -0.079783
1197628474 0.890073 -0.079613
1199114353 0.885633 -0.076903
1200600232 0.889917 -0.076834
1202086111 0.892124 -0.077554
1203571990 0.897807 -0.08011
1205057869 0.899877 -0.08277
1206543748 0.902408 -0.084438
1208029627 0.901633 -0.082344
1209515506 0.904005 -0.085072
1211001385 0.906838 -0.086985
1212487264 0.905731 -0.087542
1213973143 0.910762 -0.08136
1215459022 0.908023 -0.080916
1216944901 0.909328 -0.079612
1218430780 0.90611 -0.080707
1219916659 0.90931 -0.066152
1221402538 0.904264 -0.081506
1222888417 0.902574 -0.081028
1224374296 0.899798 -0.081878
1225860175 0.894853 -0.082633
1227346054 0.893747 -0.079733
1228831933 0.888357 -0.081902
1230317812 0.886401 -0.086361
1231803691 0.888249 -0.081539
1233289570 0.893327 -0.083676
1234775449 0.894584 -0.08761
1236261328 0.898062 -0.084143
1237747207 0.899291 -0.087366
1239233086 0.900427 -0.085468
1240718965 0.90389 -0.084212
1242204844 0.904322 -0.086348
1243690723 0.903798 -0.083661
1245176602 0.902965 -0.084521
1246662481 0.901658 -0.087007
1248148360 0.901638 -0.085093
1249634239 0.901628 -0.083253
1251120118 0.898769 -0.077538
1252605997 0.895476 -0.083473
1254091876 0.893055 -0.078233
1255577755 0.888972 -0.083927
1257063634 0.886495 -0.076085
1258549513 0.879095 -0.084611
1260035392 0.876515 -0.084758
1261521271 0.87878 -0.081113
1263007150 0.883329 -0.081275
1264493029 0.887058 -0.084052
1265978908 0.890055 -0.085214
1267464787 0.892144 -0.087963
1268950666 0.895467 -0.091817
1270436545 0.895752 -0.091108
1271922424 0.898922 -0.090464
1273408303 0.899936 -0.088574
1274894182 0.900277 -0.086705
1276380061 0.901039 -0.086073
1277865940 0.900729 -0.086657
1279351819 0.900651 -0.085379
1280837698 0.898333 -0.086008
1282323577 0.898232 -0.086894
1283809456 0.895123 -0.080257
1285295335 0.893378 -0.085056
1286781214 0.890511 -0.081611
1288267093 0.885489 -0.078554
1289752972 0.882726 -0.082922
1291238851 0.88404 -0.079441
1292724730 0.888079 -0.085177
1294210609 0.889794 -0.078722
1295696488 0.893231 -0.078571
1297182367 0.893508 -0.082581
1298668246 0.895236 -0.081358
1300154125 0.896915 -0.085582
1301640004 0.898574 -0.082967
1303125883 0.897684 -0.082773
1304611762 0.89518 -0.08674
1306097641 0.897239 -0.085398
1307583520 0.895278 -0.082639
1309069399 0.895972 -0.079871
1310555278 0.891622 -0.084952
1312041157 0.890823 -0.082201
1313527036 0.888494 -0.076612
1315012915 0.884785 -0.078936
1316498794 0.880009 -0.080606
1317984673 0.875342 -0.076424
1319470552 0.872032 -0.081057
1320956431 0.876559 -0.075686
1322442310 0.877727 -0.082464
1323928189 0.880545 -0.082516
1325414068 0.884933 -0.083618
1326899947 0.886134 -0.085593
1328385826 0.887739 -0.08343
1329871705 0.891023 -0.084417
1331357584 0.891817 -0.089287
1332843463 0.894176 -0.080696
1334329342 0.896372 -0.087483
1335815221 0.896482 -0.089426
1337301100 0.894231 -0.079836
1338786979 0.898523 -0.083611
1340272858 0.895169 -0.080086
1341758737 0.893427 -0.085969
1343244616 0.892052 -0.083866
1344730495 0.889546 -0.086426
1346216374 0.889417 -0.080199
1347702253 0.891229 -0.088144
1349188132 0.881127 -0.079659
1350674011 0.884493 -0.087535
1352159890 0.888499 -0.084708
1353645769 0.887103 -0.088001
1355131648 0.893639 -0.085389
1356617527 0.895883 -0.086461
1358103406 0.896454 -0.088816
1359589285 0.902908 -0.089722
1361075164 0.901091 -0.090674
1362561043 0.905125 -0.091569
1364046922 0.900122 -0.086914
1365532801 0.903122 -0.093422
1367018680 0.904302 -0.089029
1368504559 0.905259 -0.096457
1369990438 0.902071 -0.091629
1371476317 0.903197 -0.069546
1372962196 0.906508 -0.099094
1374448075 0.89456 -0.103936
1375933954 0.903523 -0.092985
1377419833 0.897069 -0.096955
1378905712 0.890909 -0.089697
1380391591 0.894561 -0.092174
1381877470 0.89759 -0.091272
1383363349 0.900577 -0.091249
1384849228 0.900482 -0.09269
1386335107 0.903591 -0.097293
1387820986 0.912829 -0.057626
1389306865 0.909689 -0.09115
1390792744 0.905984 -0.09201
1392278623 0.915812 -0.060678
1393764502 0.911591 -0.086549
1395250381 0.909059 -0.091885
1396736260 0.906261 -0.090847
1398222139 0.901323 -0.086848
1399708018 0.901419 -0.091464
1401193897 0.896064 -0.087179
1402679776 0.89518 -0.086859
1404165655 0.893485 -0.086902
1405651534 0.891617 -0.086327
1407137413 0.890375 -0.085089
1408623292 0.886621 -0.090203
1410109171 0.884978 -0.087207
1411595050 0.887718 -0.08562
1413080929 0.890432 -0.086963
1414566808 0.894745 -0.08454
1416052687 0.897563 -0.078926
1417538566 0.899691 -0.089524
1419024445 0.899399 -0.081063
1420510324 0.902163 -0.074897
1421996203 0.904946 -0.082881
1423482082 0.904228 -0.076542
1424967961 0.904358 -0.073332
1426453840 0.905707 -0.07326
1427939719 0.906089 -0.071982
1429425598 0.902308 -0.075818
1430911477 0.901101 -0.065432
1432397356 0.900107 -0.068508
1433883235 0.897733 -0.063212
1435369114 0.892665 -0.069288
1436854993 0.893251 -0.063147
1438340872 0.887251 -0.063812
1439826751 0.885053 -0.0629
1441312630 0.886446 -0.064639
1442798509 0.890979 -0.066412
1444284388 0.893241 -0.064464
1445770267 0.89209 -0.06216
1447256146 0.8967 -0.066044
1448742025 0.894172 -0.072367
1450227904 0.898563 -0.069879
1451713783 0.900378 -0.071308
1453199662 0.899029 -0.069729
1454685541 0.899053 -0.074862
1456171420 0.899531 -0.067551
1457657299 0.897934 -0.075446
1459143178 0.897781 -0.072593
1460629057 0.893316 -0.078684
1462114936 0.893636 -0.073082
1463600815 0.892128 -0.077748
1465086694 0.889242 -0.075706
1466572573 0.886396 -0.078064
1468058452 0.883813 -0.082039
1469544331 0.879733 -0.079347
1471030210 0.881727 -0.084312
1472516089 0.885316 -0.079627
1474001968 0.888652 -0.08626
1475487847 0.891957 -0.083128
1476973726 0.895443 -0.0807
1478459605 0.897676 -0.078576
1479945484 0.899483 -0.078541
1481431363 0.901536 -0.079408
1482917242 0.899352 -0.08418
1484403121 0.900056 -0.082112
1485889000 0.900016 -0.081429
1487374879 0.900631 -0.079683
1488860758 0.89951 -0.079122
1490346637 0.898678 -0.077251
1491832516 0.898107 -0.072138
1493318395 0.893814 -0.07658
1494804274 0.891271 -0.075914
1496290153 0.887883 -0.077148
1497776032 0.884318 -0.077812
1499261911 0.880725 -0.076389
1500747790 0.880178 -0.079924
1502233669 0.883263 -0.082723
1503719548 0.889321 -0.075313
1505205427 0.8906 -0.082922
1506691306 0.895535 -0.076774
1508177185 0.897195 -0.076499
1509663064 0.897832 -0.080893
1511148943 0.901853 -0.078752
1512634822 0.902342 -0.077438
1514120701 0.904119 -0.077882
1515606580 0.9031 -0.074716
1517092459 0.903327 -0.075316
1518578338 0.900817 -0.076514
1520064217 0.902188 -0.081741
1521550096 0.899219 -0.072915
1523035975 0.895736 -0.07154
1524521854 0.892776 -0.076602
1526007733 0.888994 -0.076727
1527493612 0.887787 -0.072781
1528979491 0.881826 -0.076373
1530465370 0.881387 -0.074555
1531951249 0.885053 -0.072843
1533437128 0.888863 -0.074998
1534923007 0.890664 -0.080956
1536408886 0.894737 -0.081233
1537894765 0.895734 -0.080541
1539380644 0.899369 -0.077155
1540866523 0.902508 -0.073539
1542352402 0.902873 -0.079909
1543838281 0.902107 -0.083249
1545324160 0.902575 -0.077891
1546810039 0.902324 -0.077407
1548295918 0.899404 -0.07571
1549781797 0.900252 -0.076141
1551267676 0.899798 -0.081143
1552753555 0.895371 -0.074397
1554239434 0.891241 -0.079716
1555725313 0.88895 -0.075803
1557211192 0.884256 -0.072772
1558697071 0.877431 -0.080921
1560182950 0.875316 -0.079833
1561668829 0.87899 -0.082639
1563154708 0.884726 -0.081497
1564640587 0.88899 -0.077249
1566126466 0.890869 -0.084572
1567612345 0.895921 -0.079255
1569098224 0.897895 -0.080121
1570584103 0.897543 -0.085348
1572069982 0.899328 -0.084211
1573555861 0.896888 -0.080974
1575041740 0.901472 -0.083572
1576527619 0.900736 -0.076805
1578013498 0.899244 -0.084734
1579499377 0.898336 -0.082549
1580985256 0.894051 -0.082422
1582471135 0.89365 -0.079056
1583957014 0.891026 -0.079522
1585442893 0.888287 -0.085158
1586928772 0.884705 -0.07829
1588414651 0.880841 -0.081794
1589900530 0.873098 -0.077108
1591386409 0.879498 -0.080487
1592872288 0.882242 -0.082715
1594358167 0.886743 -0.086089
1595844046 0.890763 -0.08487
1597329925 0.893102 -0.085134
1598815804 0.895229 -0.086894
1600301683 0.897707 -0.088656
1601787562 0.901152 -0.087265
1603273441 0.904877 -0.082259
1604759320 0.903543 -0.083532
1606245199 0.900603 -0.084638
1607731078 0.901076 -0.083878
1609216957 0.89943 -0.082356
1610702836 0.897235 -0.081993
1612188715 0.89545 -0.074482
1613674594 0.894927 -0.073339
1615160473 0.891238 -0.084763
1616646352 0.889808 -0.078411
1618132231 0.883602 -0.081404
1619618110 0.877248 -0.079643
1621103989 0.880413 -0.082653
1622589868 0.887222 -0.080969
1624075747 0.887418 -0.082414
1625561626 0.893991 -0.08596
1627047505 0.893593 -0.083191
1628533384 0.895644 -0.082803
1630019263 0.893917 -0.086601
1631505142 0.897002 -0.0796
1632991021 0.899122 -0.090807
1634476900 0.899782 -0.083109
1635962779 0.897913 -0.087872
1637448658 0.89936 -0.083076
1638934537 0.897204 -0.087165
1640420416 0.895017 -0.086251
1641906295 0.893687 -0.079526
1643392174 0.891671 -0.079109
1644878053 0.890766 -0.082429
1646363932 0.885925 -0.078466
1647849811 0.883669 -0.075645
1649335690 0.878299 -0.075339
1650821569 0.877824 -0.078012
1652307448 0.880681 -0.080113
1653793327 0.884319 -0.084408
1655279206 0.888996 -0.088831
1656765085 0.889421 -0.081798
1658250964 0.891925 -0.087889
1659736843 0.892962 -0.089712
1661222722 0.894776 -0.087683
1662708601 0.896782 -0.088951
1664194480 0.895685 -0.085952
1665680359 0.896729 -0.084601
1667166238 0.895613 -0.088756
1668652117 0.895235 -0.083941
1670137996 0.895441 -0.08485
1671623875 0.89289 -0.079685
1673109754 0.888962 -0.079501
1674595633 0.889111 -0.08663
1676081512 0.887568 -0.077816
1677567391 0.884469 -0.07933
1679053270 0.8773 -0.081924
1680539149 0.878146 -0.08109
1682025028 0.880409 -0.088539
1683510907 0.884328 -0.083427
1684996786 0.886628 -0.086386
1686482665 0.889754 -0.088728
1687968544 0.890197 -0.089551
1689454423 0.894806 -0.080714
1690940302 0.894115 -0.084948
1692426181 0.897038 -0.085369
1693912060 0.896107 -0.08797
1695397939 0.895835 -0.08895
1696883818 0.896655 -0.086986
1698369697 0.8966 -0.083914
1699855576 0.894112 -0.084808
1701341455 0.892757 -0.082821
1702827334 0.891351 -0.082951
1704313213 0.889226 -0.081639
1705799092 0.8859 -0.083338
1707284971 0.882132 -0.084599
1708770850 0.877983 -0.075098
1710256729 0.876828 -0.079447
1711742608 0.880111 -0.079093
1713228487 0.884587 -0.083844
1714714366 0.88557 -0.08245
1716200245 0.888492 -0.080825
1717686124 0.889444 -0.085883
1719172003 0.894369 -0.086274
1720657882 0.895974 -0.083691
1722143761 0.896108 -0.081849
1723629640 0.896776 -0.100337
1725115519 0.897061 -0.076526
1726601398 0.898161 -0.080445
1728087277 0.899069 -0.081675
1729573156 0.893029 -0.076734
1731059035 0.895962 -0.084426
1732544914 0.891817 -0.081686
1734030793 0.890177 -0.077331
1735516672 0.891038 -0.076111
1737002551 0.883622 -0.076216
1738488430 0.882355 -0.08068
1739974309 0.879261 -0.079934
1741460188 0.878545 -0.081066
1742946067 0.8852 -0.083999
1744431946 0.884773 -0.07917
1745917825 0.891419 -0.075424
1747403704 0.892254 -0.077453
1748889583 0.892071 -0.082242
1750375462 0.89455 -0.081625
1751861341 0.888842 -0.094824
1753347220 0.892615 -0.079807
1754833099 0.888197 -0.093945
1756318978 0.892563 -0.08475
1757804857 0.890301 -0.092015
1759290736 0.8935 -0.07948
1760776615 0.884406 -0.091791
1762262494 0.88762 -0.080199
1763748373 0.883659 -0.091645
1765234252 0.884523 -0.074924
1766720131 0.876353 -0.092819
1768206010 0.877977 -0.078585
1769691889 0.865768 -0.092224
1771177768 0.876936 -0.073194
1772663647 0.873525 -0.086561
1774149526 0.884705 -0.076482
1775635405 0.878525 -0.094699
1777121284 0.889327 -0.081843
1778607163 0.885408 -0.094035
1780093042 0.891636 -0.074676
1781578921 0.888819 -0.090978
1783064800 0.893059 -0.077417
1784550679 0.88546 -0.092644
1786036558 0.895631 -0.07057
1787522437 0.889892 -0.080879
1789008316 0.894547 -0.063133
1790494195 0.886164 -0.086732
1791980074 0.891132 -0.054966
1793465953 0.881293 -0.0812
1794951832 0.887124 -0.063008
1796437711 0.877105 -0.088051
1797923590 0.88095 -0.056461
1799409469 0.867641 -0.08042
1800895348 0.871215 -0.072984
1802381227 0.874702 -0.068833
1803867106 0.883203 -0.064532
1805352985 0.881347 -0.079801
1806838864 0.882076 -0.072865
1808324743 0.889918 -0.068504
1809810622 0.894822 -0.070714
1811296501 0.893042 -0.070335
1812782380 0.892676 -0.072893
1814268259 0.893595 -0.075746
1815754138 0.893299 -0.067363
1817240017 0.893255 -0.072578
1818725896 0.892975 -0.074966
1820211775 0.89303 -0.080011
1821697654 0.891005 -0.070424
1823183533 0.890349 -0.075233
1824669412 0.884397 -0.075073
1826155291 0.885747 -0.074244
1827641170 0.880488 -0.06726
1829127049 0.878292 -0.075844
1830612928 0.87517 -0.073998
1832098807 0.88294 -0.077375
1833584686 0.886397 -0.073204
1835070565 0.891386 -0.074043
1836556444 0.89257 -0.078901
1838042323 0.894538 -0.081289
1839528202 0.894783 -0.077765
1841014081 0.900131 -0.072232
1842499960 0.899502 -0.078806
1843985839 0.903953 -0.075628
1845471718 0.909 -0.073377
1846957597 0.902963 -0.081961
1848443476 0.904369 -0.074535
1849929355 0.899862 -0.079654
1851415234 0.900497 -0.080804
1852901113 0.893733 -0.081394
1854386992 0.895012 -0.079727
1855872871 0.894773 -0.070921
1857358750 0.88904 -0.076575
1858844629 0.886771 -0.074768
1860330508 0.880683 -0.083933
1861816387 0.888396 -0.076334
1863302266 0.892411 -0.077626
1864788145 0.892285 -0.08482
1866274024 0.895885 -0.08087
1867759903 0.897744 -0.082191
1869245782 0.901145 -0.080553
1870731661 0.89818 -0.082248
1872217540 0.902236 -0.079653
1873703419 0.901836 -0.07795
1875189298 0.900285 -0.085743
1876675177 0.899531 -0.079053
1878161056 0.899442 -0.078839
1879646935 0.899618 -0.073391
1881132814 0.895422 -0.08006
1882618693 0.893062 -0.075917
1884104572 0.88802 -0.077886
1885590451 0.886689 -0.073281
1887076330 0.882978 -0.077175
1888562209 0.879102 -0.072016
1890048088 0.874083 -0.073827
1891533967 0.878921 -0.07588
1893019846 0.88197 -0.074451
1894505725 0.884994 -0.078682
1895991604 0.88903 -0.078887
1897477483 0.891676 -0.07695
1898963362 0.892925 -0.075683
1900449241 0.89316 -0.079158
1901935120 0.89379 -0.08018
1903420999 0.895016 -0.080894
1904906878 0.895388 -0.075993
1906392757 0.897577 -0.072947
1907878636 0.896732 -0.075583
1909364515 0.89607 -0.074818
1910850394 0.893384 -0.074988
1912336273 0.894727 -0.074827
1913822152 0.887877 -0.079214
1915308031 0.887328 -0.074118
1916793910 0.883755 -0.072609
1918279789 0.880991 -0.075707
1919765668 0.876921 -0.071781
1921251547 0.878078 -0.074844
1922737426 0.88155 -0.077376
1924223305 0.88617 -0.073103
1925709184 0.887026 -0.074891
1927195063 0.884544 -0.081836
1928680942 0.893984 -0.077898
1930166821 0.893397 -0.080818
1931652700 0.89409 -0.082492
1933138579 0.897135 -0.076637
1934624458 0.898879 -0.072639
1936110337 0.894733 -0.080641
1937596216 0.896457 -0.079224
1939082095 0.893474 -0.079157
1940567974 0.896639 -0.072304
1942053853 0.888056 -0.0818
1943539732 0.890252 -0.072141
1945025611 0.886219 -0.076429
1946511490 0.882293 -0.070539
1947997369 0.881964 -0.073329
1949483248 0.876332 -0.067158
1950969127 0.876945 -0.070912
1952455006 0.878327 -0.074027
1953940885 0.884167 -0.070286
1955426764 0.886297 -0.076641
1956912643 0.885706 -0.073915
1958398522 0.890267 -0.079707
1959884401 0.88932 -0.075726
1961370280 0.89027 -0.080347
1962856159 0.891297 -0.073556
1964342038 0.892458 -0.074549
1965827917 0.891159 -0.076562
1967313796 0.893043 -0.075135
1968799675 0.889206 -0.073865
1970285554 0.888019 -0.078987
1971771433 0.891807 -0.074386
1973257312 0.88256 -0.083699
1974743191 0.883046 -0.07097
1976229070 0.879262 -0.070958
1977714949 0.87764 -0.078632
1979200828 0.870937 -0.076724
1980686707 0.867784 -0.079815
1982172586 0.875865 -0.070098
1983658465 0.878062 -0.081837
1985144344 0.882637 -0.079233
1986630223 0.883017 -0.076725
1988116102 0.886981 -0.07723
1989601981 0.869605 -0.0723
1991087860 0.889644 -0.080491
1992573739 0.891969 -0.082445
1994059618 0.89205 -0.08157
1995545497 0.89144 -0.076962
1997031376 0.887506 -0.094908
1998517255 0.896496 -0.059241
2000003134 0.883319 -0.098553
2001489013 0.895873 -0.05487
2002974892 0.883324 -0.092152
2004460771 0.889436 -0.051724
2005946650 0.882317 -0.088211
2007432529 0.886042 -0.052429
2008918408 0.873855 -0.082776
2010404287 0.87473 -0.06085
2011890166 0.880256 -0.084709
2013376045 0.887218 -0.063329
2014861924 0.881579 -0.090085
2016347803 0.893217 -0.053553
2017833682 0.891496 -0.079791
2019319561 0.896291 -0.072632
2020805440 0.891234 -0.091827
2022291319 0.89781 -0.064067
2023777198 0.888225 -0.101242
2025263077 0.900116 -0.055571
2026748956 0.894511 -0.095227
2028234835 0.898642 -0.054796
2029720714 0.890159 -0.089784
2031206593 0.895854 -0.057975
2032692472 0.888187 -0.088073
2034178351 0.895425 -0.054632
2035664230 0.882749 -0.082343
2037150109 0.888511 -0.059096
2038635988 0.880517 -0.08413
2040121867 0.885492 -0.054057
2041607746 0.882817 -0.081254
2043093625 0.8898 -0.048015
2044579504 0.883536 -0.082328
2046065383 0.895596 -0.050225
2047551262 0.891191 -0.083161
2049037141 0.899217 -0.057545
2050523020 0.896257 -0.068005
2052008899 0.894108 -0.068715
2053494778 0.897438 -0.07429
2054980657 0.898393 -0.068816
2056466536 0.896315 -0.070147
2057952415 0.897174 -0.073837
2059438294 0.889794 -0.071787
2060924173 0.891096 -0.068201
2062410052 0.891371 -0.066904
2063895931 0.88568 -0.06603
2065381810 0.882743 -0.070559
2066867689 0.880256 -0.07183
2068353568 0.878968 -0.070763
2069839447 0.874519 -0.06397
2071325326 0.875822 -0.074
2072811205 0.877275 -0.068368
2074297084 0.879038 -0.072566
2075782963 0.884592 -0.078407
2077268842 0.889303 -0.079219
2078754721 0.889384 -0.077449
2080240600 0.889315 -0.07909
2081726479 0.891239 -0.073335
2083212358 0.895385 -0.073895
2084698237 0.89275 -0.072285
2086184116 0.893996 -0.081518
2087669995 0.893248 -0.08021
2089155874 0.889914 -0.073864
2090641753 0.890372 -0.079784
2092127632 0.889643 -0.070649
2093613511 0.886896 -0.079647
2095099390 0.884513 -0.075646
2096585269 0.882351 -0.073602
2098071148 0.877744 -0.077469
2099557027 0.874715 -0.078914
2101042906 0.877366 -0.073619
2102528785 0.876967 -0.073655
2104014664 0.882919 -0.076543
2105500543 0.886269 -0.083183
2106986422 0.887503 -0.07928
2108472301 0.891947 -0.071874
2109958180 0.893175 -0.077244
2111444059 0.893271 -0.078191
2112929938 0.894843 -0.073407
2114415817 0.894372 -0.0734
2115901696 0.893995 -0.081463
2117387575 0.893341 -0.069091
2118873454 0.844371 -0.144917
2120359333 0.891969 -0.070064
2121845212 0.887327 -0.070502
2123331091 0.887913 -0.073865
2124816970 0.886744 -0.072981
2126302849 0.883885 -0.071666
2127788728 0.882152 -0.06888
2129274607 0.874498 -0.067684
2130760486 0.877227 -0.078006
2132246365 0.878133 -0.068565
2133732244 0.880566 -0.066496
2135218123 0.887751 -0.072941
2136704002 0.887874 -0.069486
2138189881 0.893487 -0.071202
2139675760 0.891109 -0.072352
2141161639 0.894631 -0.073271
2142647518 0.897656 -0.074404
2144133397 0.892986 -0.077237
2145619276 0.896139 -0.071968
2147105155 0.894582 -0.070903
2148591034 0.896232 -0.075562
2150076913 0.897139 -0.069522
2151562792 0.892389 -0.066239
2153048671 0.889297 -0.075454
2154534550 0.89041 -0.070929
2156020429 0.888254 -0.074033
2157506308 0.882652 -0.073553
2158992187 0.880766 -0.076797
2160478066 0.875746 -0.066129
2161963945 0.881265 -0.070108
2163449824 0.882907 -0.073473
2164935703 0.883627 -0.072207
2166421582 0.891785 -0.073852
2167907461 0.891258 -0.073556
2169393340 0.893709 -0.067515
2170879219 0.894158 -0.0735
2172365098 0.887675 -0.072074
2173850977 0.895646 -0.07458
2175336856 0.898326 -0.076145
2176822735 0.8968 -0.069985
2178308614 0.896052 -0.072013
2179794493 0.894351 -0.066582
2181280372 0.895001 -0.075021
2182766251 0.893324 -0.067184
2184252130 0.889555 -0.070366
2185738009 0.8861 -0.070565
2187223888 0.883036 -0.072061
2188709767 0.878175 -0.07255
2190195646 0.87519 -0.068513
2191681525 0.877886 -0.065551
2193167404 0.88532 -0.072329
2194653283 0.88582 -0.074757
2196139162 0.886983 -0.070027
2197625041 0.891528 -0.07456
2199110920 0.891692 -0.071443
2200596799 0.896069 -0.071033
2202082678 0.890069 -0.073641
2203568557 0.894929 -0.076433
2205054436 0.895844 -0.06991
2206540315 0.900941 -0.068357
2208026194 0.865926 -0.113814
2209512073 0.895567 -0.070883
2210997952 0.894856 -0.0748
2212483831 0.891144 -0.067708
2213969710 0.886758 -0.0729
2215455589 0.885203 -0.071364
2216941468 0.880777 -0.071138
2218427347 0.876582 -0.075588
2219913226 0.869487 -0.074573
2221399105 0.875949 -0.073812
2222884984 0.880519 -0.071896
2224370863 0.884094 -0.079806
2225856742 0.884211 -0.081858
2227342621 0.882858 -0.085146
2228828500 0.885724 -0.078939
2230314379 0.890545 -0.078944
2231800258 0.898153 -0.071888
2233286137 0.888878 -0.081573
2234772016 0.89538 -0.077912
2236257895 0.890773 -0.081812
2237743774 0.891225 -0.077674
2239229653 0.886835 -0.077616
2240715532 0.891702 -0.080486
2242201411 0.890039 -0.07263
2243687290 0.888253 -0.075009
2245173169 0.887139 -0.071754
2246659048 0.8821 -0.069919
2248144927 0.884593 -0.073553
2249630806 0.874476 -0.070337
2251116685 0.879647 -0.067527
2252602564 0.878142 -0.075974
2254088443 0.883506 -0.078362
2255574322 0.882857 -0.077102
2257060201 0.887638 -0.065433
2258546080 0.888209 -0.078925
2260031959 0.890692 -0.064344
2261517838 0.888837 -0.073353
2263003717 0.887726 -0.072753
2264489596 0.890322 -0.069188
2265975475 0.89115 -0.082169
2267461354 0.894126 -0.076725
2268947233 0.890168 -0.075232
2270433112 0.888684 -0.079922
2271918991 0.890595 -0.075379
2273404870 0.882443 -0.078915
2274890749 0.885131 -0.07548
2276376628 0.882624 -0.077579
2277862507 0.878455 -0.070926
2279348386 0.875142 -0.069785
2280834265 0.874734 -0.071887
2282320144 0.878666 -0.077643
2283806023 0.885092 -0.076166
2285291902 0.880539 -0.076741
2286777781 0.885496 -0.077093
2288263660 0.883877 -0.078539
2289749539 0.889531 -0.074425
2291235418 0.888702 -0.078632
2292721297 0.891327 -0.078696
2294207176 0.890945 -0.067717
2295693055 0.893918 -0.078866
2297178934 0.893331 -0.076445
2298664813 0.893816 -0.072904
2300150692 0.891705 -0.068428
2301636571 0.886106 -0.072767
2303122450 0.880431 -0.073763
2304608329 0.889143 -0.057235
2306094208 0.877953 -0.07194
2307580087 0.881682 -0.065151
2309065966 0.869938 -0.070904
2310551845 0.878282 -0.067608
2312037724 0.873474 -0.073465
2313523603 0.876922 -0.067726
2315009482 0.878761 -0.071824
2316495361 0.883003 -0.073921
2317981240 0.881979 -0.072811
2319467119 0.889016 -0.063716
2320952998 0.88859 -0.069003
2322438877 0.870628 -0.088738
2323924756 0.891336 -0.067223
2325410635 0.886245 -0.070684
2326896514 0.882181 -0.078842
2328382393 0.890578 -0.070194
2329868272 0.88463 -0.065778
2331354151 0.883472 -0.075603
2332840030 0.883798 -0.066557
2334325909 0.876529 -0.072735
2335811788 0.876709 -0.071261
2337297667 0.876565 -0.06803
2338783546 0.873002 -0.072679
2340269425 0.869047 -0.07406
2341755304 0.876517 -0.067267
2343241183 0.880483 -0.067026
2344727062 0.87756 -0.076329
2346212941 0.885216 -0.067749
2347698820 0.889665 -0.068083
2349184699 0.886367 -0.071188
2350670578 0.889085 -0.067524
2352156457 0.893714 -0.06545
2353642336 0.890124 -0.071396
2355128215 0.886458 -0.076892
2356614094 0.888566 -0.069328
2358099973 0.889038 -0.071646
2359585852 0.884732 -0.069139
2361071731 0.889285 -0.065893
2362557610 0.887604 -0.069652
2364043489 0.888977 -0.061334
2365529368 0.88019 -0.075305
2367015247 0.880563 -0.064731
2368501126 0.882526 -0.057615
2369987005 0.875707 -0.059242
2371472884 0.876788 -0.068363
2372958763 0.884325 -0.06223
2374444642 0.887155 -0.053714
2375930521 0.887784 -0.064859
2377416400 0.889376 -0.06492
2378902279 0.893555 -0.058842
2380388158 0.887954 -0.070928
2381874037 0.888914 -0.066934
2383359916 0.89309 -0.072091
2384845795 0.893285 -0.066443
2386331674 0.895527 -0.059971
2387817553 0.888018 -0.069928
2389303432 0.890914 -0.058248
2390789311 0.892434 -0.05917
2392275190 0.892608 -0.058971
2393761069 0.883134 -0.058297
2395246948 0.88692 -0.07067
2396732827 0.883172 -0.061535
2398218706 0.875278 -0.066998
2399704585 0.873032 -0.057855
2401190464 0.883216 -0.05814
2402676343 0.87287 -0.067927
2404162222 0.88135 -0.071252
2405648101 0.88629 -0.062404
2407133980 0.89052 -0.057261
2408619859 0.888223 -0.074288
2410105738 0.889725 -0.066849
2411591617 0.892206 -0.069033
2413077496 0.889465 -0.067494
2414563375 0.892773 -0.07927
2416049254 0.881136 -0.075627
2417535133 0.890583 -0.079634
2419021012 0.756733 -0.12193
2420506891 0.892895 -0.073993
2421992770 0.883838 -0.080409
2423478649 0.891238 -0.064547
2424964528 0.888238 -0.079763
2426450407 0.878948 -0.079776
2427936286 0.875123 -0.075309
2429422165 0.871656 -0.078083
2430908044 0.877515 -0.077061
2432393923 0.879107 -0.075323
2433879802 0.88468 -0.079945
2435365681 0.883219 -0.07776
2436851560 0.890577 -0.068538
2438337439 0.888498 -0.064501
2439823318 0.884266 -0.079422
2441309197 0.897894 -0.074699
2442795076 0.895224 -0.072596
2444280955 0.89487 -0.080919
2445766834 0.899609 -0.070087
2447252713 0.901975 -0.047857
2448738592 0.900846 -0.064027
2450224471 0.894571 -0.058708
2451710350 0.891344 -0.068776
2453196229 0.886285 -0.069447
2454682108 0.883471 -0.069975
2456167987 0.881353 -0.07507
2457653866 0.878781 -0.068327
2459139745 0.872676 -0.056717
2460625624 0.872414 -0.067188
2462111503 0.878615 -0.074397
2463597382 0.883511 -0.07138
2465083261 0.887538 -0.058201
2466569140 0.888712 -0.07337
2468055019 0.891876 -0.067273
2469540898 0.887126 -0.05701
2471026777 0.889543 -0.066463
2472512656 0.89256 -0.063463
2473998535 0.849689 -0.140847
2475484414 0.894129 -0.061085
2476970293 0.892997 -0.05733
2478456172 0.895375 -0.065923
2479942051 0.88951 -0.064016
2481427930 0.897046 -0.059082
2482913809 0.890453 -0.067005
2484399688 0.888392 -0.061134
2485885567 0.888102 -0.07017
2487371446 0.885788 -0.074196
2488857325 0.87625 -0.059742
2490343204 0.871823 -0.056905
2491829083 0.875617 -0.069586
2493314962 0.882649 -0.06544
2494800841 0.888604 -0.068076
2496286720 0.889769 -0.06864
2497772599 0.890394 -0.059603
2499258478 0.895118 -0.061719
2500744357 0.891764 -0.061944
2502230236 0.896898 -0.07328
2503716115 0.895341 -0.069317
2505201994 0.892722 -0.055775
2506687873 0.898493 -0.06596
2508173752 0.896282 -0.076261
2509659631 0.895582 -0.065205
2511145510 0.891057 -0.062783
2512631389 0.889033 -0.059642
2514117268 0.891914 -0.063924
2515603147 0.883066 -0.057802
2517089026 0.883479 -0.068809
2518574905 0.879817 -0.068809
2520060784 0.87053 -0.064672
2521546663 0.879314 -0.064758
2523032542 0.886201 -0.071351
2524518421 0.88586 -0.05761
2526004300 0.890398 -0.066024
2527490179 0.896574 -0.070409
2528976058 0.895665 -0.068558
2530461937 0.896286 -0.071923
2531947816 0.897907 -0.069595
2533433695 0.893777 -0.070608
2534919574 0.904424 -0.0664
2536405453 0.899881 -0.06153
2537891332 0.896732 -0.06284
2539377211 0.895598 -0.06012
2540863090 0.894443 -0.055189
2542348969 0.897094 -0.064609
2543834848 0.895153 -0.064238
2545320727 0.887045 -0.065473
2546806606 0.887391 -0.064552
2548292485 0.887865 -0.064277
2549778364 0.879453 -0.059282
2551264243 0.882111 -0.062761
2552750122 0.886242 -0.063543
2554236001 0.890752 -0.069835
2555721880 0.890873 -0.062941
2557207759 0.892932 -0.068597
2558693638 0.895659 -0.065372
2560179517 0.897632 -0.068103
2561665396 0.897807 -0.076009
2563151275 0.895654 -0.060498
2564637154 0.899804 -0.061039
2566123033 0.898824 -0.069643
2567608912 0.896287 -0.065392
2569094791 0.894626 -0.064192
2570580670 0.895108 -0.062014
2572066549 0.89241 -0.062736
2573552428 0.889242 -0.061014
2575038307 0.886751 -0.06256
2576524186 0.881703 -0.059912
2578010065 0.876731 -0.062707
2579495944 0.877288 -0.062617
2580981823 0.875809 -0.060463
2582467702 0.877532 -0.06192
2583953581 0.883153 -0.06769
2585439460 0.884632 -0.06667
2586925339 0.88871 -0.064679
2588411218 0.889447 -0.064661
2589897097 0.889205 -0.062589
2591382976 0.891804 -0.063403
2592868855 0.890509 -0.065462
2594354734 0.889717 -0.071981
2595840613 0.891517 -0.061877
2597326492 0.893613 -0.064133
2598812371 0.89024 -0.066919
2600298250 0.891916 -0.064276
2601784129 0.893591 -0.054804
2603270008 0.884509 -0.066531
2604755887 0.883031 -0.062251
2606241766 0.881281 -0.059033
2607727645 0.880423 -0.061134
2609213524 0.878262 -0.058727
2610699403 0.87368 -0.059431
2612185282 0.877797 -0.066591
2613671161 0.882709 -0.064054
2615157040 0.886773 -0.059512
2616642919 0.886219 -0.064684
2618128798 0.88973 -0.061025
2619614677 0.887464 -0.065154
2621100556 0.889937 -0.067298
2622586435 0.88884 -0.070567
2624072314 0.891993 -0.065984
2625558193 0.895046 -0.065167
2627044072 0.892735 -0.06728
2628529951 0.892306 -0.062929
2630015830 0.888298 -0.056059
2631501709 0.892506 -0.058031
2632987588 0.884278 -0.064752
2634473467 0.886976 -0.064861
2635959346 0.881329 -0.065054
2637445225 0.875196 -0.062698
2638931104 0.874956 -0.063856
2640416983 0.870461 -0.067936
2641902862 0.878637 -0.05955
2643388741 0.883325 -0.059675
2644874620 0.880218 -0.060273
2646360499 0.882028 -0.069013
2647846378 0.888375 -0.068626
2649332257 0.885131 -0.068914
2650818136 0.890532 -0.06453
2652304015 0.886521 -0.071968
2653789894 0.885636 -0.06508
2655275773 0.891807 -0.058561
2656761652 0.893215 -0.056765
2658247531 0.892729 -0.067586
2659733410 0.884432 -0.074315
2661219289 0.888137 -0.0659
2662705168 0.882354 -0.072419
2664191047 0.887059 -0.063174
2665676926 0.879647 -0.067761
2667162805 0.879284 -0.067805
2668648684 0.879204 -0.066684
2670134563 0.874036 -0.072284
2671620442 0.877719 -0.06918
2673106321 0.879327 -0.064294
2674592200 0.880735 -0.073428
2676078079 0.888439 -0.073896
2677563958 0.88329 -0.068926
2679049837 0.885198 -0.076756
2680535716 0.882354 -0.072471
2682021595 0.890949 -0.069969
2683507474 0.884701 -0.070178
2684993353 0.895684 -0.072248
2686479232 0.890219 -0.072936
2687965111 0.915343 -0.093203
2689450990 0.888227 -0.063545
2690936869 0.893552 -0.064549
2692422748 0.892928 -0.069609
2693908627 0.88632 -0.068261
2695394506 0.886175 -0.073051
2696880385 0.880266 -0.073505
2698366264 0.868208 -0.068039
2699852143 0.874059 -0.068166
2701338022 0.876249 -0.069738
2702823901 0.887066 -0.074969
2704309780 0.885503 -0.076101
2705795659 0.889179 -0.076638
2707281538 0.889087 -0.069785
2708767417 0.897736 -0.077079
2710253296 0.897592 -0.080892
2711739175 0.900612 -0.075675
2713225054 0.899098 -0.075513
2714710933 0.905282 -0.066918
2716196812 0.905301 -0.072249
2717682691 0.896202 -0.076059
2719168570 0.912761 -0.062715
2720654449 0.897465 -0.06545
2722140328 0.897459 -0.070222
2723626207 0.897442 -0.066709
2725112086 0.899109 -0.06454
2726597965 0.890812 -0.055948
2728083844 0.888771 -0.063528
2729569723 0.875782 -0.059668
2731055602 0.891058 -0.058301
2732541481 0.880459 -0.06273
2734027360 0.880798 -0.069411
2735513239 0.883256 -0.069728
2736999118 0.891737 -0.063231
2738484997 0.896031 -0.053733
2739970876 0.899851 -0.062982
2741456755 0.902346 -0.057214
2742942634 0.901509 -0.061447
2744428513 0.910651 -0.055621
2745914392 0.894694 -0.064034
2747400271 0.902303 -0.054792
2748886150 0.904693 -0.051563
2750372029 0.895899 -0.060615
2751857908 0.895567 -0.060285
2753343787 0.903043 -0.050066
2754829666 0.89347 -0.057443
2756315545 0.889781 -0.06089
2757801424 0.891865 -0.059733
2759287303 0.887574 -0.05153
2760773182 0.885395 -0.067885
2762259061 0.893038 -0.055278
2763744940 0.89244 -0.049429
2765230819 0.892027 -0.062526
2766716698 0.899152 -0.059122
2768202577 0.895812 -0.070886
2769688456 0.893826 -0.070796
2771174335 0.895247 -0.059176
2772660214 0.893192 -0.066834
2774146093 0.954871 -0.053787
2775631972 0.899302 -0.068934
2777117851 0.906332 -0.053897
2778603730 0.90355 -0.057321
2780089609 0.88951 -0.071193
2781575488 0.890133 -0.062624
2783061367 0.891739 -0.059353
2784547246 0.888331 -0.069355
2786033125 0.885607 -0.068664
2787519004 0.877468 -0.078466
2789004883 0.883855 -0.062125
2790490762 0.88555 -0.052625
2791976641 0.882204 -0.069022
2793462520 0.887116 -0.071156
2794948399 0.894317 -0.065167
2796434278 0.889561 -0.069649
2797920157 0.89431 -0.056365
2799406036 0.901952 -0.06048
2800891915 0.897714 -0.058276
2802377794 0.900928 -0.068124
2803863673 0.903033 -0.066855
2805349552 0.905175 -0.068943
2806835431 0.900141 -0.062465
2808321310 0.898595 -0.053964
2809807189 0.900289 -0.065486
2811293068 0.896151 -0.062192
2812778947 0.897286 -0.052032
2814264826 0.899651 -0.078374
2815750705 0.891327 -0.059675
2817236584 0.886289 -0.058383
2818722463 0.88449 -0.046421
2820208342 0.879625 -0.069236
2821694221 0.882369 -0.064891
2823180100 0.880183 -0.068949
2824665979 0.883291 -0.052839
2826151858 0.891679 -0.063888
2827637737 0.890885 -0.076938
2829123616 0.896074 -0.05586
2830609495 0.899843 -0.06304
2832095374 0.89144 -0.06809
2833581253 0.897736 -0.058585
2835067132 0.90095 -0.061878
2836553011 0.896427 -0.054498
2838038890 0.902443 -0.065107
2839524769 0.888108 -0.051197
2841010648 0.894146 -0.061604
2842496527 0.881987 -0.057472
2843982406 0.891788 -0.053407
2845468285 0.884178 -0.058511
2846954164 0.879537 -0.045134
2848440043 0.876613 -0.064847
2849925922 0.881495 -0.059917
2851411801 0.879319 -0.037855
2852897680 0.887618 -0.037206
2854383559 0.876055 -0.054679
2855869438 0.892323 -0.067776
2857355317 0.893273 -0.064565
2858841196 0.897744 -0.060446
2860327075 0.894073 -0.068058
2861812954 0.892947 -0.052318
2863298833 0.899821 -0.066664
2864784712 0.898467 -0.062574
2866270591 0.904061 -0.070984
2867756470 0.893455 -0.051036
2869242349 0.900558 -0.0599
2870728228 0.889561 -0.055803
2872214107 0.884678 -0.059211
2873699986 0.888815 -0.050941
2875185865 0.892897 -0.055648
2876671744 0.890358 -0.07476
2878157623 0.874582 -0.053947
2879643502 0.875853 -0.062368
2881129381 0.86739 -0.05955
2882615260 0.873852 -0.046715
2884101139 0.878408 -0.061172
2885587018 0.875708 -0.060532
2887072897 0.881246 -0.0656
2888558776 0.894624 -0.065205
2890044655 0.884182 -0.069399
2891530534 0.882007 -0.069357
2893016413 0.89088 -0.062657
2894502292 0.890937 -0.059764
2895988171 0.883506 -0.059327
2897474050 0.885722 -0.062689
2898959929 0.89075 -0.068394
2900445808 0.880315 -0.064039
2901931687 0.885232 -0.063594
2903417566 0.880026 -0.061494
2904903445 0.883469 -0.07681
2906389324 0.883449 -0.060913
2907875203 0.878421 -0.075698
2909361082 0.865796 -0.065426
2910846961 0.878108 -0.070625
2912332840 0.878112 -0.065714
2913818719 0.879461 -0.06448
2915304598 0.883552 -0.076591
2916790477 0.879883 -0.07223
2918276356 0.888616 -0.070512
2919762235 0.89437 -0.063402
2921248114 0.896743 -0.064655
2922733993 0.895366 -0.062106
2924219872 0.893733 -0.070056
2925705751 0.896381 -0.064384
2927191630 0.897009 -0.062678
2928677509 0.896419 -0.066913
2930163388 0.899295 -0.061171
2931649267 0.899774 -0.060468
2933135146 0.891862 -0.053416
2934621025 0.89268 -0.06237
2936106904 0.887365 -0.062308
2937592783 0.893045 -0.050434
2939078662 0.895101 -0.057784
2940564541 0.88669 -0.051622
2942050420 0.889834 -0.057179
2943536299 0.883997 -0.053388
2945022178 0.893634 -0.05366
2946508057 0.891116 -0.051136
2947993936 0.901339 -0.056143
2949479815 0.898538 -0.061694
2950965694 0.902819 -0.064966
2952451573 0.899132 -0.064486
2953937452 0.894595 -0.051123
2955423331 0.903316 -0.049361
2956909210 0.906865 -0.063708
2958395089 0.895544 -0.058967
2959880968 0.895248 -0.057484
2961366847 0.894488 -0.048151
2962852726 0.88912 -0.053303
2964338605 0.893725 -0.060794
2965824484 0.88766 -0.054631
2967310363 0.886719 -0.054505
2968796242 0.880283 -0.047859
2970282121 0.883223 -0.041986
2971768000 0.880995 -0.048221
2973253879 0.87988 -0.059034
2974739758 0.892351 -0.056053
2976225637 0.889107 -0.056713
2977711516 0.887687 -0.058647
2979197395 0.895935 -0.059095
2980683274 0.89614 -0.056039
2982169153 0.898528 -0.058503
2983655032 0.896309 -0.057721
2985140911 0.896454 -0.063537
2986626790 0.896371 -0.058806
2988112669 0.893658 -0.057902
2989598548 0.893243 -0.056683
2991084427 0.897557 -0.052624
2992570306 0.890541 -0.052778
2994056185 0.888701 -0.063238
2995542064 0.884743 -0.055951
2997027943 0.883219 -0.059531
2998513822 0.8804 -0.048191
2999999701 0.879761 -0.05166
