# HZ S RI R 50
10000 1.101452 0.128004
1495879 1.680533 1.029916
2981758 1.348031 0.962606
4467637 1.287451 0.628683
5953516 1.327007 0.538841
7439395 1.346013 0.570883
8925274 6.192333 11.575823
10411153 0.884696 8.04024
11897032 -0.427921 5.706451
13382911 -0.839133 4.38503
14868790 -0.998774 3.562447
16354669 -1.055966 3.011705
17840548 -0.721699 2.16826
19326427 -1.047821 2.34765
20812306 -1.126291 2.093762
22298185 -1.132446 1.910734
23784064 -1.139998 1.764305
25269943 -1.146561 1.644002
26755822 -1.154753 1.544694
28241701 -1.169285 1.461982
29727580 -1.1769 1.39146
31213459 -0.978149 1.222702
32699338 -0.764553 1.039795
34185217 -0.58592 0.866163
35671096 -0.43972 0.694948
37156975 -0.316118 0.527441
38642854 -0.203026 0.362846
40128733 -0.100759 0.195151
41614612 0.00463 0.023317
43100491 0.119863 -0.157762
44586370 0.263805 -0.346564
46072249 0.465425 -0.522746
47558128 0.740665 -0.64958
49044007 1.063615 -0.647988
50529886 1.331214 -0.480164
52015765 1.382318 -0.249113
53501644 1.337868 -0.081686
54987523 1.236085 -0.008765
56473402 1.136776 -0.025628
57959281 1.067492 -0.035674
59445160 1.016265 -0.041272
60931039 1.000747 -0.044534
62416918 1.004538 -0.054234
63902797 1.006525 -0.063591
65388676 1.009078 -0.072635
66874555 1.011041 -0.069333
68360434 1.005198 -0.152525
69846313 1.016134 -0.046093
71332192 1.016206 -0.044445
72818071 1.016987 -0.085927
74303950 1.017592 -0.076295
75789829 1.019242 -0.008128
77275708 1.01831 -0.017183
78761587 1.018539 -0.012209
80247466 1.009647 -0.128576
81733345 1.011695 -0.081095
83219224 1.009078 -0.091633
84705103 1.005436 -0.116667
86190982 1.006553 0.007858
87676861 0.998658 -0.108182
89162740 0.996783 -0.082852
90648619 0.992914 -0.10194
92134498 0.996652 -0.099461
93620377 1.003432 -0.067905
95106256 1.004135 -0.09566
96592135 1.007196 -0.09567
98078014 1.008639 -0.090819
99563893 1.012555 -0.08693
101049772 1.012933 -0.099944
102535651 1.010852 -0.102891
104021530 1.011951 -0.104199
105507409 1.012535 -0.105232
106993288 1.012252 -0.106516
108479167 1.011726 -0.106529
109965046 1.010152 -0.107425
111450925 1.008803 -0.106851
112936804 1.006359 -0.110454
114422683 1.002898 -0.109893
115908562 1.00084 -0.111061
117394441 0.998647 -0.110702
118880320 0.993838 -0.110987
120366199 0.99107 -0.111508
121852078 0.994721 -0.114962
123337957 0.999594 -0.116822
124823836 1.00233 -0.119229
126309715 1.006845 -0.120098
127795594 1.007899 -0.121119
129281473 1.010875 -0.122949
130767352 1.013528 -0.123502
132253231 1.016465 -0.124178
133739110 1.016601 -0.126428
135224989 1.001028 -0.137253
136710868 1.002036 -0.138291
138196747 1.000864 -0.13809
139682626 1.000709 -0.138649
141168505 0.998619 -0.138941
142654384 0.998253 -0.140087
144140263 0.995719 -0.140767
145626142 0.993746 -0.140812
147112021 0.991288 -0.140163
148597900 0.987159 -0.141894
150083779 0.984211 -0.141169
151569658 0.988257 -0.144079
153055537 0.990963 -0.145509
154541416 0.993956 -0.147665
156027295 0.99629 -0.148961
157513174 0.997971 -0.150582
158999053 1.001347 -0.153296
160484932 1.001411 -0.15289
161970811 1.002083 -0.153964
163456690 1.002918 -0.155534
164942569 1.002685 -0.156063
166428448 1.001841 -0.157703
167914327 1.00027 -0.159759
169400206 0.999992 -0.158818
170886085 0.998289 -0.161063
172371964 0.996386 -0.160625
173857843 0.99319 -0.162852
175343722 0.990486 -0.16365
176829601 0.98789 -0.16531
178315480 0.984286 -0.16619
179801359 0.980423 -0.166959
181287238 0.982762 -0.169519
182773117 0.986165 -0.171677
184258996 0.988759 -0.172272
185744875 0.99129 -0.173621
187230754 0.992511 -0.175792
188716633 0.995834 -0.176669
190202512 0.99549 -0.177642
191688391 0.995911 -0.177891
193174270 0.997207 -0.17937
194660149 0.996681 -0.181866
196146028 1.002561 -0.163123
197631907 0.995294 -0.182457
199117786 0.992725 -0.183966
200603665 0.991921 -0.184685
202089544 0.989916 -0.186597
203575423 0.986113 -0.187042
205061302 0.98217 -0.187837
206547181 0.979383 -0.190004
208033060 0.975369 -0.191396
209518939 0.971574 -0.19319
211004818 0.972767 -0.195617
212490697 0.975869 -0.197007
213976576 0.97983 -0.198315
215462455 0.982953 -0.200326
216948334 0.984586 -0.202697
218434213 0.986338 -0.203886
219920092 0.98856 -0.203993
221405971 0.988658 -0.205193
222891850 0.990042 -0.207542
224377729 0.990425 -0.207222
225863608 0.989466 -0.208308
227349487 0.98872 -0.208683
228835366 0.988727 -0.211547
230321245 0.986237 -0.21111
231807124 0.983138 -0.214822
233293003 0.980338 -0.213475
234778882 0.977635 -0.215118
236264761 0.973487 -0.216572
237750640 0.969824 -0.217509
239236519 0.964301 -0.218837
240722398 0.964003 -0.219927
242208277 0.967809 -0.224022
243694156 0.971863 -0.225564
245180035 0.97457 -0.227046
246665914 0.977564 -0.228732
248151793 0.980425 -0.228589
249637672 0.98078 -0.231866
251123551 0.981619 -0.233416
252609430 0.983699 -0.233661
254095309 0.982984 -0.235309
255581188 0.982444 -0.234961
257067067 0.981689 -0.235675
258552946 0.980468 -0.236485
260038825 0.978874 -0.237132
261524704 0.975921 -0.238198
263010583 0.973224 -0.240003
264496462 0.969651 -0.239659
265982341 0.965875 -0.241394
267468220 0.961434 -0.242332
268954099 0.95667 -0.243596
270439978 0.9539 -0.246242
271925857 0.957596 -0.248457
273411736 0.962334 -0.250532
274897615 0.965157 -0.252166
276383494 0.967455 -0.253232
277869373 0.969862 -0.256452
279355252 0.972977 -0.258298
280841131 0.973305 -0.259117
282327010 0.975058 -0.260251
283812889 0.975314 -0.259966
285298768 0.974138 -0.261375
286784647 0.972782 -0.264598
288270526 0.97092 -0.264199
289756405 0.968623 -0.264167
291242284 0.967995 -0.265493
292728163 0.964085 -0.266712
294214042 0.960728 -0.26634
295699921 0.956914 -0.265704
297185800 0.953077 -0.268564
298671679 0.946708 -0.268475
300157558 0.944083 -0.26765
301643437 0.947016 -0.271673
303129316 0.952098 -0.275705
304615195 0.953939 -0.276938
306101074 0.957363 -0.280997
307586953 0.958686 -0.281351
309072832 0.960463 -0.28373
310558711 0.961487 -0.286783
312044590 0.964255 -0.287533
313530469 0.962939 -0.288839
315016348 0.962283 -0.289052
316502227 0.962886 -0.290157
317988106 0.961407 -0.28901
319473985 0.959565 -0.290671
320959864 0.971094 -0.260857
322445743 0.95258 -0.293149
323931622 0.949877 -0.292512
325417501 0.945997 -0.292898
326903380 0.943074 -0.293592
328389259 0.937708 -0.294084
329875138 0.93183 -0.292728
331361017 0.933304 -0.296749
332846896 0.939063 -0.301674
334332775 0.942263 -0.301934
335818654 0.944304 -0.305867
337304533 0.946416 -0.307013
338790412 0.947751 -0.309812
340276291 0.949713 -0.310964
341762170 0.949538 -0.313633
343248049 0.94976 -0.316328
344733928 0.949855 -0.315057
346219807 0.950189 -0.314788
347705686 0.949674 -0.315696
349191565 0.945631 -0.316574
350677444 0.944358 -0.315903
352163323 0.942404 -0.314878
353649202 0.937878 -0.316002
355135081 0.935722 -0.315025
356620960 0.929273 -0.316655
358106839 0.926611 -0.317204
359592718 0.920465 -0.31532
361078597 0.921727 -0.320325
362564476 0.923903 -0.324489
364050355 0.928042 -0.325223
365536234 0.930962 -0.328433
367022113 0.93204 -0.332309
368507992 0.934991 -0.33313
369993871 0.936881 -0.333714
371479750 0.937245 -0.336875
372965629 0.936923 -0.33754
374451508 0.937009 -0.338435
375937387 0.937508 -0.338195
377423266 0.934905 -0.340983
378909145 0.933888 -0.339559
380395024 0.932654 -0.339539
381880903 0.929506 -0.340859
383366782 0.927284 -0.340284
384852661 0.923312 -0.340159
386338540 0.920721 -0.339069
387824419 0.915778 -0.33854
389310298 0.91094 -0.337343
390796177 0.910882 -0.339973
392282056 0.912348 -0.343964
393767935 0.915854 -0.34797
395253814 0.918781 -0.348991
396739693 0.919574 -0.351135
398225572 0.920961 -0.354442
399711451 0.923308 -0.354665
401197330 0.922509 -0.357022
402683209 0.924947 -0.357301
404169088 0.923159 -0.359644
405654967 0.922639 -0.360735
407140846 0.920861 -0.36049
408626725 0.92058 -0.364898
410112604 0.918548 -0.362815
411598483 0.917014 -0.362001
413084362 0.913721 -0.361203
414570241 0.908725 -0.362736
416056120 0.906481 -0.361024
417541999 0.901629 -0.361431
419027878 0.898002 -0.35952
420513757 0.895026 -0.361983
421999636 0.897924 -0.36524
423485515 0.901262 -0.369309
424971394 0.90252 -0.369958
426457273 0.903094 -0.372328
427943152 0.905511 -0.373843
429429031 0.90686 -0.376732
430914910 0.908756 -0.376779
432400789 0.907626 -0.380816
433886668 0.908619 -0.380933
435372547 0.907768 -0.381761
436858426 0.907116 -0.38152
438344305 0.905815 -0.381878
439830184 0.904175 -0.381881
441316063 0.90143 -0.384596
442801942 0.898319 -0.382989
444287821 0.895863 -0.381611
445773700 0.892178 -0.383963
447259579 0.889297 -0.382411
448745458 0.883266 -0.381661
450231337 0.880587 -0.381702
451717216 0.884381 -0.382778
453203095 0.885876 -0.388316
454688974 0.888088 -0.391039
456174853 0.890383 -0.392772
457660732 0.890388 -0.397101
459146611 0.890475 -0.397461
460632490 0.892022 -0.398445
462118369 0.892568 -0.396782
463604248 0.892489 -0.400314
465090127 0.893151 -0.401602
466576006 0.890293 -0.401673
468061885 0.889419 -0.402693
469547764 0.888277 -0.403399
471033643 0.887624 -0.402262
472519522 0.884261 -0.401871
474005401 0.881619 -0.405111
475491280 0.877763 -0.403609
476977159 0.873498 -0.402565
478463038 0.869525 -0.401101
479948917 0.866787 -0.40242
481434796 0.867198 -0.405526
482920675 0.869511 -0.409234
484406554 0.872184 -0.409725
485892433 0.874133 -0.413709
487378312 0.876532 -0.414352
488864191 0.876434 -0.417736
490350070 0.878062 -0.418217
491835949 0.877841 -0.420304
493321828 0.878314 -0.417705
494807707 0.878076 -0.42018
496293586 0.886739 -0.406675
497779465 0.876662 -0.421185
499265344 0.871965 -0.422801
500751223 0.872544 -0.423107
502237102 0.869516 -0.422503
503722981 0.864958 -0.421746
505208860 0.863 -0.421633
506694739 0.859796 -0.420569
508180618 0.853877 -0.421214
509666497 0.849889 -0.421058
511152376 0.849801 -0.424158
512638255 0.85233 -0.427894
514124134 0.856041 -0.428951
515610013 0.857514 -0.429334
517095892 0.860144 -0.433332
518581771 0.860378 -0.435387
520067650 0.860432 -0.438286
521553529 0.862253 -0.437406
523039408 0.862808 -0.43935
524525287 0.862368 -0.439322
526011166 0.861159 -0.440834
527497045 0.860647 -0.440648
528982924 0.858049 -0.442135
530468803 0.856608 -0.439517
531954682 0.853257 -0.439767
533440561 0.850764 -0.439885
534926440 0.847753 -0.440462
536412319 0.844899 -0.440525
537898198 0.840245 -0.439675
539384077 0.836531 -0.436099
540869956 0.836537 -0.437362
542355835 0.8372 -0.442032
543841714 0.839307 -0.44447
545327593 0.839544 -0.447285
546813472 0.84152 -0.4479
548299351 0.844517 -0.449448
549785230 0.843296 -0.450207
551271109 0.843389 -0.451706
552756988 0.843271 -0.450736
554242867 0.842327 -0.451311
555728746 0.842369 -0.450562
557214625 0.841157 -0.447851
558700504 0.839101 -0.449629
560186383 0.835181 -0.448334
561672262 0.832619 -0.447095
563158141 0.82879 -0.447814
564644020 0.825787 -0.448675
566129899 0.820278 -0.445935
567615778 0.816333 -0.44486
569101657 0.809773 -0.444969
570587536 0.808653 -0.446071
572073415 0.811443 -0.449784
573559294 0.811927 -0.453701
575045173 0.815099 -0.45789
576531052 0.817848 -0.459571
578016931 0.818173 -0.465614
579502810 0.819174 -0.464752
580988689 0.821304 -0.467163
582474568 0.821833 -0.470752
583960447 0.822169 -0.473956
585446326 0.820682 -0.474306
586932205 0.820915 -0.474619
588418084 0.819155 -0.477128
589903963 0.816981 -0.477663
591389842 0.819072 -0.474246
592875721 0.814463 -0.478441
594361600 0.811152 -0.478142
595847479 0.808173 -0.475316
597333358 0.804737 -0.477526
598819237 0.802306 -0.47699
600305116 0.798034 -0.477255
601790995 0.801821 -0.480427
603276874 0.80297 -0.484633
604762753 0.805349 -0.485806
606248632 0.805422 -0.491837
607734511 0.808215 -0.491975
609220390 0.811154 -0.494072
610706269 0.810683 -0.496391
612192148 0.812246 -0.495678
613678027 0.813735 -0.495393
615163906 0.811468 -0.497316
616649785 0.811614 -0.49672
618135664 0.810621 -0.498061
619621543 0.806939 -0.499023
621107422 0.805728 -0.494699
622593301 0.802732 -0.495484
624079180 0.80043 -0.494471
625565059 0.788625 -0.504016
627050938 0.792807 -0.491946
628536817 0.790397 -0.49128
630022696 0.783289 -0.48881
631508575 0.787056 -0.493181
632994454 0.786805 -0.497783
634480333 0.791393 -0.499488
635966212 0.790308 -0.502137
637452091 0.793309 -0.503865
638937970 0.794983 -0.507113
640423849 0.795411 -0.506818
641909728 0.794063 -0.509845
643395607 0.79364 -0.509272
644881486 0.795511 -0.50861
646367365 0.792548 -0.511804
647853244 0.79003 -0.511321
649339123 0.791769 -0.510527
650825002 0.788024 -0.509835
652310881 0.786102 -0.506471
653796760 0.782369 -0.504262
655282639 0.77802 -0.507571
656768518 0.776827 -0.504614
658254397 0.771856 -0.503931
659740276 0.766346 -0.501673
661226155 0.767723 -0.50406
662712034 0.771759 -0.506838
664197913 0.772263 -0.511318
665683792 0.774671 -0.514703
667169671 0.775504 -0.518692
668655550 0.776937 -0.520318
670141429 0.779521 -0.520464
671627308 0.77811 -0.521373
673113187 0.780166 -0.524539
674599066 0.781076 -0.524688
676084945 0.781 -0.52562
677570824 0.778879 -0.524276
679056703 0.779043 -0.524207
680542582 0.780049 -0.522655
682028461 0.776789 -0.522965
683514340 0.775755 -0.520507
685000219 0.772779 -0.520392
686486098 0.772205 -0.516067
687971977 0.768637 -0.514957
689457856 0.762434 -0.513572
690943735 0.764303 -0.515904
692429614 0.763533 -0.518989
693915493 0.764549 -0.523977
695401372 0.764912 -0.526693
696887251 0.768073 -0.528211
698373130 0.764886 -0.53032
699859009 0.767534 -0.531443
701344888 0.763935 -0.533068
702830767 0.764716 -0.531384
704316646 0.764555 -0.535323
705802525 0.761463 -0.537393
707288404 0.762339 -0.537474
708774283 0.759381 -0.53747
710260162 0.757393 -0.538424
711746041 0.755435 -0.535065
713231920 0.752946 -0.535132
714717799 0.746817 -0.534481
716203678 0.7465 -0.533517
717689557 0.738832 -0.535144
719175436 0.735645 -0.530941
720661315 0.736028 -0.53327
722147194 0.738881 -0.535029
723633073 0.738836 -0.536319
725118952 0.739217 -0.541834
726604831 0.739987 -0.542861
728090710 0.739969 -0.546358
729576589 0.74262 -0.545108
731062468 0.741817 -0.548643
732548347 0.745991 -0.546277
734034226 0.74012 -0.550222
735520105 0.743032 -0.548136
737005984 0.741158 -0.54819
738491863 0.7403 -0.548266
739977742 0.736954 -0.547713
741463621 0.735915 -0.545989
742949500 0.733056 -0.546927
744435379 0.732228 -0.545998
745921258 0.730043 -0.542554
747407137 0.724561 -0.54215
748893016 0.72137 -0.542087
750378895 0.720301 -0.540922
751864774 0.72085 -0.543802
753350653 0.721756 -0.546042
754836532 0.722631 -0.550526
756322411 0.727038 -0.552316
757808290 0.726418 -0.553241
759294169 0.727594 -0.555548
760780048 0.725911 -0.559146
762265927 0.728792 -0.558949
763751806 0.725839 -0.559221
765237685 0.724569 -0.561688
766723564 0.723535 -0.561715
768209443 0.724718 -0.557487
769695322 0.722903 -0.558853
771181201 0.721597 -0.558913
772667080 0.71711 -0.560468
774152959 0.713518 -0.559343
775638838 0.712213 -0.559254
777124717 0.708447 -0.557353
778610596 0.70316 -0.556958
780096475 0.702778 -0.553383
781582354 0.704596 -0.555528
783068233 0.705135 -0.560878
784554112 0.707224 -0.56296
786039991 0.708564 -0.565558
787525870 0.707307 -0.569536
789011749 0.711943 -0.569131
790497628 0.710653 -0.572332
791983507 0.711328 -0.572847
793469386 0.71084 -0.572785
794955265 0.711771 -0.571481
796441144 0.709962 -0.571384
797927023 0.710266 -0.57254
799412902 0.70736 -0.572477
800898781 0.705462 -0.571566
802384660 0.702351 -0.571761
803870539 0.701185 -0.570179
805356418 0.698264 -0.569527
806842297 0.695183 -0.567671
808328176 0.690516 -0.565419
809814055 0.684199 -0.565325
811299934 0.688082 -0.566247
812785813 0.688753 -0.56956
814271692 0.691488 -0.572408
815757571 0.69165 -0.574861
817243450 0.692022 -0.57727
818729329 0.69055 -0.58098
820215208 0.694284 -0.579524
821701087 0.693063 -0.581006
823186966 0.692453 -0.582464
824672845 0.692005 -0.584435
826158724 0.691686 -0.582978
827644603 0.69043 -0.584188
829130482 0.686635 -0.583038
830616361 0.68738 -0.579835
832102240 0.683353 -0.579493
833588119 0.679539 -0.580483
835073998 0.678817 -0.577964
836559877 0.672482 -0.578974
838045756 0.673295 -0.572475
839531635 0.665878 -0.573771
841017514 0.667005 -0.574078
842503393 0.67043 -0.577164
843989272 0.66897 -0.58356
845475151 0.67321 -0.583394
846961030 0.674331 -0.585336
848446909 0.674013 -0.589885
849932788 0.675813 -0.592543
851418667 0.676991 -0.590671
852904546 0.674611 -0.593144
854390425 0.672961 -0.591993
855876304 0.673287 -0.594108
857362183 0.671765 -0.594878
858848062 0.67218 -0.593165
860333941 0.669923 -0.592153
861819820 0.667963 -0.591249
863305699 0.665728 -0.590271
864791578 0.66271 -0.589082
866277457 0.65961 -0.587775
867763336 0.655489 -0.585675
869249215 0.650677 -0.587161
870735094 0.648731 -0.586444
872220973 0.653396 -0.590548
873706852 0.654098 -0.591954
875192731 0.655261 -0.596398
876678610 0.657181 -0.596583
878164489 0.657853 -0.59609
879650368 0.655764 -0.60197
881136247 0.658086 -0.602816
882622126 0.655824 -0.605381
884108005 0.657303 -0.602896
885593884 0.656524 -0.60452
887079763 0.654941 -0.604102
888565642 0.652428 -0.605424
890051521 0.654898 -0.601053
891537400 0.653096 -0.599962
893023279 0.647833 -0.602045
894509158 0.648715 -0.595783
895995037 0.645833 -0.595143
897480916 0.641716 -0.594054
898966795 0.637547 -0.589344
900452674 0.634052 -0.59068
901938553 0.637417 -0.595179
903424432 0.636644 -0.597947
904910311 0.638811 -0.598437
906396190 0.638463 -0.605957
907882069 0.63903 -0.607324
909367948 0.638049 -0.608229
910853827 0.637976 -0.609484
912339706 0.640786 -0.610331
913825585 0.634958 -0.610578
915311464 0.639477 -0.607275
916797343 0.639733 -0.610261
918283222 0.636083 -0.608381
919769101 0.608426 -0.628751
921254980 0.631778 -0.610667
922740859 0.632817 -0.608217
924226738 0.627957 -0.606486
925712617 0.627012 -0.608095
927198496 0.625425 -0.60748
928684375 0.618446 -0.602679
930170254 0.617513 -0.597273
931656133 0.61709 -0.601252
933142012 0.619542 -0.604445
934627891 0.618476 -0.607865
936113770 0.617665 -0.608988
937599649 0.621029 -0.613889
939085528 0.620644 -0.61571
940571407 0.619043 -0.619037
942057286 0.619086 -0.618352
943543165 0.620616 -0.619663
945029044 0.620257 -0.619945
946514923 0.61943 -0.620632
948000802 0.6194 -0.61894
949486681 0.619361 -0.616478
950972560 0.61735 -0.615307
952458439 0.614475 -0.617461
953944318 0.612826 -0.613797
955430197 0.60975 -0.613326
956916076 0.608946 -0.610554
958401955 0.607704 -0.607878
959887834 0.601481 -0.606513
961373713 0.603938 -0.608997
962859592 0.602012 -0.615594
964345471 0.605139 -0.615661
965831350 0.602842 -0.618094
967317229 0.603755 -0.621161
968803108 0.604353 -0.623922
970288987 0.597522 -0.625477
971774866 0.601537 -0.625889
973260745 0.606645 -0.624144
974746624 0.603603 -0.627459
976232503 0.601024 -0.629728
977718382 0.602576 -0.626227
979204261 0.598595 -0.62721
980690140 0.596721 -0.629768
982176019 0.597631 -0.626427
983661898 0.59547 -0.625395
985147777 0.593914 -0.625213
986633656 0.589587 -0.622752
988119535 0.58885 -0.621718
989605414 0.584068 -0.620336
991091293 0.585154 -0.620445
992577172 0.586516 -0.622966
994063051 0.587205 -0.626071
995548930 0.588888 -0.627805
997034809 0.585731 -0.628782
998520688 0.586633 -0.629707
1000006567 0.587341 -0.632508
1001492446 0.590316 -0.631052
1002978325 0.586578 -0.632232
1004464204 0.58918 -0.631422
1005950083 0.588361 -0.630224
1007435962 0.586462 -0.631803
1008921841 0.586528 -0.6289
1010407720 0.582414 -0.628473
1011893599 0.582208 -0.628616
1013379478 0.579832 -0.628116
1014865357 0.579107 -0.622695
1016351236 0.576502 -0.622358
1017837115 0.573557 -0.619073
1019322994 0.570714 -0.61849
1020808873 0.57133 -0.618246
1022294752 0.568337 -0.622158
1023780631 0.573186 -0.623278
1025266510 0.571934 -0.627672
1026752389 0.574128 -0.627812
1028238268 0.571786 -0.631158
1029724147 0.575932 -0.630268
1031210026 0.573516 -0.632781
1032695905 0.576267 -0.631584
1034181784 0.574092 -0.634476
1035667663 0.571642 -0.635999
1037153542 0.571754 -0.634433
1038639421 0.572659 -0.633138
1040125300 0.572642 -0.634088
1041611179 0.568076 -0.633005
1043097058 0.569323 -0.631267
1044582937 0.565403 -0.63009
1046068816 0.563556 -0.629525
1047554695 0.561269 -0.626053
1049040574 0.55507 -0.627683
1050526453 0.555987 -0.626016
1052012332 0.5549 -0.630819
1053498211 0.559599 -0.631026
1054984090 0.558458 -0.633251
1056469969 0.559216 -0.635547
1057955848 0.562125 -0.636061
1059441727 0.561125 -0.639115
1060927606 0.56331 -0.638053
1062413485 0.561347 -0.641112
1063899364 0.562165 -0.64155
1065385243 0.560775 -0.640234
1066871122 0.562139 -0.639569
1068357001 0.505014 -0.647023
1069842880 0.560519 -0.638835
1071328759 0.556221 -0.639993
1072814638 0.553613 -0.63964
1074300517 0.553328 -0.635585
1075786396 0.548227 -0.635324
1077272275 0.548619 -0.631882
1078758154 0.542907 -0.632176
1080244033 0.539638 -0.632084
1081729912 0.544583 -0.632507
1083215791 0.544471 -0.63666
1084701670 0.544366 -0.638407
1086187549 0.545062 -0.639678
1087673428 0.547045 -0.642237
1089159307 0.545766 -0.645467
1090645186 0.552154 -0.644605
1092131065 0.54856 -0.644287
1093616944 0.548757 -0.646274
1095102823 0.547881 -0.644157
1096588702 0.545224 -0.646046
1098074581 0.545581 -0.645402
1099560460 0.545004 -0.64337
1101046339 0.540232 -0.644688
1102532218 0.539481 -0.641454
1104018097 0.535523 -0.640527
1105503976 0.536733 -0.641144
1106989855 0.532253 -0.638624
1108475734 0.527678 -0.635693
1109961613 0.525738 -0.635453
1111447492 0.529372 -0.634209
1112933371 0.530604 -0.637712
1114419250 0.528557 -0.641795
1115905129 0.532244 -0.644932
1117391008 0.533625 -0.643649
1118876887 0.532997 -0.647336
1120362766 0.530943 -0.649169
1121848645 0.543512 -0.641117
1123334524 0.531947 -0.650759
1124820403 0.531729 -0.653428
1126306282 0.535407 -0.651308
1127792161 0.527485 -0.653084
1129278040 0.528466 -0.650317
1130763919 0.52751 -0.648086
1132249798 0.525549 -0.649557
1133735677 0.525469 -0.645421
1135221556 0.520113 -0.646986
1136707435 0.516487 -0.643682
1138193314 0.515319 -0.63831
1139679193 0.510391 -0.637816
1141165072 0.512504 -0.638892
1142650951 0.51567 -0.644859
1144136830 0.512525 -0.649698
1145622709 0.515311 -0.648053
1147108588 0.514445 -0.652583
1148594467 0.514996 -0.653367
1150080346 0.51327 -0.655704
1151566225 0.518668 -0.654055
1153052104 0.515173 -0.657387
1154537983 0.51434 -0.656906
1156023862 0.514068 -0.654923
1157509741 0.515932 -0.654452
1158995620 0.514108 -0.654552
1160481499 0.510995 -0.653881
1161967378 0.511288 -0.650222
1163453257 0.510692 -0.649297
1164939136 0.506231 -0.647668
1166425015 0.507926 -0.645799
1167910894 0.505021 -0.643009
1169396773 0.495659 -0.643537
1170882652 0.4965 -0.645123
1172368531 0.498324 -0.644027
1173854410 0.4978 -0.649815
1175340289 0.500568 -0.652527
1176826168 0.500467 -0.654627
1178312047 0.501417 -0.655065
1179797926 0.502333 -0.657947
1181283805 0.501438 -0.659272
1182769684 0.500887 -0.658941
1184255563 0.500535 -0.658917
1185741442 0.500609 -0.657881
1187227321 0.498729 -0.660166
1188713200 0.498859 -0.659525
1190199079 0.498285 -0.656206
1191684958 0.49532 -0.657036
1193170837 0.493035 -0.654252
1194656716 0.493574 -0.653134
1196142595 0.489214 -0.650649
1197628474 0.484269 -0.648711
1199114353 0.485282 -0.644736
1200600232 0.47814 -0.648309
1202086111 0.482081 -0.649183
1203571990 0.481621 -0.652648
1205057869 0.483218 -0.655949
1206543748 0.484506 -0.658187
1208029627 0.484231 -0.658721
1209515506 0.483369 -0.662434
1211001385 0.488059 -0.661299
1212487264 0.485464 -0.661264
1213973143 0.484492 -0.663087
1215459022 0.483738 -0.663306
1216944901 0.4825 -0.663923
1218430780 0.482225 -0.661397
1219916659 0.478453 -0.66195
1221402538 0.476921 -0.661192
1222888417 0.475985 -0.65954
1224374296 0.474526 -0.657668
1225860175 0.468393 -0.656429
1227346054 0.468172 -0.653993
1228831933 0.468253 -0.649957
1230317812 0.466092 -0.650067
1231803691 0.466035 -0.650599
1233289570 0.466327 -0.653699
1234775449 0.465976 -0.656336
1236261328 0.464249 -0.658041
1237747207 0.469077 -0.659249
1239233086 0.465946 -0.661563
1240718965 0.465253 -0.662425
1242204844 0.467843 -0.66157
1243690723 0.462977 -0.661929
1245176602 0.464566 -0.662402
1246662481 0.462184 -0.6624
1248148360 0.4601 -0.664071
1249634239 0.461679 -0.659988
1251120118 0.458991 -0.657189
1252605997 0.459536 -0.656277
1254091876 0.4594 -0.652004
1255577755 0.454057 -0.649643
1257063634 0.45268 -0.647738
1258549513 0.450377 -0.648842
1260035392 0.447843 -0.645497
1261521271 0.446946 -0.648225
1263007150 0.447598 -0.652506
1264493029 0.450648 -0.653026
1265978908 0.448503 -0.656543
1267464787 0.449199 -0.657909
1268950666 0.449257 -0.659007
1270436545 0.448487 -0.660085
1271922424 0.449097 -0.66057
1273408303 0.445629 -0.663337
1274894182 0.446977 -0.666357
1276380061 0.447337 -0.665366
1277865940 0.45031 -0.665169
1279351819 0.447461 -0.662573
1280837698 0.443696 -0.663353
1282323577 0.445591 -0.662674
1283809456 0.444254 -0.661718
1285295335 0.442944 -0.657733
1286781214 0.443016 -0.657431
1288267093 0.439461 -0.656246
1289752972 0.436924 -0.653806
1291238851 0.438223 -0.652386
1292724730 0.438847 -0.654052
1294210609 0.438642 -0.65556
1295696488 0.439437 -0.657675
1297182367 0.436622 -0.657472
1298668246 0.439654 -0.663116
1300154125 0.442575 -0.662765
1301640004 0.435102 -0.664272
1303125883 0.433517 -0.665403
1304611762 0.437067 -0.664561
1306097641 0.435408 -0.662987
1307583520 0.434439 -0.663373
1309069399 0.43514 -0.662292
1310555278 0.432092 -0.660257
1312041157 0.429396 -0.661306
1313527036 0.430275 -0.654015
1315012915 0.430077 -0.653516
1316498794 0.427231 -0.654163
1317984673 0.422349 -0.653021
1319470552 0.417693 -0.650335
1320956431 0.417501 -0.648044
1322442310 0.4208 -0.650424
1323928189 0.423197 -0.657586
1325414068 0.420714 -0.658939
1326899947 0.420131 -0.662068
1328385826 0.42282 -0.660963
1329871705 0.422733 -0.664225
1331357584 0.419346 -0.664772
1332843463 0.420688 -0.666731
1334329342 0.426291 -0.662995
1335815221 0.4256 -0.664254
1337301100 0.427257 -0.661936
1338786979 0.425811 -0.663355
1340272858 0.421557 -0.664967
1341758737 0.41999 -0.662253
1343244616 0.419356 -0.663667
1344730495 0.419729 -0.658258
1346216374 0.419024 -0.658451
1347702253 0.4146 -0.660128
1349188132 0.413776 -0.657737
1350674011 0.413666 -0.655249
1352159890 0.41078 -0.661092
1353645769 0.412584 -0.661578
1355131648 0.414412 -0.663133
1356617527 0.415416 -0.665461
1358103406 0.413317 -0.669371
1359589285 0.412065 -0.672339
1361075164 0.417371 -0.671038
1362561043 0.418978 -0.668317
1364046922 0.412606 -0.67364
1365532801 0.416322 -0.672585
1367018680 0.415828 -0.673358
1368504559 0.412485 -0.670449
1369990438 0.487788 -0.692064
1371476317 0.413594 -0.668936
1372962196 0.410711 -0.671839
1374448075 0.405019 -0.669422
1375933954 0.404655 -0.668885
1377419833 0.404235 -0.667452
1378905712 0.405308 -0.665888
1380391591 0.401171 -0.664849
1381877470 0.401689 -0.668729
1383363349 0.40852 -0.665921
1384849228 0.402534 -0.670665
1386335107 0.402095 -0.674194
1387820986 0.406277 -0.671169
1389306865 0.404721 -0.673214
1390792744 0.404258 -0.67419
1392278623 0.399513 -0.675135
1393764502 0.406441 -0.670563
1395250381 0.403097 -0.673713
1396736260 0.399922 -0.672811
1398222139 0.401593 -0.670359
1399708018 0.401586 -0.669057
1401193897 0.398561 -0.668768
1402679776 0.395153 -0.666847
1404165655 0.394549 -0.666535
1405651534 0.390678 -0.66295
1407137413 0.386892 -0.663205
1408623292 0.3859 -0.660326
1410109171 0.384884 -0.656093
1411595050 0.387484 -0.657432
1413080929 0.388394 -0.661994
1414566808 0.386081 -0.666256
1416052687 0.39168 -0.665871
1417538566 0.393701 -0.666532
1419024445 0.39596 -0.66878
1420510324 0.396407 -0.668306
1421996203 0.394026 -0.671526
1423482082 0.391471 -0.675499
1424967961 0.395993 -0.672015
1426453840 0.398706 -0.669625
1427939719 0.398938 -0.667463
1429425598 0.401997 -0.665038
1430911477 0.399885 -0.666543
1432397356 0.396419 -0.665833
1433883235 0.393032 -0.665077
1435369114 0.392303 -0.660678
1436854993 0.398796 -0.656487
1438340872 0.393041 -0.654263
1439826751 0.393152 -0.650436
1441312630 0.387872 -0.655456
1442798509 0.392312 -0.656097
1444284388 0.38729 -0.659113
1445770267 0.391282 -0.664693
1447256146 0.388225 -0.664264
1448742025 0.389519 -0.66586
1450227904 0.391329 -0.665677
1451713783 0.390377 -0.667833
1453199662 0.388533 -0.668897
1454685541 0.387659 -0.669809
1456171420 0.392091 -0.667248
1457657299 0.387151 -0.667477
1459143178 0.387508 -0.667423
1460629057 0.381828 -0.666959
1462114936 0.381348 -0.66617
1463600815 0.380701 -0.663195
1465086694 0.376036 -0.664179
1466572573 0.378297 -0.659992
1468058452 0.372556 -0.65733
1469544331 0.368181 -0.658544
1471030210 0.371374 -0.658866
1472516089 0.373232 -0.659328
1474001968 0.371344 -0.665787
1475487847 0.372357 -0.666514
1476973726 0.371138 -0.668532
1478459605 0.374331 -0.669383
1479945484 0.374802 -0.672492
1481431363 0.37142 -0.67453
1482917242 0.373488 -0.671477
1484403121 0.377648 -0.671309
1485889000 0.371384 -0.673787
1487374879 0.373196 -0.671012
1488860758 0.376236 -0.671139
1490346637 0.370669 -0.668855
1491832516 0.371663 -0.667758
1493318395 0.366835 -0.668175
1494804274 0.368436 -0.66496
1496290153 0.366758 -0.661104
1497776032 0.363402 -0.658859
1499261911 0.361561 -0.655316
1500747790 0.358733 -0.656643
1502233669 0.360425 -0.660473
1503719548 0.365722 -0.660984
1505205427 0.364436 -0.661831
1506691306 0.36306 -0.666651
1508177185 0.363492 -0.666533
1509663064 0.359277 -0.669898
1511148943 0.360455 -0.669712
1512634822 0.362072 -0.673587
1514120701 0.363916 -0.67235
1515606580 0.363956 -0.669772
1517092459 0.365482 -0.669379
1518578338 0.360707 -0.670301
1520064217 0.375361 -0.666058
1521550096 0.359553 -0.666008
1523035975 0.360343 -0.664558
1524521854 0.359117 -0.662518
1526007733 0.355054 -0.655719
1527493612 0.356169 -0.65233
1528979491 0.351406 -0.652173
1530465370 0.353027 -0.650011
1531951249 0.346658 -0.654615
1533437128 0.34942 -0.659603
1534923007 0.34806 -0.661375
1536408886 0.351299 -0.665373
1537894765 0.351557 -0.666124
1539380644 0.35153 -0.667087
1540866523 0.349348 -0.668438
1542352402 0.347039 -0.671586
1543838281 0.351311 -0.670477
1545324160 0.350883 -0.669703
1546810039 0.342852 -0.671686
1548295918 0.34351 -0.67076
1549781797 0.345853 -0.670404
1551267676 0.347157 -0.667805
1552753555 0.342211 -0.665827
1554239434 0.340811 -0.665534
1555725313 0.340586 -0.660862
1557211192 0.341113 -0.658454
1558697071 0.331278 -0.656445
1560182950 0.336854 -0.653669
1561668829 0.337275 -0.655292
1563154708 0.337957 -0.65915
1564640587 0.334231 -0.663659
1566126466 0.338107 -0.663898
1567612345 0.332238 -0.668784
1569098224 0.335428 -0.666673
1570584103 0.33601 -0.66841
1572069982 0.334662 -0.670293
1573555861 0.334294 -0.669305
1575041740 0.336708 -0.669644
1576527619 0.334237 -0.670553
1578013498 0.339495 -0.667562
1579499377 0.332474 -0.667893
1580985256 0.335402 -0.664702
1582471135 0.334451 -0.662634
1583957014 0.330298 -0.662332
1585442893 0.329945 -0.658965
1586928772 0.328217 -0.656418
1588414651 0.324922 -0.654108
1589900530 0.320479 -0.652371
1591386409 0.325763 -0.653037
1592872288 0.32796 -0.65367
1594358167 0.323845 -0.659848
1595844046 0.320759 -0.662703
1597329925 0.325087 -0.663594
1598815804 0.325166 -0.664161
1600301683 0.325569 -0.664612
1601787562 0.321358 -0.667784
1603273441 0.322012 -0.669681
1604759320 0.323672 -0.668338
1606245199 0.325375 -0.66628
1607731078 0.326653 -0.666662
1609216957 0.323309 -0.667671
1610702836 0.322218 -0.666009
1612188715 0.321619 -0.665163
1613674594 0.312339 -0.667398
1615160473 0.319252 -0.66424
1616646352 0.320284 -0.658229
1618132231 0.315752 -0.657047
1619618110 0.311278 -0.655604
1621103989 0.31413 -0.654546
1622589868 0.312757 -0.658038
1624075747 0.314906 -0.660261
1625561626 0.315865 -0.662457
1627047505 0.314583 -0.664903
1628533384 0.312363 -0.667159
1630019263 0.314775 -0.666192
1631505142 0.317644 -0.667081
1632991021 0.317357 -0.666198
1634476900 0.312514 -0.667586
1635962779 0.314209 -0.666355
1637448658 0.312284 -0.664933
1638934537 0.314153 -0.664724
1640420416 0.312254 -0.662386
1641906295 0.313933 -0.662665
1643392174 0.314567 -0.658305
1644878053 0.309729 -0.65883
1646363932 0.307145 -0.654112
1647849811 0.303873 -0.654786
1649335690 0.303956 -0.651583
1650821569 0.302935 -0.650913
1652307448 0.305542 -0.6566
1653793327 0.305199 -0.655095
1655279206 0.303729 -0.658018
1656765085 0.306067 -0.660994
1658250964 0.306247 -0.661256
1659736843 0.305374 -0.660832
1661222722 0.30442 -0.665656
1662708601 0.301887 -0.664974
1664194480 0.302216 -0.665649
1665680359 0.300989 -0.66508
1667166238 0.301749 -0.664477
1668652117 0.301165 -0.664414
1670137996 0.303588 -0.662143
1671623875 0.29843 -0.66072
1673109754 0.299524 -0.659732
1674595633 0.300594 -0.658215
1676081512 0.300052 -0.656666
1677567391 0.292974 -0.653503
1679053270 0.294582 -0.652076
1680539149 0.291721 -0.652726
1682025028 0.295314 -0.655544
1683510907 0.292684 -0.657064
1684996786 0.29242 -0.661028
1686482665 0.295144 -0.661529
1687968544 0.296921 -0.662621
1689454423 0.294056 -0.663869
1690940302 0.296603 -0.666719
1692426181 0.29342 -0.666509
1693912060 0.292908 -0.668151
1695397939 0.295405 -0.665904
1696883818 0.292918 -0.665681
1698369697 0.296311 -0.665979
1699855576 0.295637 -0.665306
1701341455 0.292492 -0.661808
1702827334 0.292393 -0.663686
1704313213 0.29643 -0.658004
1705799092 0.293304 -0.65476
1707284971 0.288414 -0.655331
1708770850 0.288226 -0.653603
1710256729 0.286172 -0.656158
1711742608 0.285898 -0.657988
1713228487 0.28668 -0.659824
1714714366 0.288958 -0.66032
1716200245 0.289971 -0.663366
1717686124 0.288372 -0.662508
1719172003 0.288998 -0.662049
1720657882 0.286853 -0.666889
1722143761 0.345841 -0.683999
1723629640 0.287958 -0.669474
1725115519 0.287246 -0.670289
1726601398 0.291411 -0.668341
1728087277 0.289773 -0.665912
1729573156 0.28811 -0.669093
1731059035 0.285469 -0.666071
1732544914 0.283255 -0.665987
1734030793 0.28487 -0.658529
1735516672 0.283188 -0.662496
1737002551 0.282064 -0.660263
1738488430 0.279747 -0.655863
1739974309 0.276877 -0.656104
1741460188 0.274244 -0.65593
1742946067 0.277351 -0.658932
1744431946 0.277849 -0.660689
1745917825 0.277428 -0.662075
1747403704 0.277842 -0.664827
1748889583 0.282084 -0.665675
1750375462 0.283981 -0.66325
1751861341 0.279519 -0.664806
1753347220 0.281144 -0.662722
1754833099 0.281385 -0.664561
1756318978 0.281322 -0.665176
1757804857 0.279545 -0.664093
1759290736 0.276268 -0.662911
1760776615 0.279262 -0.662832
1762262494 0.27846 -0.658653
1763748373 0.279415 -0.656993
1765234252 0.275298 -0.655731
1766720131 0.274608 -0.649483
1768206010 0.275099 -0.647034
1769691889 0.270272 -0.646033
1771177768 0.269277 -0.645858
1772663647 0.2692 -0.648696
1774149526 0.270928 -0.653112
1775635405 0.270583 -0.657035
1777121284 0.270686 -0.657934
1778607163 0.273112 -0.658
1780093042 0.273871 -0.655751
1781578921 0.273559 -0.655049
1783064800 0.275151 -0.659018
1784550679 0.268904 -0.662051
1786036558 0.2755 -0.660356
1787522437 0.27178 -0.661975
1789008316 0.274036 -0.659748
1790494195 0.26825 -0.659034
1791980074 0.273361 -0.657643
1793465953 0.272457 -0.654267
1794951832 0.269428 -0.651881
1796437711 0.274258 -0.647971
1797923590 0.266509 -0.648136
1799409469 0.27084 -0.645419
1800895348 0.26437 -0.645278
1802381227 0.263517 -0.650605
1803867106 0.268718 -0.651258
1805352985 0.265812 -0.652501
1806838864 0.26574 -0.655421
1808324743 0.26761 -0.654285
1809810622 0.267115 -0.657452
1811296501 0.269025 -0.656716
1812782380 0.268767 -0.657848
1814268259 0.26634 -0.654845
1815754138 0.272636 -0.658331
1817240017 0.270861 -0.660185
1818725896 0.269335 -0.656383
1820211775 0.262311 -0.655839
1821697654 0.269684 -0.649065
1823183533 0.263391 -0.649835
1824669412 0.261442 -0.649185
1826155291 0.256207 -0.649473
1827641170 0.262573 -0.646991
1829127049 0.258692 -0.643855
1830612928 0.257419 -0.644131
1832098807 0.263421 -0.645348
1833584686 0.253463 -0.64949
1835070565 0.25846 -0.651906
1836556444 0.261694 -0.650583
1838042323 0.258167 -0.655225
1839528202 0.256754 -0.653613
1841014081 0.254656 -0.658668
1842499960 0.259584 -0.655106
1843985839 0.250931 -0.663237
1845471718 0.26328 -0.657024
1846957597 0.257076 -0.660482
1848443476 0.254742 -0.656742
1849929355 0.255754 -0.658549
1851415234 0.250367 -0.656086
1852901113 0.249276 -0.651672
1854386992 0.251246 -0.653612
1855872871 0.246416 -0.651857
1857358750 0.244857 -0.652746
1858844629 0.250328 -0.64755
1860330508 0.247398 -0.646179
1861816387 0.244022 -0.649316
1863302266 0.249039 -0.651025
1864788145 0.254107 -0.652881
1866274024 0.248831 -0.655386
1867759903 0.248384 -0.653613
1869245782 0.244973 -0.65701
1870731661 0.251614 -0.658419
1872217540 0.253206 -0.655728
1873703419 0.250094 -0.657168
1875189298 0.247972 -0.659121
1876675177 0.249543 -0.659503
1878161056 0.252647 -0.655977
1879646935 0.24904 -0.65554
1881132814 0.245146 -0.654674
1882618693 0.245998 -0.652397
1884104572 0.24364 -0.65157
1885590451 0.24771 -0.647797
1887076330 0.242464 -0.644671
1888562209 0.242725 -0.642008
1890048088 0.239121 -0.641033
1891533967 0.238034 -0.64213
1893019846 0.240029 -0.645751
1894505725 0.241856 -0.648613
1895991604 0.245178 -0.642211
1897477483 0.245257 -0.651527
1898963362 0.244613 -0.652349
1900449241 0.247686 -0.649227
1901935120 0.238613 -0.653947
1903420999 0.239812 -0.654513
1904906878 0.241447 -0.654116
1906392757 0.242396 -0.650648
1907878636 0.242991 -0.653117
1909364515 0.240263 -0.651434
1910850394 0.240787 -0.65191
1912336273 0.244989 -0.649126
1913822152 0.236279 -0.650388
1915308031 0.236731 -0.644669
1916793910 0.236824 -0.641632
1918279789 0.23358 -0.641122
1919765668 0.232351 -0.638092
1921251547 0.234863 -0.637773
1922737426 0.23407 -0.64355
1924223305 0.230659 -0.64593
1925709184 0.234608 -0.645583
1927195063 0.235495 -0.644082
1928680942 0.237014 -0.648154
1930166821 0.233993 -0.650951
1931652700 0.240715 -0.647407
1933138579 0.230549 -0.649656
1934624458 0.235192 -0.649416
1936110337 0.230955 -0.648669
1937596216 0.235242 -0.649611
1939082095 0.234716 -0.644506
1940567974 0.23345 -0.646114
1942053853 0.233871 -0.643401
1943539732 0.231367 -0.640335
1945025611 0.2291 -0.643683
1946511490 0.229567 -0.640326
1947997369 0.229296 -0.637271
1949483248 0.224059 -0.634333
1950969127 0.225707 -0.633437
1952455006 0.22475 -0.635589
1953940885 0.220145 -0.64019
1955426764 0.226087 -0.641519
1956912643 0.222288 -0.645271
1958398522 0.223995 -0.648369
1959884401 0.226027 -0.646051
1961370280 0.225146 -0.644339
1962856159 0.222451 -0.648082
1964342038 0.223552 -0.648794
1965827917 0.227038 -0.645569
1967313796 0.225234 -0.645432
1968799675 0.224703 -0.648119
1970285554 0.22312 -0.647095
1971771433 0.217094 -0.647051
1973257312 0.224755 -0.644845
1974743191 0.222665 -0.640682
1976229070 0.220533 -0.639914
1977714949 0.225409 -0.638258
1979200828 0.221976 -0.633199
1980686707 0.215205 -0.637135
1982172586 0.217932 -0.638863
1983658465 0.211502 -0.64226
1985144344 0.215638 -0.643313
1986630223 0.220046 -0.642478
1988116102 0.223227 -0.644831
1989601981 0.214378 -0.658091
1991087860 0.210775 -0.653282
1992573739 0.218183 -0.649409
1994059618 0.216684 -0.648989
1995545497 0.217392 -0.651866
1997031376 0.219997 -0.647087
1998517255 0.217647 -0.651673
2000003134 0.218713 -0.649348
2001489013 0.217092 -0.647226
2002974892 0.214021 -0.648205
2004460771 0.219912 -0.642922
2005946650 0.212375 -0.641693
2007432529 0.21712 -0.640128
2008918408 0.208136 -0.638252
2010404287 0.214136 -0.635216
2011890166 0.214634 -0.63721
2013376045 0.210643 -0.641267
2014861924 0.212741 -0.64449
2016347803 0.214513 -0.646506
2017833682 0.214352 -0.647501
2019319561 0.213791 -0.649129
2020805440 0.21073 -0.647499
2022291319 0.231999 -0.637687
2023777198 0.216013 -0.652204
2025263077 0.218275 -0.648597
2026748956 0.215142 -0.649964
2028234835 0.212955 -0.652033
2029720714 0.210326 -0.650516
2031206593 0.214102 -0.645882
2032692472 0.217223 -0.64354
2034178351 0.210892 -0.643908
2035664230 0.209761 -0.641508
2037150109 0.210224 -0.642211
2038635988 0.210845 -0.63576
2040121867 0.206075 -0.639132
2041607746 0.210839 -0.635338
2043093625 0.211262 -0.639465
2044579504 0.210162 -0.641217
2046065383 0.213411 -0.639717
2047551262 0.208576 -0.644989
2049037141 0.212148 -0.643965
2050523020 0.209527 -0.643005
2052008899 0.211432 -0.645493
2053494778 0.211499 -0.645053
2054980657 0.21297 -0.645097
2056466536 0.211771 -0.64233
2057952415 0.21539 -0.640036
2059438294 0.210933 -0.638886
2060924173 0.209079 -0.638302
2062410052 0.208731 -0.639211
2063895931 0.205734 -0.637002
2065381810 0.208189 -0.634574
2066867689 0.207277 -0.63106
2068353568 0.202989 -0.625694
2069839447 0.202609 -0.626764
2071325326 0.198571 -0.63052
2072811205 0.201748 -0.631595
2074297084 0.204673 -0.629443
2075782963 0.201109 -0.635418
2077268842 0.202961 -0.636845
2078754721 0.201246 -0.638475
2080240600 0.202034 -0.639908
2081726479 0.200784 -0.641783
2083212358 0.199944 -0.642798
2084698237 0.201625 -0.643821
2086184116 0.200087 -0.643516
2087669995 0.197617 -0.643059
2089155874 0.202207 -0.642365
2090641753 0.194936 -0.643065
2092127632 0.19948 -0.640367
2093613511 0.202018 -0.63992
2095099390 0.195341 -0.639894
2096585269 0.195768 -0.636905
2098071148 0.189989 -0.63359
2099557027 0.191563 -0.633811
2101042906 0.194831 -0.630971
2102528785 0.193902 -0.633582
2104014664 0.198127 -0.637287
2105500543 0.193802 -0.639821
2106986422 0.191819 -0.642882
2108472301 0.197282 -0.642326
2109958180 0.195125 -0.645481
2111444059 0.202085 -0.641577
2112929938 0.198561 -0.642019
2114415817 0.19341 -0.642495
2115901696 0.20008 -0.644291
2117387575 0.198569 -0.641679
2118873454 0.196991 -0.641112
2120359333 0.197497 -0.639362
2121845212 0.196715 -0.637378
2123331091 0.192792 -0.636938
2124816970 0.194964 -0.631879
2126302849 0.192902 -0.632045
2127788728 0.191417 -0.627997
2129274607 0.19039 -0.62594
2130760486 0.190597 -0.625682
2132246365 0.18662 -0.625996
2133732244 0.189873 -0.631428
2135218123 0.194303 -0.633095
2136704002 0.188606 -0.634925
2138189881 0.185086 -0.637815
2139675760 0.186923 -0.635351
2141161639 0.18931 -0.638051
2142647518 0.194406 -0.637915
2144133397 0.187786 -0.640023
2145619276 0.188549 -0.638829
2147105155 0.187729 -0.638134
2148591034 0.190399 -0.636262
2150076913 0.187373 -0.634947
2151562792 0.187366 -0.633711
2153048671 0.188203 -0.632799
2154534550 0.18702 -0.631729
2156020429 0.180397 -0.62885
2157506308 0.185303 -0.62761
2158992187 0.182562 -0.625863
2160478066 0.179612 -0.625044
2161963945 0.179242 -0.627815
2163449824 0.176669 -0.633626
2164935703 0.18122 -0.629759
2166421582 0.181934 -0.636287
2167907461 0.181944 -0.635575
2169393340 0.180226 -0.636122
2170879219 0.183469 -0.63938
2172365098 0.177101 -0.6403
2173850977 0.18578 -0.640347
2175336856 0.180635 -0.640952
2176822735 0.186088 -0.638977
2178308614 0.185477 -0.639832
2179794493 0.185075 -0.637327
2181280372 0.185837 -0.639426
2182766251 0.181422 -0.638095
2184252130 0.185036 -0.637263
2185738009 0.190942 -0.630752
2187223888 0.182622 -0.628841
2188709767 0.181925 -0.628022
2190195646 0.180809 -0.625999
2191681525 0.174941 -0.628281
2193167404 0.178263 -0.631073
2194653283 0.183919 -0.629486
2196139162 0.184724 -0.632085
2197625041 0.180652 -0.631904
2199110920 0.177224 -0.639254
2200596799 0.182398 -0.63357
2202082678 0.179378 -0.634074
2203568557 0.183863 -0.63211
2205054436 0.178921 -0.632988
2206540315 0.173485 -0.637054
2208026194 0.182771 -0.612505
2209512073 0.182914 -0.630196
2210997952 0.183282 -0.630608
2212483831 0.185697 -0.630406
2213969710 0.177032 -0.623527
2215455589 0.174995 -0.624305
2216941468 0.168604 -0.621558
2218427347 0.170393 -0.614678
2219913226 0.177204 -0.617486
2221399105 0.17638 -0.618161
2222884984 0.177286 -0.621569
2224370863 0.176078 -0.621926
2225856742 0.174292 -0.627027
2227342621 0.175204 -0.626368
2228828500 0.17096 -0.624315
2230314379 0.172667 -0.628107
2231800258 0.166937 -0.629082
2233286137 0.173171 -0.630794
2234772016 0.169061 -0.630009
2236257895 0.171355 -0.629041
2237743774 0.175502 -0.629529
2239229653 0.169101 -0.629161
2240715532 0.170725 -0.628419
2242201411 0.177151 -0.626114
2243687290 0.169458 -0.625157
2245173169 0.17572 -0.623312
2246659048 0.167669 -0.6227
2248144927 0.1734 -0.62073
2249630806 0.1777 -0.620733
2251116685 0.173596 -0.621712
2252602564 0.173249 -0.620263
2254088443 0.171327 -0.622568
2255574322 0.173235 -0.624547
2257060201 0.172546 -0.628336
2258546080 0.172446 -0.625201
2260031959 0.168885 -0.628318
2261517838 0.174415 -0.625525
2263003717 0.176061 -0.627591
2264489596 0.173294 -0.62728
2265975475 0.172323 -0.628981
2267461354 0.173402 -0.625023
2268947233 0.168562 -0.626413
2270433112 0.179851 -0.624894
2271918991 0.171631 -0.619873
2273404870 0.170219 -0.623775
2274890749 0.16846 -0.621987
2276376628 0.165151 -0.615382
2277862507 0.167828 -0.615473
2279348386 0.172079 -0.613718
2280834265 0.168896 -0.613111
2282320144 0.173728 -0.618584
2283806023 0.168394 -0.617234
2285291902 0.171165 -0.620352
2286777781 0.166347 -0.621234
2288263660 0.167243 -0.622336
2289749539 0.166933 -0.622486
2291235418 0.16198 -0.622748
2292721297 0.172382 -0.624405
2294207176 0.17744 -0.623935
2295693055 0.174351 -0.620763
2297178934 0.165885 -0.626413
2298664813 0.172174 -0.620419
2300150692 0.174501 -0.624675
2301636571 0.171967 -0.622051
2303122450 0.16392 -0.623418
2304608329 0.168046 -0.623055
2306094208 0.167608 -0.62116
2307580087 0.170626 -0.612242
2309065966 0.166588 -0.61475
2310551845 0.16955 -0.613111
2312037724 0.167641 -0.613232
2313523603 0.16319 -0.617032
2315009482 0.168359 -0.616828
2316495361 0.172094 -0.617006
2317981240 0.172101 -0.618372
2319467119 0.164422 -0.618273
2320952998 0.16508 -0.618252
2322438877 0.167112 -0.623355
2323924756 0.084563 -0.553157
2325410635 0.166781 -0.614909
2326896514 0.168384 -0.617964
2328382393 0.1689 -0.620443
2329868272 0.165298 -0.615809
2331354151 0.160688 -0.616008
2332840030 0.162815 -0.614252
2334325909 0.16043 -0.615148
2335811788 0.1608 -0.609542
2337297667 0.162092 -0.60367
2338783546 0.157834 -0.602033
2340269425 0.156556 -0.601615
2341755304 0.1519 -0.605017
2343241183 0.152975 -0.610376
2344727062 0.159891 -0.610066
2346212941 0.15963 -0.610653
2347698820 0.161715 -0.611962
2349184699 0.150781 -0.616503
2350670578 0.155387 -0.620793
2352156457 0.160327 -0.619305
2353642336 0.156833 -0.617305
2355128215 0.149181 -0.621685
2356614094 0.149905 -0.618977
2358099973 0.148734 -0.616816
2359585852 0.151119 -0.61886
2361071731 0.160147 -0.61628
2362557610 0.15902 -0.616451
2364043489 0.149736 -0.610908
2365529368 0.147914 -0.61042
2367015247 0.148655 -0.611126
2368501126 0.13942 -0.614078
2369987005 0.150781 -0.605634
2371472884 0.153947 -0.607316
2372958763 0.150832 -0.608113
2374444642 0.149815 -0.610354
2375930521 0.148713 -0.614905
2377416400 0.150062 -0.614871
2378902279 0.151127 -0.6184
2380388158 0.150784 -0.622439
2381874037 0.151351 -0.620056
2383359916 0.158285 -0.61565
2384845795 0.146611 -0.621387
2386331674 0.152059 -0.614843
2387817553 0.147 -0.620395
2389303432 0.149344 -0.614957
2390789311 0.150777 -0.613078
2392275190 0.149002 -0.610777
2393761069 0.144742 -0.618098
2395246948 0.149903 -0.612981
2396732827 0.149301 -0.605771
2398218706 0.145525 -0.604956
2399704585 0.144538 -0.600419
2401190464 0.140622 -0.607752
2402676343 0.145078 -0.602735
2404162222 0.147521 -0.610826
2405648101 0.150127 -0.608548
2407133980 0.152394 -0.612552
2408619859 0.142672 -0.613984
2410105738 0.141212 -0.614352
2411591617 0.149347 -0.614155
2413077496 0.140559 -0.619358
2414563375 0.146763 -0.618558
2416049254 0.139917 -0.616396
2417535133 0.147618 -0.61752
2419021012 0.148031 -0.62077
2420506891 0.141804 -0.616762
2421992770 0.142534 -0.61797
2423478649 0.1448 -0.622042
2424964528 0.147588 -0.610073
2426450407 0.139243 -0.612804
2427936286 0.138929 -0.608132
2429422165 0.138047 -0.606132
2430908044 0.139153 -0.609324
2432393923 0.137976 -0.612462
2433879802 0.138668 -0.616039
2435365681 0.141904 -0.61358
2436851560 0.140439 -0.616254
2438337439 0.13736 -0.618611
2439823318 0.138372 -0.616129
2441309197 0.144807 -0.615057
2442795076 0.143971 -0.612995
2444280955 0.139437 -0.621616
2445766834 0.141892 -0.616497
2447252713 0.143639 -0.616537
2448738592 0.144915 -0.614075
2450224471 0.144626 -0.612227
2451710350 0.147256 -0.608862
2453196229 0.142691 -0.610529
2454682108 0.146529 -0.610918
2456167987 0.139919 -0.602939
2457653866 0.141204 -0.601231
2459139745 0.135197 -0.5997
2460625624 0.13992 -0.598755
2462111503 0.140015 -0.5988
2463597382 0.143183 -0.602734
2465083261 0.146763 -0.607769
2466569140 0.144996 -0.609088
2468055019 0.147481 -0.608448
2469540898 0.144617 -0.616791
2471026777 0.143109 -0.614179
2472512656 0.145409 -0.610293
2473998535 0.146231 -0.619408
2475484414 0.148206 -0.615757
2476970293 0.146796 -0.615869
2478456172 0.14491 -0.619674
2479942051 0.15247 -0.616291
2481427930 0.149275 -0.614466
2482913809 0.145119 -0.615597
2484399688 0.14718 -0.614129
2485885567 0.14609 -0.611409
2487371446 0.146635 -0.610547
2488857325 0.151256 -0.604997
2490343204 0.143243 -0.602625
2491829083 0.149058 -0.608205
2493314962 0.148227 -0.610971
2494800841 0.148732 -0.612184
2496286720 0.1452 -0.610517
2497772599 0.151221 -0.612353
2499258478 0.149521 -0.609482
2500744357 0.152639 -0.613409
2502230236 0.146295 -0.612715
2503716115 0.148301 -0.615546
2505201994 0.14581 -0.612024
2506687873 0.144872 -0.613164
2508173752 0.144525 -0.612229
2509659631 0.145916 -0.608328
2511145510 0.150755 -0.610334
2512631389 0.146442 -0.608054
2514117268 0.136559 -0.607253
2515603147 0.1388 -0.602637
2517089026 0.141412 -0.600206
2518574905 0.139365 -0.598633
2520060784 0.139542 -0.594262
2521546663 0.138642 -0.597368
2523032542 0.134354 -0.601804
2524518421 0.134065 -0.601206
2526004300 0.136398 -0.605163
2527490179 0.139026 -0.606381
2528976058 0.132447 -0.607133
2530461937 0.134112 -0.608541
2531947816 0.134594 -0.611032
2533433695 0.133012 -0.615111
2534919574 0.128077 -0.611154
2536405453 0.129839 -0.614278
2537891332 0.131333 -0.613456
2539377211 0.130315 -0.610668
2540863090 0.133263 -0.607044
2542348969 0.130097 -0.611006
2543834848 0.126614 -0.608597
2545320727 0.122829 -0.608694
2546806606 0.127525 -0.605419
2548292485 0.120838 -0.60419
2549778364 0.121793 -0.605343
2551264243 0.117506 -0.602335
2552750122 0.125157 -0.606516
2554236001 0.124427 -0.606347
2555721880 0.126702 -0.606982
2557207759 0.121445 -0.615818
2558693638 0.129897 -0.610239
2560179517 0.128096 -0.61309
2561665396 0.120989 -0.61293
2563151275 0.12823 -0.614128
2564637154 0.13044 -0.61504
2566123033 0.130385 -0.616907
2567608912 0.127326 -0.614646
2569094791 0.127273 -0.611386
2570580670 0.126068 -0.608034
2572066549 0.125789 -0.608605
2573552428 0.121845 -0.608161
2575038307 0.130088 -0.609608
2576524186 0.131349 -0.606325
2578010065 0.124394 -0.607376
2579495944 0.127196 -0.596322
2580981823 0.125619 -0.601658
2582467702 0.129637 -0.603618
2583953581 0.126033 -0.599841
2585439460 0.125729 -0.604287
2586925339 0.126062 -0.608351
2588411218 0.128416 -0.608405
2589897097 0.125518 -0.608827
2591382976 0.12695 -0.603712
2592868855 0.125016 -0.600134
2594354734 0.130585 -0.607156
2595840613 0.125267 -0.594608
2597326492 0.134837 -0.604663
2598812371 0.128339 -0.605956
2600298250 0.124697 -0.597777
2601784129 0.132958 -0.596105
2603270008 0.121853 -0.593448
2604755887 0.12432 -0.594477
2606241766 0.121948 -0.595092
2607727645 0.120015 -0.586473
2609213524 0.115635 -0.582895
2610699403 0.116178 -0.584995
2612185282 0.116719 -0.588164
2613671161 0.119915 -0.58566
2615157040 0.125712 -0.590985
2616642919 0.118523 -0.589578
2618128798 0.121469 -0.593855
2619614677 0.116985 -0.591765
2621100556 0.166342 -0.678711
2622586435 0.114892 -0.589086
2624072314 0.121242 -0.591375
2625558193 0.124109 -0.593931
2627044072 0.11654 -0.587859
2628529951 0.12133 -0.591666
2630015830 0.114518 -0.593062
2631501709 0.109607 -0.58861
2632987588 0.118136 -0.588196
2634473467 0.112662 -0.585356
2635959346 0.11312 -0.583586
2637445225 0.115763 -0.582276
2638931104 0.106173 -0.579704
2640416983 0.111913 -0.580583
2641902862 0.110741 -0.579506
2643388741 0.117797 -0.585501
2644874620 0.116232 -0.589717
2646360499 0.119721 -0.591417
2647846378 0.112466 -0.59453
2649332257 0.110174 -0.588724
2650818136 0.113831 -0.597096
2652304015 0.120719 -0.599046
2653789894 0.115576 -0.595714
2655275773 0.117188 -0.599354
2656761652 0.118868 -0.603134
2658247531 0.116774 -0.598689
2659733410 0.116138 -0.597759
2661219289 0.12336 -0.597695
2662705168 0.112115 -0.595543
2664191047 0.110569 -0.595912
2665676926 0.11622 -0.605504
2667162805 0.110857 -0.595172
2668648684 0.116584 -0.594711
2670134563 0.114533 -0.594792
2671620442 0.108338 -0.59433
2673106321 0.111062 -0.600343
2674592200 0.114792 -0.598101
2676078079 0.108494 -0.600376
2677563958 0.117615 -0.599523
2679049837 0.115411 -0.601381
2680535716 0.11562 -0.600767
2682021595 0.125343 -0.601034
2683507474 0.107291 -0.605454
2684993353 0.111551 -0.600337
2686479232 0.109183 -0.599834
2687965111 0.109449 -0.59432
2689450990 0.111196 -0.598908
2690936869 0.115996 -0.595403
2692422748 0.118101 -0.591773
2693908627 0.106814 -0.588652
2695394506 0.110164 -0.592712
2696880385 0.117605 -0.590071
2698366264 0.105689 -0.585536
2699852143 0.104932 -0.585706
2701338022 0.099036 -0.583584
2702823901 0.101995 -0.590348
2704309780 0.115023 -0.592898
2705795659 0.114301 -0.59516
2707281538 0.105382 -0.595143
2708767417 0.108863 -0.60178
2710253296 0.122646 -0.604181
2711739175 0.113572 -0.599532
2713225054 0.126761 -0.603364
2714710933 0.13067 -0.602848
2716196812 0.126619 -0.596961
2717682691 0.1233 -0.598665
2719168570 0.107428 -0.603165
2720654449 0.129928 -0.59649
2722140328 0.119628 -0.596832
2723626207 0.121488 -0.59757
2725112086 0.135937 -0.588883
2726597965 0.124886 -0.587849
2728083844 0.122098 -0.584576
2729569723 0.118044 -0.582825
2731055602 0.125974 -0.579149
2732541481 0.128732 -0.583205
2734027360 0.125659 -0.586919
2735513239 0.12495 -0.590535
2736999118 0.111085 -0.589764
2738484997 0.114312 -0.592479
2739970876 0.114541 -0.598448
2741456755 0.108746 -0.5969
2742942634 0.115292 -0.599209
2744428513 0.120824 -0.592071
2745914392 0.12268 -0.594197
2747400271 0.114234 -0.597161
2748886150 0.121647 -0.595715
2750372029 0.109907 -0.598519
2751857908 0.099313 -0.602963
2753343787 0.112021 -0.599553
2754829666 0.10222 -0.600491
2756315545 0.113974 -0.593079
2757801424 0.103904 -0.597017
2759287303 0.111237 -0.592731
2760773182 0.111476 -0.596255
2762259061 0.096703 -0.603269
2763744940 0.106891 -0.599967
2765230819 0.109962 -0.60126
2766716698 0.10385 -0.606977
2768202577 0.106732 -0.598915
2769688456 0.11635 -0.595953
2771174335 0.115901 -0.598127
2772660214 0.111617 -0.602682
2774146093 0.108945 -0.598741
2775631972 0.112685 -0.606245
2777117851 0.111952 -0.598949
2778603730 0.112178 -0.601601
2780089609 0.109924 -0.588126
2781575488 0.121528 -0.592381
2783061367 0.108255 -0.590528
2784547246 0.105815 -0.590549
2786033125 0.108512 -0.58681
2787519004 0.106084 -0.588813
2789004883 0.111366 -0.574797
2790490762 0.101224 -0.582398
2791976641 0.108332 -0.581051
2793462520 0.108972 -0.582045
2794948399 0.10866 -0.583013
2796434278 0.112565 -0.584541
2797920157 0.108047 -0.591022
2799406036 0.107615 -0.588015
2800891915 0.111441 -0.594383
2802377794 0.110995 -0.589879
2803863673 0.109769 -0.592882
2805349552 0.105674 -0.597514
2806835431 0.10028 -0.592969
2808321310 0.101392 -0.593427
2809807189 0.112301 -0.590682
2811293068 0.10658 -0.588689
2812778947 0.105333 -0.598422
2814264826 0.100892 -0.594307
2815750705 0.112188 -0.588169
2817236584 0.106863 -0.589809
2818722463 0.111311 -0.585887
2820208342 0.110023 -0.58352
2821694221 0.105519 -0.577924
2823180100 0.114838 -0.590486
2824665979 0.105498 -0.594876
2826151858 0.106425 -0.5902
2827637737 0.105997 -0.584951
2829123616 0.106309 -0.596992
2830609495 0.105025 -0.595017
2832095374 0.104419 -0.595856
2833581253 0.11141 -0.593843
2835067132 0.102115 -0.601649
2836553011 0.115349 -0.589385
2838038890 0.111113 -0.594192
2839524769 0.099972 -0.594262
2841010648 0.110331 -0.588567
2842496527 0.098781 -0.588084
2843982406 0.113453 -0.590048
2845468285 0.108799 -0.57829
2846954164 0.105475 -0.584496
2848440043 0.108057 -0.576381
2849925922 0.096561 -0.57333
2851411801 0.097685 -0.568052
2852897680 0.093109 -0.575882
2854383559 0.103936 -0.576766
2855869438 0.095367 -0.582843
2857355317 0.092906 -0.580559
2858841196 0.097731 -0.577244
2860327075 0.09418 -0.58719
2861812954 0.090061 -0.586896
2863298833 0.10343 -0.589479
2864784712 0.095146 -0.585032
2866270591 0.094686 -0.584734
2867756470 0.08897 -0.589587
2869242349 0.089473 -0.582418
2870728228 0.086391 -0.585656
2872214107 0.088531 -0.586892
2873699986 0.098205 -0.580498
2875185865 0.092942 -0.588924
2876671744 0.091603 -0.584264
2878157623 0.090555 -0.580679
2879643502 0.085756 -0.576028
2881129381 0.083818 -0.57324
2882615260 0.090072 -0.581988
2884101139 0.080095 -0.58449
2885587018 0.084698 -0.581617
2887072897 0.082896 -0.584477
2888558776 0.083739 -0.586542
2890044655 0.090834 -0.586198
2891530534 0.085062 -0.587143
2893016413 0.084667 -0.594767
2894502292 0.088884 -0.588426
2895988171 0.090015 -0.582872
2897474050 0.089051 -0.586067
2898959929 0.088146 -0.583364
2900445808 0.086595 -0.582112
2901931687 0.089786 -0.582016
2903417566 0.088164 -0.580189
2904903445 0.082699 -0.579121
2906389324 0.082705 -0.578388
2907875203 0.088012 -0.573684
2909361082 0.090463 -0.571285
2910846961 0.083642 -0.573708
2912332840 0.084438 -0.574629
2913818719 0.082131 -0.577776
2915304598 0.092237 -0.577875
2916790477 0.087239 -0.584594
2918276356 0.087817 -0.582368
2919762235 0.090491 -0.581943
2921248114 0.088392 -0.582896
2922733993 0.095301 -0.58496
2924219872 0.092846 -0.58396
2925705751 0.095152 -0.584781
2927191630 0.096713 -0.583957
2928677509 0.092106 -0.583034
2930163388 0.095823 -0.582641
2931649267 0.096573 -0.581973
2933135146 0.092279 -0.581552
2934621025 0.099386 -0.576677
2936106904 0.096639 -0.576741
2937592783 0.098347 -0.573851
2939078662 0.098417 -0.571892
2940564541 0.093599 -0.573426
2942050420 0.098111 -0.573066
2943536299 0.095815 -0.578247
2945022178 0.098801 -0.576551
2946508057 0.096809 -0.580359
2947993936 0.093398 -0.579712
2949479815 0.090333 -0.584506
2950965694 0.091908 -0.583711
2952451573 0.090186 -0.580461
2953937452 0.09018 -0.582857
2955423331 0.097193 -0.577049
2956909210 0.099704 -0.580748
2958395089 0.09903 -0.580223
2959880968 0.095081 -0.575011
2961366847 0.093031 -0.574624
2962852726 0.096726 -0.573551
2964338605 0.091988 -0.571769
2965824484 0.090341 -0.570565
2967310363 0.091113 -0.570769
2968796242 0.089166 -0.562792
2970282121 0.090578 -0.566057
2971768000 0.090146 -0.567666
2973253879 0.091239 -0.574206
2974739758 0.086095 -0.576742
2976225637 0.086393 -0.57687
2977711516 0.087762 -0.578437
2979197395 0.089258 -0.587898
2980683274 0.086363 -0.576248
2982169153 0.09043 -0.579194
2983655032 0.091851 -0.579575
2985140911 0.084458 -0.577963
2986626790 0.090133 -0.580358
2988112669 0.088335 -0.581785
2989598548 0.087189 -0.57817
2991084427 0.091527 -0.585283
2992570306 0.084643 -0.57652
2994056185 0.09184 -0.579858
2995542064 0.085623 -0.582702
2997027943 0.087154 -0.576882
2998513822 0.08797 -0.571949
2999999701 0.082706 -0.575439
