# HZ S RI R 50
10000 0.812748 -0.35138
1495879 2.357916 0.221671
2981758 1.412268 0.92178
4467637 1.285697 0.627637
5953516 1.327405 0.540146
7439395 1.345629 0.57063
8925274 6.257762 11.612267
10411153 0.882512 8.063397
11897032 -0.432406 5.710451
13382911 -0.827871 4.368454
14868790 -0.986073 3.560913
16354669 -1.054543 3.012184
17840548 -1.089666 2.61546
19326427 -1.110565 2.320906
20812306 -1.122193 2.092346
22298185 -1.130424 1.912273
23784064 -1.134673 1.76938
25269943 -1.14241 1.650785
26755822 -1.151146 1.548666
28241701 -1.160962 1.464405
29727580 -1.171284 1.395353
31213459 -0.971292 1.225591
32699338 -0.763839 1.039378
34185217 -0.584947 0.865573
35671096 -0.437808 0.694848
37156975 -0.31527 0.527958
38642854 -0.202343 0.362969
40128733 -0.10049 0.195329
41614612 0.004648 0.023292
43100491 0.119258 -0.157799
44586370 0.263681 -0.347002
46072249 0.465147 -0.523337
47558128 0.739931 -0.652498
49044007 1.065486 -0.648527
50529886 1.333531 -0.481328
52015765 1.385953 -0.246929
53501644 1.338578 -0.078857
54987523 1.238512 -0.007244
56473402 1.136428 -0.022658
57959281 1.069198 -0.032001
59445160 1.016366 -0.037837
60931039 1.000142 -0.041511
62416918 1.004437 -0.05085
63902797 1.007069 -0.059227
65388676 1.010586 -0.068604
66874555 1.011485 -0.06598
68360434 1.006055 -0.148946
69846313 1.015646 -0.041574
71332192 1.01749 -0.037874
72818071 1.015634 -0.080315
74303950 1.016841 -0.072693
75789829 1.018432 -0.004749
77275708 1.019112 -0.014132
78761587 1.01761 -0.006377
80247466 1.009968 -0.125084
81733345 1.012238 -0.076717
83219224 1.009385 -0.086178
84705103 1.004297 -0.112911
86190982 1.005781 0.012614
87676861 1.000421 -0.104669
89162740 0.996451 -0.07922
90648619 0.994852 -0.097197
92134498 0.998797 -0.095692
93620377 1.00349 -0.064087
95106256 1.004108 -0.089244
96592135 1.006309 -0.089863
98078014 1.010571 -0.08552
99563893 1.01107 -0.081959
101049772 1.011467 -0.09684
102535651 1.013317 -0.095638
104021530 1.012983 -0.097936
105507409 1.013395 -0.098457
106993288 1.012788 -0.100297
108479167 1.011937 -0.099694
109965046 1.011148 -0.100336
111450925 1.008931 -0.101896
112936804 1.006807 -0.103896
114422683 1.003981 -0.100824
115908562 0.999864 -0.102542
117394441 0.99827 -0.104416
118880320 0.994123 -0.105014
120366199 0.990703 -0.105594
121852078 0.996702 -0.107845
123337957 0.999397 -0.109788
124823836 1.003871 -0.111123
126309715 1.006838 -0.113391
127795594 1.010768 -0.114008
129281473 1.012734 -0.114646
130767352 1.013134 -0.11717
132253231 1.016382 -0.117413
133739110 1.017385 -0.118005
135224989 1.002512 -0.131101
136710868 1.002166 -0.130315
138196747 1.002226 -0.129728
139682626 1.001138 -0.131501
141168505 1.00102 -0.131367
142654384 0.998043 -0.131853
144140263 0.996128 -0.131527
145626142 0.993178 -0.131713
147112021 0.991343 -0.133269
148597900 0.987762 -0.132743
150083779 0.984817 -0.131734
151569658 0.988916 -0.134929
153055537 0.992289 -0.13561
154541416 0.994284 -0.138547
156027295 0.997505 -0.138584
157513174 0.999367 -0.141433
158999053 0.998895 -0.142524
160484932 1.001226 -0.142774
161970811 1.001747 -0.143983
163456690 1.001954 -0.146035
164942569 1.003116 -0.146037
166428448 1.002684 -0.14676
167914327 0.971 -0.196824
169400206 1.001498 -0.148697
170886085 0.998667 -0.148899
172371964 0.997354 -0.150458
173857843 0.995911 -0.152404
175343722 0.99165 -0.151695
176829601 0.988785 -0.153635
178315480 0.986193 -0.154934
179801359 0.980244 -0.157271
181287238 0.983725 -0.157789
182773117 0.987069 -0.159854
184258996 0.989093 -0.162293
185744875 0.992093 -0.161918
187230754 0.993774 -0.163578
188716633 0.995812 -0.164031
190202512 0.996394 -0.167251
191688391 0.997545 -0.167494
193174270 0.998251 -0.168006
194660149 0.998406 -0.168823
196146028 0.997187 -0.170652
197631907 0.995959 -0.172261
199117786 0.994741 -0.170712
200603665 0.992746 -0.172902
202089544 0.990413 -0.174057
203575423 0.987357 -0.174126
205061302 0.984115 -0.175755
206547181 0.981048 -0.177602
208033060 0.976572 -0.17888
209518939 0.972876 -0.18011
211004818 0.973983 -0.181478
212490697 0.977154 -0.18551
213976576 0.98011 -0.184754
215462455 0.982957 -0.187077
216948334 0.986178 -0.188796
218434213 0.98818 -0.189375
219920092 0.990304 -0.191208
221405971 0.990491 -0.191877
222891850 0.991848 -0.191311
224377729 0.991902 -0.192915
225863608 0.990951 -0.193947
227349487 0.989614 -0.195744
228835366 0.990369 -0.196874
230321245 0.987494 -0.197709
231807124 0.985653 -0.198128
233293003 0.982345 -0.198917
234778882 0.979229 -0.199937
236264761 0.975531 -0.20142
237750640 0.970858 -0.203235
239236519 0.965979 -0.204412
240722398 0.966036 -0.206115
242208277 0.970584 -0.207779
243694156 0.973347 -0.209186
245180035 0.976933 -0.210786
246665914 0.979582 -0.212667
248151793 0.982044 -0.21549
249637672 0.982858 -0.215513
251123551 0.985375 -0.215666
252609430 0.985046 -0.218775
254095309 0.984998 -0.218456
255581188 0.985651 -0.220319
257067067 0.983657 -0.22083
258552946 0.982729 -0.220523
260038825 0.980424 -0.223354
261524704 0.978605 -0.222239
263010583 0.975675 -0.224617
264496462 0.972159 -0.224615
265982341 0.967296 -0.22575
267468220 0.963321 -0.226057
268954099 0.958671 -0.22707
270439978 0.954904 -0.22947
271925857 0.960136 -0.231599
273411736 0.963733 -0.233422
274897615 0.967362 -0.235749
276383494 0.970583 -0.237631
277869373 0.972228 -0.23977
279355252 0.973803 -0.241139
280841131 0.976211 -0.241278
282327010 0.975596 -0.243622
283812889 0.976781 -0.243304
285298768 0.976982 -0.243837
286784647 0.9762 -0.245028
288270526 0.974539 -0.24531
289756405 0.970618 -0.246713
291242284 0.969375 -0.245864
292728163 0.967216 -0.247479
294214042 0.965337 -0.247562
295699921 0.959655 -0.249424
297185800 0.956379 -0.248966
298671679 0.950954 -0.250342
300157558 0.947778 -0.247916
301643437 0.951508 -0.249538
303129316 0.95488 -0.25422
304615195 0.958252 -0.256384
306101074 0.959405 -0.258054
307586953 0.963262 -0.260137
309072832 0.965382 -0.26094
310558711 0.966102 -0.262333
312044590 0.96812 -0.265006
313530469 0.966385 -0.264912
315016348 0.967235 -0.266151
316502227 0.966584 -0.26709
317988106 0.964324 -0.268019
319473985 0.962524 -0.267636
320959864 0.953935 -0.285959
322445743 0.957217 -0.268067
323931622 0.954786 -0.268963
325417501 0.949149 -0.271302
326903380 0.945554 -0.26979
328389259 0.940195 -0.270814
329875138 0.935994 -0.271355
331361017 0.938684 -0.273151
332846896 0.943798 -0.27698
334332775 0.946665 -0.279134
335818654 0.948226 -0.282594
337304533 0.950915 -0.283643
338790412 0.952152 -0.286917
340276291 0.954764 -0.287841
341762170 0.955053 -0.287839
343248049 0.956845 -0.287958
344733928 0.954934 -0.28962
346219807 0.923852 -0.332417
347705686 0.953561 -0.292004
349191565 0.952011 -0.292547
350677444 0.947751 -0.291801
352163323 0.947464 -0.293155
353649202 0.944402 -0.292978
355135081 0.940958 -0.290533
356620960 0.934436 -0.291535
358106839 0.931755 -0.293513
359592718 0.92555 -0.292443
361078597 0.926539 -0.295124
362564476 0.92974 -0.297202
364050355 0.93402 -0.300073
365536234 0.935132 -0.302996
367022113 0.937922 -0.305155
368507992 0.940465 -0.306417
369993871 0.941216 -0.309368
371479750 0.942045 -0.309938
372965629 0.942982 -0.31043
374451508 0.941506 -0.311697
375937387 0.941771 -0.312107
377423266 0.940877 -0.312945
378909145 0.940097 -0.31308
380395024 0.938223 -0.313237
381880903 0.935512 -0.311667
383366782 0.933232 -0.313704
384852661 0.930085 -0.312993
386338540 0.926337 -0.315066
387824419 0.921237 -0.312338
389310298 0.916544 -0.312126
390796177 0.91697 -0.31418
392282056 0.91896 -0.317394
393767935 0.921651 -0.320308
395253814 0.923343 -0.321761
396739693 0.925862 -0.324695
398225572 0.928309 -0.325682
399711451 0.928723 -0.32672
401197330 0.929775 -0.328575
402683209 0.929592 -0.329707
404169088 0.929805 -0.330502
405654967 0.929258 -0.332032
407140846 0.928883 -0.331472
408626725 0.927792 -0.332338
410112604 0.925167 -0.333057
411598483 0.923016 -0.332998
413084362 0.919263 -0.333643
414570241 0.916796 -0.331877
416056120 0.91275 -0.333238
417541999 0.908369 -0.333037
419027878 0.905085 -0.331816
420513757 0.901531 -0.334131
421999636 0.905075 -0.335644
423485515 0.907409 -0.337941
424971394 0.910165 -0.341265
426457273 0.910927 -0.34434
427943152 0.913727 -0.344943
429429031 0.91418 -0.345643
430914910 0.915349 -0.346655
432400789 0.915272 -0.349088
433886668 0.914516 -0.347986
435372547 0.914625 -0.350415
436858426 0.90619 -0.365487
438344305 0.912045 -0.349832
439830184 0.904978 -0.36577
441316063 0.909327 -0.351876
442801942 0.897207 -0.367718
444287821 0.903565 -0.350388
445773700 0.89274 -0.365055
447259579 0.894249 -0.352004
448745458 0.884889 -0.365502
450231337 0.888083 -0.349601
451717216 0.890714 -0.353363
453203095 0.894713 -0.355728
454688974 0.896967 -0.357938
456174853 0.898804 -0.361205
457660732 0.900101 -0.360331
459146611 0.901145 -0.363754
460632490 0.901501 -0.364201
462118369 0.901218 -0.366108
463604248 0.902816 -0.368341
465090127 0.900853 -0.366697
466576006 0.899975 -0.369339
468061885 0.897899 -0.37101
469547764 0.824215 -0.413573
471033643 0.893699 -0.370496
472519522 0.892887 -0.369415
474005401 0.889668 -0.372078
475491280 0.885995 -0.369472
476977159 0.883363 -0.371124
478463038 0.878954 -0.369638
479948917 0.874335 -0.370253
481434796 0.876566 -0.371052
482920675 0.879452 -0.375795
484406554 0.881697 -0.377298
485892433 0.883073 -0.37938
487378312 0.884066 -0.381867
488864191 0.885533 -0.383628
490350070 0.887168 -0.385041
491835949 0.886977 -0.384451
493321828 0.887485 -0.385169
494807707 0.886162 -0.386588
496293586 0.887186 -0.387359
497779465 0.885936 -0.385655
499265344 0.882072 -0.388813
500751223 0.879755 -0.386528
502237102 0.878915 -0.38725
503722981 0.875022 -0.388505
505208860 0.871781 -0.388466
506694739 0.8686 -0.385568
508180618 0.863882 -0.38767
509666497 0.859438 -0.386587
511152376 0.860478 -0.388638
512638255 0.862458 -0.390316
514124134 0.866293 -0.395795
515610013 0.867781 -0.395071
517095892 0.870434 -0.396484
518581771 0.869953 -0.400061
520067650 0.872609 -0.401412
521553529 0.872829 -0.40257
523039408 0.87283 -0.401767
524525287 0.872799 -0.403931
526011166 0.871762 -0.403466
527497045 0.87186 -0.403161
528982924 0.868793 -0.40601
530468803 0.867864 -0.40345
531954682 0.867176 -0.402798
533440561 0.862541 -0.404867
534926440 0.859662 -0.401357
536412319 0.855604 -0.403634
537898198 0.849694 -0.40256
539384077 0.846075 -0.402438
540869956 0.847826 -0.402477
542355835 0.848042 -0.405959
543841714 0.850466 -0.408227
545327593 0.852054 -0.409819
546813472 0.852995 -0.410002
548299351 0.855702 -0.409158
549785230 0.85497 -0.411679
551271109 0.855109 -0.41174
552756988 0.853662 -0.412382
554242867 0.853194 -0.413962
555728746 0.851019 -0.41334
557214625 0.851714 -0.413511
558700504 0.849002 -0.411388
560186383 0.84624 -0.410005
561672262 0.843687 -0.412532
563158141 0.840609 -0.409595
564644020 0.837318 -0.40892
566129899 0.832338 -0.409472
567615778 0.826754 -0.406624
569101657 0.821071 -0.408177
570587536 0.818327 -0.408351
572073415 0.82186 -0.413426
573559294 0.824649 -0.416311
575045173 0.826242 -0.420579
576531052 0.828502 -0.424475
578016931 0.831887 -0.425851
579502810 0.832536 -0.428746
580988689 0.833855 -0.429114
582474568 0.834423 -0.43277
583960447 0.834697 -0.432957
585446326 0.834427 -0.433844
586932205 0.834852 -0.434877
588418084 0.834884 -0.434785
589903963 0.831691 -0.436298
591389842 0.83008 -0.436983
592875721 0.826935 -0.438336
594361600 0.824871 -0.438113
595847479 0.821794 -0.437677
597333358 0.818017 -0.438823
598819237 0.81313 -0.437077
600305116 0.811271 -0.436635
601790995 0.813944 -0.441822
603276874 0.819075 -0.444018
604762753 0.819583 -0.4479
606248632 0.823372 -0.449158
607734511 0.825395 -0.44975
609220390 0.825334 -0.451034
610706269 0.824651 -0.453692
612192148 0.825141 -0.455054
613678027 0.827784 -0.451458
615163906 0.824721 -0.455548
616649785 0.826886 -0.452929
618135664 0.827223 -0.453274
619621543 0.823153 -0.455678
621107422 0.8201 -0.454935
622593301 0.818989 -0.453194
624079180 0.815732 -0.450389
625565059 0.811893 -0.451072
627050938 0.807508 -0.45232
628536817 0.803867 -0.44952
630022696 0.798963 -0.44847
631508575 0.801258 -0.451822
632994454 0.804623 -0.454528
634480333 0.806498 -0.456055
635966212 0.806093 -0.459414
637452091 0.808092 -0.460458
638937970 0.808809 -0.464403
640423849 0.810954 -0.465524
641909728 0.810406 -0.463719
643395607 0.810209 -0.467336
644881486 0.811137 -0.466916
646367365 0.810543 -0.467021
647853244 0.807361 -0.467781
649339123 0.805911 -0.467138
650825002 0.804862 -0.464823
652310881 0.800439 -0.466
653796760 0.800543 -0.463443
655282639 0.795716 -0.463569
656768518 0.773731 -0.48425
658254397 0.796023 -0.448915
659740276 0.774652 -0.472035
661226155 0.79341 -0.449189
662712034 0.7774 -0.47855
664197913 0.796382 -0.454505
665683792 0.782375 -0.482528
667169671 0.801335 -0.458757
668655550 0.784794 -0.486987
670141429 0.805558 -0.46506
671627308 0.786294 -0.491489
673113187 0.80693 -0.468027
674599066 0.788667 -0.493302
676084945 0.807435 -0.466311
677570824 0.789312 -0.491976
679056703 0.80756 -0.464695
680542582 0.787216 -0.490697
682028461 0.803665 -0.463113
683514340 0.782511 -0.488784
685000219 0.798958 -0.462092
686486098 0.775598 -0.486796
687971977 0.795253 -0.45618
689457856 0.768663 -0.483502
690943735 0.788743 -0.458939
692429614 0.770969 -0.48757
693915493 0.791305 -0.463563
695401372 0.773258 -0.492024
696887251 0.782881 -0.481568
698373130 0.773354 -0.498528
699859009 0.794471 -0.472243
701344888 0.773598 -0.50041
702830767 0.790891 -0.474867
704316646 0.783506 -0.488173
705802525 0.784442 -0.489144
707288404 0.782906 -0.488103
708774283 0.778961 -0.489483
710260162 0.775129 -0.491047
711746041 0.773061 -0.491526
713231920 0.768079 -0.488648
714717799 0.76462 -0.49132
716203678 0.76447 -0.490544
717689557 0.759077 -0.486953
719175436 0.754973 -0.486848
720661315 0.756694 -0.485783
722147194 0.757003 -0.487779
723633073 0.757742 -0.493051
725118952 0.758938 -0.495919
726604831 0.760405 -0.49663
728090710 0.76307 -0.496513
729576589 0.762633 -0.499704
731062468 0.763715 -0.498344
732548347 0.76438 -0.503046
734034226 0.764588 -0.50121
735520105 0.761815 -0.501271
737005984 0.760017 -0.504007
738491863 0.759476 -0.501233
739977742 0.758906 -0.498678
741463621 0.756558 -0.502123
742949500 0.751922 -0.501689
744435379 0.751226 -0.499785
745921258 0.75209 -0.496794
747407137 0.743758 -0.497624
748893016 0.741011 -0.497104
750378895 0.739409 -0.495277
751864774 0.740241 -0.496545
753350653 0.744976 -0.500571
754836532 0.744629 -0.500628
756322411 0.745286 -0.506165
757808290 0.748597 -0.507274
759294169 0.749607 -0.507351
760780048 0.746345 -0.510152
762265927 0.749444 -0.509373
763751806 0.748591 -0.509807
765237685 0.748871 -0.510236
766723564 0.74622 -0.512372
768209443 0.745632 -0.511364
769695322 0.835055 -0.488908
771181201 0.743018 -0.511042
772667080 0.739388 -0.510286
774152959 0.737171 -0.510552
775638838 0.734767 -0.510348
777124717 0.732164 -0.508191
778610596 0.727015 -0.506647
780096475 0.723215 -0.505081
781582354 0.724905 -0.51073
783068233 0.727958 -0.510808
784554112 0.729534 -0.514638
786039991 0.731462 -0.517271
787525870 0.733026 -0.51832
789011749 0.732197 -0.521243
790497628 0.732567 -0.520937
791983507 0.734643 -0.523021
793469386 0.734806 -0.520241
794955265 0.733994 -0.523088
796441144 0.733706 -0.52431
797927023 0.731716 -0.522609
799412902 0.731319 -0.524093
800898781 0.7285 -0.522068
802384660 0.726073 -0.522034
803870539 0.723039 -0.520891
805356418 0.720099 -0.520984
806842297 0.715927 -0.519536
808328176 0.713307 -0.516386
809814055 0.708737 -0.518795
811299934 0.710207 -0.518174
812785813 0.713192 -0.522123
814271692 0.713669 -0.523258
815757571 0.715604 -0.526296
817243450 0.714688 -0.529533
818729329 0.716073 -0.52972
820215208 0.717103 -0.530606
821701087 0.718373 -0.531911
823186966 0.720572 -0.530174
824672845 0.715869 -0.533076
826158724 0.714517 -0.532318
827644603 0.716284 -0.530383
829130482 0.714731 -0.530453
830616361 0.711251 -0.531337
832102240 0.70803 -0.531604
833588119 0.706645 -0.528893
835073998 0.70381 -0.526405
836559877 0.702295 -0.524394
838045756 0.694899 -0.525202
839531635 0.6917 -0.524657
841017514 0.690673 -0.525248
842503393 0.69209 -0.529595
843989272 0.694346 -0.530205
845475151 0.694802 -0.536328
846961030 0.698797 -0.535866
848446909 0.698176 -0.53906
849932788 0.700502 -0.536969
851418667 0.697234 -0.542768
852904546 0.698304 -0.544219
854390425 0.698835 -0.540742
855876304 0.699277 -0.544657
857362183 0.697972 -0.542849
858848062 0.69704 -0.542011
860333941 0.697354 -0.540556
861819820 0.692531 -0.541064
863305699 0.69151 -0.537038
864791578 0.688821 -0.537897
866277457 0.687244 -0.536525
867763336 0.68459 -0.535011
869249215 0.677686 -0.532848
870735094 0.67773 -0.534518
872220973 0.681475 -0.536765
873706852 0.680295 -0.541597
875192731 0.683465 -0.542305
876678610 0.685091 -0.545233
878164489 0.683689 -0.547863
879650368 0.686127 -0.546728
881136247 0.684807 -0.549648
882622126 0.685995 -0.54876
884108005 0.683374 -0.553788
885593884 0.683901 -0.552679
887079763 0.684066 -0.550275
888565642 0.684267 -0.549887
890051521 0.679675 -0.550724
891537400 0.679749 -0.546605
893023279 0.677782 -0.546603
894509158 0.67221 -0.548837
895995037 0.672034 -0.543126
897480916 0.667696 -0.544269
898966795 0.662324 -0.540888
900452674 0.662463 -0.539847
901938553 0.666348 -0.541742
903424432 0.662307 -0.546779
904910311 0.663798 -0.548886
906396190 0.666422 -0.554074
907882069 0.668955 -0.554076
909367948 0.667142 -0.556598
910853827 0.666507 -0.558261
912339706 0.667529 -0.560121
913825585 0.668225 -0.558551
915311464 0.666806 -0.559925
916797343 0.666956 -0.55919
918283222 0.663722 -0.559351
919769101 0.666067 -0.556391
921254980 0.717024 -0.53248
922740859 0.66236 -0.559606
924226738 0.65844 -0.554152
925712617 0.653746 -0.552701
927198496 0.650681 -0.548257
928684375 0.646074 -0.55225
930170254 0.645822 -0.546633
931656133 0.648185 -0.547438
933142012 0.648542 -0.552606
934627891 0.647018 -0.5564
936113770 0.649304 -0.559062
937599649 0.649599 -0.559198
939085528 0.647252 -0.565912
940571407 0.649754 -0.565201
942057286 0.648716 -0.56751
943543165 0.649448 -0.564874
945029044 0.651657 -0.56352
946514923 0.651106 -0.565204
948000802 0.647422 -0.56694
949486681 0.647094 -0.564212
950972560 0.646426 -0.564304
952458439 0.644808 -0.561823
953944318 0.642341 -0.562199
955430197 0.640171 -0.557314
956916076 0.638947 -0.556869
958401955 0.636094 -0.556774
959887834 0.632092 -0.555578
961373713 0.631618 -0.558513
962859592 0.632165 -0.56075
964345471 0.631609 -0.563447
965831350 0.634664 -0.566282
967317229 0.633874 -0.568928
968803108 0.635039 -0.569367
970288987 0.633986 -0.571203
971774866 0.636414 -0.571999
973260745 0.634096 -0.573635
974746624 0.634305 -0.573409
976232503 0.634088 -0.573212
977718382 0.634028 -0.574857
979204261 0.630247 -0.574762
980690140 0.630913 -0.573201
982176019 0.627525 -0.572345
983661898 0.629456 -0.568425
985147777 0.623196 -0.570991
986633656 0.624197 -0.568512
988119535 0.621362 -0.565798
989605414 0.615825 -0.566443
991091293 0.617198 -0.566531
992577172 0.617054 -0.570045
994063051 0.61903 -0.570261
995548930 0.620691 -0.57151
997034809 0.621726 -0.573567
998520688 0.622605 -0.574202
1000006567 0.620994 -0.575449
1001492446 0.621206 -0.577012
1002978325 0.622315 -0.57553
1004464204 0.620886 -0.57718
1005950083 0.619873 -0.576175
1007435962 0.616886 -0.577757
1008921841 0.617068 -0.576141
1010407720 0.61802 -0.572733
1011893599 0.614648 -0.572673
1013379478 0.613238 -0.57134
1014865357 0.611759 -0.569206
1016351236 0.608141 -0.567586
1017837115 0.605848 -0.566277
1019322994 0.601801 -0.565845
1020808873 0.603194 -0.565148
1022294752 0.603658 -0.568357
1023780631 0.605162 -0.570528
1025266510 0.604717 -0.572482
1026752389 0.606811 -0.571292
1028238268 0.608369 -0.573507
1029724147 0.60698 -0.577413
1031210026 0.607183 -0.576732
1032695905 0.60805 -0.576651
1034181784 0.607701 -0.57576
1035667663 0.606784 -0.578174
1037153542 0.606952 -0.578741
1038639421 0.60658 -0.577948
1040125300 0.606907 -0.574275
1041611179 0.601848 -0.576892
1043097058 0.601108 -0.576218
1044582937 0.600848 -0.574265
1046068816 0.595375 -0.573359
1047554695 0.594472 -0.571903
1049040574 0.592202 -0.56987
1050526453 0.59134 -0.568882
1052012332 0.592479 -0.571387
1053498211 0.592427 -0.574416
1054984090 0.594992 -0.57725
1056469969 0.597901 -0.578966
1057955848 0.593427 -0.58176
1059441727 0.596937 -0.58202
1060927606 0.598912 -0.58129
1062413485 0.597446 -0.581894
1063899364 0.598099 -0.582152
1065385243 0.594913 -0.58443
1066871122 0.595793 -0.583715
1068357001 0.593445 -0.583256
1069842880 0.591647 -0.58389
1071328759 0.5953 -0.579635
1072814638 0.587836 -0.584132
1074300517 0.586034 -0.578641
1075786396 0.584973 -0.578351
1077272275 0.583606 -0.576156
1078758154 0.581005 -0.576106
1080244033 0.578211 -0.574608
1081729912 0.578515 -0.576749
1083215791 0.579429 -0.579828
1084701670 0.582557 -0.582828
1086187549 0.581786 -0.58254
1087673428 0.582636 -0.585422
1089159307 0.585954 -0.585101
1090645186 0.584666 -0.589395
1092131065 0.585491 -0.586724
1093616944 0.585968 -0.589315
1095102823 0.585241 -0.586996
1096588702 0.582767 -0.588659
1098074581 0.582795 -0.584366
1099560460 0.582879 -0.58753
1101046339 0.578991 -0.583863
1102532218 0.577624 -0.584924
1104018097 0.574727 -0.586083
1105503976 0.573397 -0.580744
1106989855 0.569768 -0.579756
1108475734 0.570145 -0.576361
1109961613 0.565307 -0.575287
1111447492 0.566895 -0.579211
1112933371 0.56407 -0.582246
1114419250 0.565919 -0.585372
1115905129 0.570715 -0.585953
1117391008 0.570104 -0.587901
1118876887 0.572589 -0.587306
1120362766 0.569519 -0.592273
1121848645 0.57247 -0.59527
1123334524 0.56971 -0.59211
1124820403 0.568975 -0.589752
1126306282 0.56874 -0.592671
1127792161 0.567238 -0.590997
1129278040 0.568019 -0.589358
1130763919 0.568615 -0.58888
1132249798 0.564605 -0.588119
1133735677 0.563329 -0.589168
1135221556 0.559308 -0.585556
1136707435 0.556921 -0.583698
1138193314 0.553866 -0.584337
1139679193 0.549024 -0.582028
1141165072 0.547738 -0.582925
1142650951 0.552281 -0.584632
1144136830 0.552552 -0.588952
1145622709 0.553897 -0.591576
1147108588 0.55539 -0.593192
1148594467 0.558635 -0.594694
1150080346 0.553829 -0.598106
1151566225 0.555626 -0.596291
1153052104 0.555628 -0.596209
1154537983 0.55735 -0.596732
1156023862 0.556984 -0.596546
1157509741 0.556018 -0.596686
1158995620 0.55536 -0.592853
1160481499 0.552935 -0.593051
1161967378 0.551666 -0.593118
1163453257 0.547763 -0.592248
1164939136 0.546262 -0.591955
1166425015 0.544055 -0.58891
1167910894 0.541305 -0.584996
1169396773 0.538484 -0.583261
1170882652 0.537417 -0.58497
1172368531 0.537707 -0.587556
1173854410 0.537721 -0.589973
1175340289 0.542639 -0.59361
1176826168 0.541052 -0.596055
1178312047 0.540145 -0.596893
1179797926 0.541058 -0.597326
1181283805 0.545245 -0.596834
1182769684 0.542378 -0.600471
1184255563 0.542726 -0.597593
1185741442 0.541777 -0.598209
1187227321 0.538473 -0.602276
1188713200 0.536997 -0.599792
1190199079 0.540428 -0.597614
1191684958 0.539841 -0.596276
1193170837 0.53356 -0.594852
1194656716 0.531609 -0.59488
1196142595 0.529985 -0.590862
1197628474 0.527023 -0.588594
1199114353 0.525894 -0.58678
1200600232 0.522931 -0.588205
1202086111 0.523443 -0.591137
1203571990 0.522721 -0.594279
1205057869 0.526349 -0.595708
1206543748 0.528026 -0.60076
1208029627 0.52779 -0.598918
1209515506 0.526066 -0.600867
1211001385 0.527476 -0.604282
1212487264 0.527179 -0.602258
1213973143 0.527339 -0.60433
1215459022 0.526625 -0.605697
1216944901 0.52612 -0.603402
1218430780 0.524459 -0.603153
1219916659 0.52536 -0.601658
1221402538 0.521831 -0.601576
1222888417 0.51812 -0.600396
1224374296 0.515184 -0.60095
1225860175 0.517977 -0.593703
1227346054 0.515088 -0.59186
1228831933 0.507063 -0.592198
1230317812 0.505887 -0.591722
1231803691 0.507098 -0.591949
1233289570 0.5099 -0.595426
1234775449 0.506947 -0.598117
1236261328 0.510837 -0.598852
1237747207 0.508609 -0.602444
1239233086 0.506908 -0.601454
1240718965 0.510586 -0.602469
1242204844 0.508458 -0.603874
1243690723 0.508976 -0.604744
1245176602 0.509447 -0.602226
1246662481 0.51037 -0.599454
1248148360 0.507854 -0.602071
1249634239 0.504938 -0.603637
1251120118 0.509301 -0.596123
1252605997 0.501004 -0.598429
1254091876 0.499817 -0.596787
1255577755 0.497922 -0.594064
1257063634 0.495446 -0.590764
1258549513 0.491615 -0.590594
1260035392 0.49164 -0.584258
1261521271 0.490031 -0.586864
1263007150 0.491713 -0.591805
1264493029 0.490834 -0.597229
1265978908 0.491888 -0.595071
1267464787 0.490939 -0.599991
1268950666 0.489363 -0.604704
1270436545 0.498285 -0.600581
1271922424 0.493212 -0.604124
1273408303 0.494177 -0.603224
1274894182 0.49727 -0.604025
1276380061 0.489059 -0.60525
1277865940 0.492981 -0.60417
1279351819 0.492106 -0.603009
1280837698 0.493046 -0.602953
1282323577 0.489421 -0.603751
1283809456 0.490396 -0.598472
1285295335 0.484989 -0.599726
1286781214 0.485279 -0.596794
1288267093 0.486179 -0.593727
1289752972 0.482478 -0.594068
1291238851 0.480453 -0.59723
1292724730 0.48291 -0.5978
1294210609 0.48328 -0.595512
1295696488 0.481099 -0.600095
1297182367 0.485736 -0.59926
1298668246 0.483026 -0.603667
1300154125 0.477837 -0.605151
1301640004 0.483136 -0.604422
1303125883 0.480673 -0.606624
1304611762 0.483675 -0.602073
1306097641 0.479265 -0.602993
1307583520 0.480533 -0.599322
1309069399 0.48087 -0.598916
1310555278 0.478873 -0.600842
1312041157 0.478926 -0.598501
1313527036 0.473418 -0.59943
1315012915 0.472095 -0.595866
1316498794 0.471079 -0.594955
1317984673 0.466164 -0.592468
1319470552 0.46562 -0.589505
1320956431 0.464435 -0.589196
1322442310 0.464026 -0.59592
1323928189 0.464335 -0.598804
1325414068 0.467952 -0.598348
1326899947 0.469097 -0.600026
1328385826 0.470527 -0.602531
1329871705 0.467044 -0.604198
1331357584 0.47165 -0.60342
1332843463 0.470779 -0.600904
1334329342 0.472939 -0.603734
1335815221 0.468855 -0.604545
1337301100 0.475018 -0.60341
1338786979 0.468304 -0.604799
1340272858 0.466984 -0.605738
1341758737 0.465846 -0.60261
1343244616 0.470737 -0.60168
1344730495 0.469593 -0.600025
1346216374 0.462399 -0.60161
1347702253 0.462297 -0.599782
1349188132 0.460736 -0.594858
1350674011 0.456707 -0.598895
1352159890 0.460212 -0.599446
1353645769 0.465028 -0.602474
1355131648 0.467257 -0.602267
1356617527 0.462537 -0.609319
1358103406 0.46269 -0.608696
1359589285 0.45998 -0.610572
1361075164 0.466423 -0.609227
1362561043 0.464914 -0.609547
1364046922 0.462173 -0.612718
1365532801 0.462656 -0.613018
1367018680 0.460606 -0.615182
1368504559 0.45987 -0.61231
1369990438 0.454062 -0.594737
1371476317 0.458229 -0.610294
1372962196 0.457685 -0.612383
1374448075 0.456426 -0.60738
1375933954 0.459353 -0.607071
1377419833 0.452634 -0.608131
1378905712 0.450406 -0.602824
1380391591 0.448497 -0.6048
1381877470 0.450427 -0.606119
1383363349 0.44934 -0.611051
1384849228 0.451079 -0.609722
1386335107 0.454003 -0.61161
1387820986 0.452565 -0.61333
1389306865 0.456868 -0.610536
1390792744 0.455195 -0.613024
1392278623 0.45388 -0.611536
1393764502 0.453538 -0.614537
1395250381 0.453981 -0.609584
1396736260 0.449076 -0.61038
1398222139 0.450404 -0.609296
1399708018 0.447197 -0.609443
1401193897 0.448438 -0.606522
1402679776 0.443113 -0.606506
1404165655 0.44313 -0.604674
1405651534 0.440272 -0.601646
1407137413 0.43937 -0.602491
1408623292 0.435415 -0.600436
1410109171 0.431991 -0.595838
1411595050 0.435283 -0.598495
1413080929 0.437864 -0.600761
1414566808 0.439807 -0.602328
1416052687 0.440558 -0.606002
1417538566 0.443839 -0.6056
1419024445 0.44189 -0.608478
1420510324 0.445825 -0.608621
1421996203 0.436393 -0.60965
1423482082 0.449528 -0.606007
1424967961 0.449893 -0.608495
1426453840 0.449404 -0.60671
1427939719 0.445899 -0.606726
1429425598 0.447398 -0.605647
1430911477 0.444751 -0.603618
1432397356 0.443287 -0.60174
1433883235 0.445472 -0.599607
1435369114 0.442121 -0.597191
1436854993 0.442618 -0.59641
1438340872 0.439476 -0.592242
1439826751 0.434848 -0.593259
1441312630 0.436422 -0.592671
1442798509 0.440397 -0.594385
1444284388 0.440785 -0.600232
1445770267 0.440248 -0.601015
1447256146 0.44121 -0.599921
1448742025 0.441485 -0.602564
1450227904 0.440613 -0.603919
1451713783 0.441042 -0.604261
1453199662 0.441303 -0.605111
1454685541 0.440035 -0.606296
1456171420 0.439323 -0.605837
1457657299 0.439673 -0.604583
1459143178 0.436118 -0.604042
1460629057 0.432782 -0.605859
1462114936 0.434851 -0.60341
1463600815 0.430279 -0.602991
1465086694 0.427858 -0.600438
1466572573 0.425867 -0.598431
1468058452 0.423667 -0.598707
1469544331 0.419535 -0.597199
1471030210 0.420573 -0.597345
1472516089 0.420676 -0.601257
1474001968 0.424863 -0.602862
1475487847 0.424443 -0.605624
1476973726 0.424439 -0.606318
1478459605 0.42767 -0.606877
1479945484 0.426363 -0.61019
1481431363 0.428515 -0.609872
1482917242 0.427648 -0.609019
1484403121 0.427802 -0.609311
1485889000 0.426135 -0.609836
1487374879 0.426955 -0.608401
1488860758 0.426271 -0.607973
1490346637 0.423471 -0.606787
1491832516 0.421232 -0.605814
1493318395 0.423228 -0.602549
1494804274 0.420674 -0.601885
1496290153 0.415794 -0.60076
1497776032 0.417142 -0.596053
1499261911 0.41277 -0.59479
1500747790 0.413239 -0.594026
1502233669 0.417771 -0.595073
1503719548 0.412758 -0.602117
1505205427 0.414679 -0.603072
1506691306 0.4167 -0.605038
1508177185 0.415004 -0.607594
1509663064 0.416514 -0.606077
1511148943 0.414167 -0.610313
1512634822 0.415101 -0.609255
1514120701 0.417273 -0.608856
1515606580 0.418117 -0.609425
1517092459 0.420508 -0.606047
1518578338 0.417641 -0.606356
1520064217 0.41429 -0.604536
1521550096 0.416137 -0.603805
1523035975 0.412635 -0.601933
1524521854 0.4086 -0.601049
1526007733 0.406455 -0.599187
1527493612 0.404267 -0.594287
1528979491 0.401749 -0.594995
1530465370 0.398879 -0.592914
1531951249 0.401803 -0.597181
1533437128 0.405209 -0.599228
1534923007 0.401459 -0.601566
1536408886 0.402452 -0.604567
1537894765 0.401553 -0.607101
1539380644 0.402332 -0.60812
1540866523 0.406562 -0.606836
1542352402 0.404478 -0.610372
1543838281 0.407411 -0.607467
1545324160 0.407136 -0.609507
1546810039 0.405281 -0.608075
1548295918 0.404546 -0.605832
1549781797 0.403071 -0.607799
1551267676 0.402257 -0.607169
1552753555 0.399527 -0.602644
1554239434 0.398997 -0.599434
1555725313 0.391954 -0.601351
1557211192 0.393249 -0.597188
1558697071 0.394059 -0.595115
1560182950 0.391431 -0.592021
1561668829 0.387716 -0.597481
1563154708 0.388219 -0.600516
1564640587 0.392088 -0.600694
1566126466 0.393862 -0.600925
1567612345 0.394653 -0.601866
1569098224 0.391229 -0.605174
1570584103 0.392036 -0.607192
1572069982 0.391824 -0.606832
1573555861 0.390824 -0.608515
1575041740 0.390365 -0.608469
1576527619 0.392528 -0.60656
1578013498 0.390551 -0.605986
1579499377 0.3884 -0.607028
1580985256 0.389634 -0.602586
1582471135 0.389993 -0.601132
1583957014 0.386897 -0.601538
1585442893 0.382532 -0.599055
1586928772 0.383901 -0.594604
1588414651 0.380688 -0.592534
1589900530 0.380248 -0.587762
1591386409 0.377052 -0.593226
1592872288 0.379851 -0.594476
1594358167 0.379825 -0.597301
1595844046 0.379584 -0.600296
1597329925 0.384608 -0.599218
1598815804 0.380534 -0.602266
1600301683 0.379551 -0.604635
1601787562 0.382402 -0.604471
1603273441 0.377915 -0.609049
1604759320 0.377071 -0.607756
1606245199 0.383845 -0.604747
1607731078 0.378292 -0.607143
1609216957 0.379803 -0.604201
1610702836 0.379167 -0.604478
1612188715 0.376672 -0.603675
1613674594 0.37867 -0.60092
1615160473 0.376373 -0.597155
1616646352 0.371141 -0.599379
1618132231 0.375895 -0.592923
1619618110 0.372531 -0.593754
1621103989 0.369494 -0.594861
1622589868 0.374461 -0.594428
1624075747 0.374991 -0.596442
1625561626 0.370563 -0.600426
1627047505 0.373617 -0.599949
1628533384 0.373341 -0.601929
1630019263 0.370197 -0.605191
1631505142 0.375087 -0.605181
1632991021 0.371371 -0.605566
1634476900 0.374744 -0.604328
1635962779 0.373193 -0.604678
1637448658 0.372319 -0.603583
1638934537 0.373021 -0.601157
1640420416 0.374338 -0.598527
1641906295 0.368392 -0.600813
1643392174 0.369235 -0.59828
1644878053 0.366779 -0.596495
1646363932 0.364005 -0.595221
1647849811 0.368232 -0.590298
1649335690 0.360821 -0.58911
1650821569 0.363734 -0.589016
1652307448 0.36394 -0.590979
1653793327 0.362093 -0.594743
1655279206 0.365693 -0.595018
1656765085 0.365564 -0.595847
1658250964 0.364052 -0.599815
1659736843 0.36244 -0.602248
1661222722 0.363665 -0.601439
1662708601 0.365116 -0.602473
1664194480 0.365028 -0.602932
1665680359 0.363653 -0.602861
1667166238 0.361323 -0.60229
1668652117 0.363331 -0.601063
1670137996 0.365909 -0.598363
1671623875 0.361769 -0.598305
1673109754 0.360612 -0.596314
1674595633 0.358356 -0.596749
1676081512 0.357587 -0.596772
1677567391 0.355271 -0.592105
1679053270 0.353782 -0.592772
1680539149 0.348547 -0.590747
1682025028 0.350783 -0.589457
1683510907 0.356485 -0.594465
1684996786 0.355156 -0.595054
1686482665 0.352344 -0.599047
1687968544 0.356554 -0.599791
1689454423 0.355003 -0.601436
1690940302 0.358007 -0.600296
1692426181 0.356702 -0.602205
1693912060 0.359269 -0.604167
1695397939 0.356648 -0.599365
1696883818 0.358487 -0.599939
1698369697 0.352939 -0.605207
1699855576 0.355705 -0.600971
1701341455 0.356206 -0.597876
1702827334 0.352637 -0.599758
1704313213 0.353389 -0.596575
1705799092 0.350445 -0.594361
1707284971 0.351628 -0.592305
1708770850 0.348269 -0.59266
1710256729 0.34817 -0.592468
1711742608 0.347779 -0.591293
1713228487 0.348343 -0.594769
1714714366 0.344293 -0.598859
1716200245 0.348815 -0.599482
1717686124 0.352076 -0.600601
1719172003 0.347337 -0.605392
1720657882 0.353265 -0.602759
1722143761 0.349036 -0.583032
1723629640 0.351779 -0.604067
1725115519 0.353064 -0.605061
1726601398 0.354415 -0.600953
1728087277 0.350488 -0.601866
1729573156 0.353627 -0.59679
1731059035 0.348378 -0.601691
1732544914 0.349465 -0.599552
1734030793 0.343543 -0.597271
1735516672 0.344712 -0.599203
1737002551 0.34368 -0.593809
1738488430 0.341062 -0.593761
1739974309 0.341222 -0.589245
1741460188 0.34181 -0.592854
1742946067 0.343407 -0.593464
1744431946 0.340959 -0.597833
1745917825 0.343126 -0.599636
1747403704 0.344275 -0.599163
1748889583 0.345418 -0.600346
1750375462 0.341104 -0.599936
1751861341 0.341361 -0.601016
1753347220 0.348847 -0.600607
1754833099 0.344128 -0.600116
1756318978 0.342011 -0.601267
1757804857 0.342945 -0.598705
1759290736 0.344746 -0.596616
1760776615 0.345683 -0.594518
1762262494 0.338544 -0.597341
1763748373 0.343006 -0.592903
1765234252 0.339974 -0.589599
1766720131 0.337727 -0.587015
1768206010 0.334637 -0.583572
1769691889 0.332264 -0.584324
1771177768 0.331225 -0.583174
1772663647 0.330848 -0.587676
1774149526 0.335114 -0.589164
1775635405 0.338742 -0.589658
1777121284 0.335554 -0.592904
1778607163 0.335866 -0.593758
1780093042 0.33692 -0.595277
1781578921 0.340138 -0.595839
1783064800 0.337864 -0.597949
1784550679 0.335896 -0.596746
1786036558 0.34325 -0.59507
1787522437 0.338859 -0.596531
1789008316 0.339538 -0.595517
1790494195 0.335799 -0.593449
1791980074 0.333704 -0.591809
1793465953 0.334052 -0.59099
1794951832 0.33288 -0.5897
1796437711 0.335117 -0.586185
1797923590 0.330337 -0.582754
1799409469 0.327702 -0.582081
1800895348 0.328237 -0.582577
1802381227 0.330746 -0.585728
1803867106 0.327567 -0.588754
1805352985 0.33246 -0.589829
1806838864 0.335267 -0.590654
1808324743 0.332611 -0.592278
1809810622 0.330043 -0.593796
1811296501 0.332699 -0.594457
1812782380 0.334803 -0.59327
1814268259 0.33294 -0.591121
1815754138 0.333132 -0.593938
1817240017 0.331224 -0.591424
1818725896 0.334563 -0.593252
1820211775 0.329045 -0.592117
1821697654 0.330704 -0.589695
1823183533 0.328523 -0.588534
1824669412 0.323396 -0.589305
1826155291 0.32809 -0.588574
1827641170 0.325445 -0.581253
1829127049 0.32295 -0.580122
1830612928 0.317201 -0.584189
1832098807 0.319638 -0.582277
1833584686 0.320846 -0.585766
1835070565 0.328087 -0.588089
1836556444 0.317252 -0.592555
1838042323 0.323903 -0.592647
1839528202 0.326545 -0.591377
1841014081 0.32161 -0.596315
1842499960 0.322067 -0.595924
1843985839 0.324589 -0.598066
1845471718 0.327769 -0.593513
1846957597 0.321518 -0.592414
1848443476 0.316728 -0.600061
1849929355 0.322722 -0.595477
1851415234 0.323039 -0.593449
1852901113 0.317025 -0.594944
1854386992 0.32013 -0.589179
1855872871 0.315282 -0.58966
1857358750 0.316504 -0.588802
1858844629 0.312028 -0.583864
1860330508 0.31141 -0.582931
1861816387 0.311755 -0.584112
1863302266 0.31441 -0.587575
1864788145 0.310833 -0.590859
1866274024 0.315872 -0.592742
1867759903 0.315459 -0.592482
1869245782 0.313048 -0.594444
1870731661 0.322127 -0.592724
1872217540 0.313737 -0.592414
1873703419 0.316864 -0.594009
1875189298 0.317027 -0.591272
1876675177 0.316801 -0.593663
1878161056 0.319513 -0.593926
1879646935 0.31536 -0.591537
1881132814 0.314673 -0.592939
1882618693 0.312293 -0.586209
1884104572 0.310256 -0.587105
1885590451 0.309219 -0.584807
1887076330 0.312282 -0.581563
1888562209 0.310569 -0.580466
1890048088 0.306087 -0.578364
1891533967 0.308504 -0.578194
1893019846 0.306623 -0.58386
1894505725 0.307405 -0.585331
1895991604 0.305567 -0.584816
1897477483 0.315147 -0.587008
1898963362 0.307309 -0.590263
1900449241 0.311756 -0.585533
1901935120 0.31017 -0.589381
1903420999 0.309564 -0.589232
1904906878 0.308949 -0.590846
1906392757 0.316807 -0.589827
1907878636 0.305657 -0.589164
1909364515 0.308607 -0.588608
1910850394 0.312812 -0.587664
1912336273 0.30418 -0.58884
1913822152 0.304775 -0.58395
1915308031 0.302826 -0.582429
1916793910 0.30368 -0.580268
1918279789 0.303491 -0.577156
1919765668 0.302968 -0.578262
1921251547 0.298365 -0.579782
1922737426 0.304061 -0.577241
1924223305 0.306963 -0.580882
1925709184 0.304077 -0.582192
1927195063 0.305229 -0.583267
1928680942 0.299215 -0.586572
1930166821 0.305969 -0.586182
1931652700 0.295733 -0.588838
1933138579 0.299693 -0.590032
1934624458 0.305507 -0.584953
1936110337 0.305871 -0.584191
1937596216 0.299935 -0.587444
1939082095 0.301217 -0.586863
1940567974 0.300897 -0.584164
1942053853 0.299214 -0.583226
1943539732 0.292866 -0.581461
1945025611 0.293329 -0.581652
1946511490 0.291579 -0.578789
1947997369 0.294487 -0.577074
1949483248 0.29036 -0.573698
1950969127 0.292665 -0.573445
1952455006 0.294161 -0.574757
1953940885 0.292339 -0.577854
1955426764 0.294674 -0.57992
1956912643 0.292216 -0.583703
1958398522 0.291024 -0.582012
1959884401 0.293174 -0.585821
1961370280 0.292168 -0.587799
1962856159 0.293056 -0.58724
1964342038 0.292811 -0.586577
1965827917 0.291136 -0.586716
1967313796 0.333725 -0.670226
1968799675 0.287211 -0.586662
1970285554 0.292853 -0.583052
1971771433 0.291531 -0.584547
1973257312 0.289124 -0.5842
1974743191 0.292782 -0.577565
1976229070 0.288581 -0.578735
1977714949 0.289009 -0.576536
1979200828 0.283547 -0.57498
1980686707 0.290258 -0.571026
1982172586 0.286953 -0.578162
1983658465 0.284371 -0.580423
1985144344 0.284961 -0.582352
1986630223 0.28731 -0.583517
1988116102 0.292232 -0.583032
1989601981 0.286008 -0.598456
1991087860 0.29037 -0.585446
1992573739 0.286717 -0.588588
1994059618 0.285681 -0.588683
1995545497 0.292704 -0.585765
1997031376 0.287334 -0.590396
1998517255 0.28511 -0.59145
2000003134 0.283612 -0.58974
2001489013 0.288357 -0.58353
2002974892 0.28766 -0.579769
2004460771 0.285766 -0.584315
2005946650 0.282366 -0.583951
2007432529 0.285822 -0.57738
2008918408 0.281959 -0.574017
2010404287 0.279448 -0.575068
2011890166 0.281737 -0.579035
2013376045 0.279317 -0.581547
2014861924 0.282678 -0.582539
2016347803 0.284628 -0.583449
2017833682 0.281737 -0.586492
2019319561 0.285336 -0.588598
2020805440 0.287957 -0.587896
2022291319 0.28427 -0.588888
2023777198 0.289063 -0.58487
2025263077 0.283374 -0.591491
2026748956 0.287651 -0.584058
2028234835 0.288609 -0.586428
2029720714 0.28745 -0.587075
2031206593 0.283195 -0.587645
2032692472 0.283856 -0.582709
2034178351 0.281841 -0.58354
2035664230 0.284453 -0.579186
2037150109 0.282821 -0.579601
2038635988 0.281882 -0.57684
2040121867 0.282167 -0.571831
2041607746 0.278999 -0.576265
2043093625 0.278857 -0.578049
2044579504 0.279797 -0.5795
2046065383 0.280309 -0.580001
2047551262 0.282804 -0.583396
2049037141 0.284935 -0.57872
2050523020 0.282422 -0.582469
2052008899 0.280441 -0.584529
2053494778 0.281897 -0.577974
2054980657 0.280314 -0.580911
2056466536 0.277545 -0.585523
2057952415 0.2849 -0.579512
2059438294 0.27776 -0.580994
2060924173 0.27974 -0.577719
2062410052 0.279112 -0.578009
2063895931 0.277565 -0.575929
2065381810 0.277427 -0.572512
2066867689 0.275084 -0.568359
2068353568 0.27177 -0.56902
2069839447 0.269895 -0.566708
2071325326 0.269994 -0.568527
2072811205 0.270576 -0.573494
2074297084 0.270855 -0.573385
2075782963 0.267517 -0.577715
2077268842 0.271372 -0.578229
2078754721 0.271753 -0.579812
2080240600 0.270843 -0.578038
2081726479 0.272533 -0.580389
2083212358 0.274911 -0.579215
2084698237 0.269847 -0.584987
2086184116 0.270508 -0.581596
2087669995 0.269205 -0.581539
2089155874 0.26907 -0.580585
2090641753 0.267468 -0.581456
2092127632 0.266378 -0.582854
2093613511 0.269864 -0.577213
2095099390 0.266089 -0.577232
2096585269 0.265328 -0.578584
2098071148 0.265254 -0.577378
2099557027 0.262461 -0.573098
2101042906 0.265875 -0.576128
2102528785 0.264952 -0.576077
2104014664 0.263541 -0.577309
2105500543 0.265671 -0.582597
2106986422 0.268945 -0.580881
2108472301 0.266066 -0.58236
2109958180 0.265226 -0.583477
2111444059 0.266259 -0.582033
2112929938 0.268641 -0.581743
2114415817 0.26837 -0.5828
2115901696 0.267601 -0.582841
2117387575 0.269933 -0.581793
2118873454 0.259886 -0.583009
2120359333 0.260031 -0.580102
2121845212 0.266055 -0.574957
2123331091 0.26615 -0.574927
2124816970 0.267048 -0.573138
2126302849 0.266284 -0.570955
2127788728 0.262148 -0.568969
2129274607 0.264895 -0.566182
2130760486 0.262558 -0.56373
2132246365 0.264381 -0.568817
2133732244 0.262146 -0.572676
2135218123 0.262516 -0.570633
2136704002 0.259392 -0.574555
2138189881 0.259242 -0.574904
2139675760 0.263706 -0.577402
2141161639 0.261321 -0.579118
2142647518 0.265558 -0.576635
2144133397 0.260198 -0.579414
2145619276 0.263241 -0.574992
2147105155 0.259907 -0.575154
2148591034 0.25867 -0.577287
2150076913 0.25577 -0.578521
2151562792 0.260987 -0.574131
2153048671 0.254764 -0.572545
2154534550 0.254404 -0.571762
2156020429 0.254395 -0.571002
2157506308 0.25254 -0.569385
2158992187 0.25198 -0.568066
2160478066 0.249833 -0.567596
2161963945 0.252792 -0.568338
2163449824 0.24751 -0.572458
2164935703 0.256658 -0.574109
2166421582 0.25342 -0.574024
2167907461 0.251575 -0.572848
2169393340 0.255861 -0.579141
2170879219 0.259786 -0.578239
2172365098 0.25884 -0.579192
2173850977 0.261206 -0.576167
2175336856 0.257759 -0.579789
2176822735 0.254303 -0.580482
2178308614 0.255404 -0.578988
2179794493 0.256671 -0.577086
2181280372 0.258149 -0.577483
2182766251 0.258069 -0.571349
2184252130 0.25686 -0.573965
2185738009 0.25608 -0.571597
2187223888 0.259195 -0.567772
2188709767 0.255572 -0.56647
2190195646 0.25384 -0.56263
2191681525 0.250743 -0.565666
2193167404 0.250336 -0.570497
2194653283 0.253867 -0.570274
2196139162 0.253141 -0.572976
2197625041 0.255607 -0.57304
2199110920 0.255321 -0.569969
2200596799 0.253003 -0.576869
2202082678 0.250116 -0.57863
2203568557 0.253909 -0.575613
2205054436 0.254402 -0.572165
2206540315 0.256065 -0.576719
2208026194 0.278538 -0.562572
2209512073 0.251272 -0.571445
2210997952 0.248029 -0.572035
2212483831 0.245276 -0.567765
2213969710 0.248307 -0.566504
2215455589 0.248984 -0.564085
2216941468 0.249688 -0.563028
2218427347 0.24246 -0.558578
2219913226 0.243964 -0.554357
2221399105 0.246725 -0.558427
2222884984 0.244107 -0.562489
2224370863 0.247756 -0.564033
2225856742 0.244453 -0.564796
2227342621 0.246863 -0.565884
2228828500 0.241842 -0.566726
2230314379 0.241516 -0.56967
2231800258 0.243372 -0.570088
2233286137 0.245885 -0.567803
2234772016 0.244592 -0.57502
2236257895 0.2462 -0.572519
2237743774 0.241668 -0.572901
2239229653 0.243172 -0.571178
2240715532 0.244989 -0.570096
2242201411 0.2424 -0.565869
2243687290 0.244638 -0.568527
2245173169 0.247413 -0.569935
2246659048 0.244119 -0.562335
2248144927 0.243701 -0.562081
2249630806 0.237617 -0.559658
2251116685 0.240363 -0.564127
2252602564 0.238455 -0.56598
2254088443 0.242517 -0.564307
2255574322 0.241617 -0.567518
2257060201 0.242415 -0.567141
2258546080 0.244895 -0.568438
2260031959 0.251038 -0.567501
2261517838 0.248069 -0.570476
2263003717 0.24594 -0.56679
2264489596 0.246047 -0.569665
2265975475 0.240913 -0.569322
2267461354 0.246564 -0.568248
2268947233 0.242229 -0.566885
2270433112 0.240667 -0.561108
2271918991 0.258267 -0.576914
2273404870 0.245297 -0.563647
2274890749 0.24633 -0.559781
2276376628 0.236488 -0.563867
2277862507 0.240128 -0.559092
2279348386 0.240461 -0.556057
2280834265 0.246454 -0.555487
2282320144 0.232171 -0.555394
2283806023 0.24481 -0.55842
2285291902 0.256868 -0.569175
2286777781 0.2361 -0.559007
2288263660 0.234256 -0.562756
2289749539 0.242986 -0.565625
2291235418 0.245288 -0.564719
2292721297 0.244652 -0.565203
2294207176 0.241458 -0.567443
2295693055 0.255373 -0.575472
2297178934 0.238039 -0.564037
2298664813 0.248648 -0.563735
2300150692 0.239716 -0.56724
2301636571 0.244871 -0.566354
2303122450 0.241387 -0.566481
2304608329 0.245493 -0.561153
2306094208 0.231784 -0.560062
2307580087 0.241133 -0.562615
2309065966 0.247052 -0.552743
2310551845 0.238271 -0.556378
2312037724 0.232344 -0.558186
2313523603 0.23642 -0.560335
2315009482 0.241952 -0.558547
2316495361 0.240147 -0.560459
2317981240 0.244254 -0.56017
2319467119 0.246496 -0.558505
2320952998 0.244533 -0.558917
2322438877 0.242878 -0.564271
2323924756 0.24449 -0.561434
2325410635 0.2413 -0.556293
2326896514 0.230767 -0.562375
2328382393 0.236588 -0.55745
2329868272 0.241277 -0.556778
2331354151 0.234466 -0.557716
2332840030 0.233401 -0.556665
2334325909 0.231456 -0.549889
2335811788 0.230748 -0.550874
2337297667 0.231792 -0.547432
2338783546 0.227629 -0.548168
2340269425 0.227029 -0.546498
2341755304 0.233918 -0.54824
2343241183 0.230346 -0.552248
2344727062 0.232227 -0.553855
2346212941 0.222748 -0.557362
2347698820 0.235897 -0.554392
2349184699 0.223891 -0.56098
2350670578 0.233372 -0.555317
2352156457 0.232129 -0.559205
2353642336 0.235932 -0.557785
2355128215 0.232708 -0.557228
2356614094 0.23454 -0.557689
2358099973 0.230973 -0.558275
2359585852 0.22083 -0.563434
2361071731 0.228479 -0.55503
2362557610 0.23103 -0.551228
2364043489 0.230746 -0.556206
2365529368 0.218323 -0.559754
2367015247 0.222003 -0.552725
2368501126 0.224532 -0.552763
2369987005 0.220506 -0.556335
2371472884 0.223987 -0.555454
2372958763 0.223443 -0.55022
2374444642 0.22078 -0.556537
2375930521 0.22602 -0.556888
2377416400 0.226187 -0.565478
2378902279 0.227928 -0.559187
2380388158 0.224571 -0.559728
2381874037 0.228134 -0.557179
2383359916 0.22114 -0.559842
2384845795 0.221254 -0.565878
2386331674 0.228772 -0.557305
2387817553 0.222744 -0.557684
2389303432 0.222692 -0.559944
2390789311 0.223283 -0.560218
2392275190 0.221762 -0.558865
2393761069 0.220212 -0.55375
2395246948 0.222377 -0.554371
2396732827 0.221488 -0.550991
2398218706 0.224363 -0.547789
2399704585 0.21698 -0.548435
2401190464 0.219555 -0.546614
2402676343 0.214226 -0.550066
2404162222 0.215441 -0.556564
2405648101 0.217716 -0.551931
2407133980 0.221087 -0.552333
2408619859 0.224501 -0.554439
2410105738 0.211479 -0.56195
2411591617 0.221688 -0.561028
2413077496 0.217131 -0.562603
2414563375 0.220218 -0.563654
2416049254 0.216214 -0.561155
2417535133 0.217973 -0.565176
2419021012 0.254052 -0.567472
2420506891 0.211836 -0.565301
2421992770 0.223821 -0.556178
2423478649 0.210198 -0.565666
2424964528 0.213887 -0.561827
2426450407 0.213711 -0.560006
2427936286 0.213746 -0.55872
2429422165 0.208288 -0.557434
2430908044 0.212708 -0.554295
2432393923 0.212262 -0.555123
2433879802 0.212478 -0.557574
2435365681 0.214182 -0.556762
2436851560 0.211508 -0.558441
2438337439 0.215991 -0.560941
2439823318 0.218191 -0.563162
2441309197 0.212939 -0.562427
2442795076 0.213236 -0.566382
2444280955 0.215918 -0.557446
2445766834 0.213572 -0.565846
2447252713 0.212806 -0.56047
2448738592 0.217502 -0.560517
2450224471 0.215129 -0.55713
2451710350 0.214987 -0.553632
2453196229 0.21544 -0.551244
2454682108 0.213506 -0.550089
2456167987 0.218821 -0.548871
2457653866 0.212716 -0.547821
2459139745 0.211947 -0.540645
2460625624 0.211825 -0.546597
2462111503 0.209687 -0.544142
2463597382 0.216456 -0.549903
2465083261 0.215274 -0.550556
2466569140 0.215548 -0.556015
2468055019 0.216293 -0.557249
2469540898 0.218904 -0.55389
2471026777 0.215195 -0.555341
2472512656 0.216302 -0.560213
2473998535 0.21589 -0.561622
2475484414 0.219415 -0.561091
2476970293 0.215385 -0.561909
2478456172 0.220193 -0.562
2479942051 0.221633 -0.564011
2481427930 0.222221 -0.560093
2482913809 0.220525 -0.557315
2484399688 0.218375 -0.557637
2485885567 0.218361 -0.557115
2487371446 0.221912 -0.552385
2488857325 0.21917 -0.552591
2490343204 0.223635 -0.552233
2491829083 0.218054 -0.552466
2493314962 0.218975 -0.554116
2494800841 0.222539 -0.553595
2496286720 0.222934 -0.553453
2497772599 0.221631 -0.556224
2499258478 0.222026 -0.555039
2500744357 0.219624 -0.559032
2502230236 0.220094 -0.559062
2503716115 0.216786 -0.559747
2505201994 0.221072 -0.559889
2506687873 0.219605 -0.557274
2508173752 0.222403 -0.555421
2509659631 0.218794 -0.553373
2511145510 0.219546 -0.552549
2512631389 0.218174 -0.551107
2514117268 0.218155 -0.54669
2515603147 0.223253 -0.549783
2517089026 0.215871 -0.545291
2518574905 0.213172 -0.542219
2520060784 0.209477 -0.540776
2521546663 0.209757 -0.543795
2523032542 0.210446 -0.548098
2524518421 0.207643 -0.550237
2526004300 0.207895 -0.54954
2527490179 0.210292 -0.552908
2528976058 0.208047 -0.551671
2530461937 0.212453 -0.553064
2531947816 0.208035 -0.554865
2533433695 0.205257 -0.555982
2534919574 0.208243 -0.557614
2536405453 0.206188 -0.55598
2537891332 0.207156 -0.55417
2539377211 0.207746 -0.55788
2540863090 0.205893 -0.55448
2542348969 0.201421 -0.555933
2543834848 0.201223 -0.551992
2545320727 0.201925 -0.553119
2546806606 0.20349 -0.551708
2548292485 0.202077 -0.549381
2549778364 0.1884 -0.550273
2551264243 0.195818 -0.548051
2552750122 0.199139 -0.549695
2554236001 0.200594 -0.551257
2555721880 0.201674 -0.550575
2557207759 0.19795 -0.558313
2558693638 0.204896 -0.561295
2560179517 0.199974 -0.558509
2561665396 0.201161 -0.557022
2563151275 0.20191 -0.559377
2564637154 0.202076 -0.556197
2566123033 0.202783 -0.560339
2567608912 0.204423 -0.559744
2569094791 0.201114 -0.553611
2570580670 0.226202 -0.560628
2572066549 0.233354 -0.559439
2573552428 0.225638 -0.555144
2575038307 0.228126 -0.55706
2576524186 0.210914 -0.567246
2578010065 0.201862 -0.547876
2579495944 0.201559 -0.547688
2580981823 0.193146 -0.546493
2582467702 0.200694 -0.544592
2583953581 0.198599 -0.549685
2585439460 0.199498 -0.545499
2586925339 0.199662 -0.548058
2588411218 0.205071 -0.54895
2589897097 0.19671 -0.547886
2591382976 0.208375 -0.545287
2592868855 0.202053 -0.551456
2594354734 0.186663 -0.535904
2595840613 0.202555 -0.550692
2597326492 0.195521 -0.545474
2598812371 0.199824 -0.545771
2600298250 0.201618 -0.542792
2601784129 0.193822 -0.539456
2603270008 0.205715 -0.542833
2604755887 0.196832 -0.53209
2606241766 0.19986 -0.539626
2607727645 0.193799 -0.53749
2609213524 0.192513 -0.532603
2610699403 0.199002 -0.531317
2612185282 0.194085 -0.532741
2613671161 0.196171 -0.535956
2615157040 0.195357 -0.541452
2616642919 0.195005 -0.542149
2618128798 0.189792 -0.545654
2619614677 0.196723 -0.540614
2621100556 0.192042 -0.538996
2622586435 0.18894 -0.568553
2624072314 0.196415 -0.541281
2625558193 0.19615 -0.536956
2627044072 0.192474 -0.539615
2628529951 0.194401 -0.535337
2630015830 0.195949 -0.53606
2631501709 0.194034 -0.532251
2632987588 0.197912 -0.540186
2634473467 0.18565 -0.534095
2635959346 0.183744 -0.533825
2637445225 0.185762 -0.532538
2638931104 0.183845 -0.526943
2640416983 0.181339 -0.525235
2641902862 0.181428 -0.528239
2643388741 0.183626 -0.533098
2644874620 0.185989 -0.533941
2646360499 0.184061 -0.535707
2647846378 0.174483 -0.535561
2649332257 0.183276 -0.542044
2650818136 0.191113 -0.542986
2652304015 0.190365 -0.543742
2653789894 0.193727 -0.54263
2655275773 0.185236 -0.544366
2656761652 0.185893 -0.542967
2658247531 0.181139 -0.544253
2659733410 0.187709 -0.543776
2661219289 0.195868 -0.547494
2662705168 0.187449 -0.547008
2664191047 0.18946 -0.545129
2665676926 0.187449 -0.543046
2667162805 0.196768 -0.543319
2668648684 0.189493 -0.539652
2670134563 0.187809 -0.539681
2671620442 0.189803 -0.54288
2673106321 0.182362 -0.540614
2674592200 0.195381 -0.545011
2676078079 0.192359 -0.542248
2677563958 0.191746 -0.54115
2679049837 0.200617 -0.550335
2680535716 0.182631 -0.547123
2682021595 0.192887 -0.556512
2683507474 0.193537 -0.548807
2684993353 0.182959 -0.545187
2686479232 0.186104 -0.544904
2687965111 0.189741 -0.541202
2689450990 0.189522 -0.543963
2690936869 0.187169 -0.543004
2692422748 0.1932 -0.541234
2693908627 0.1896 -0.538387
2695394506 0.190273 -0.543466
2696880385 0.179434 -0.536585
2698366264 0.178068 -0.535704
2699852143 0.176253 -0.53416
2701338022 0.178299 -0.531987
2702823901 0.18076 -0.539373
2704309780 0.176176 -0.540454
2705795659 0.180897 -0.543239
2707281538 0.180037 -0.547503
2708767417 0.189407 -0.54537
2710253296 0.192697 -0.543874
2711739175 0.193706 -0.546702
2713225054 0.190849 -0.547614
2714710933 0.190943 -0.548401
2716196812 0.197138 -0.544158
2717682691 0.189817 -0.544406
2719168570 0.106582 -0.49378
2720654449 0.193589 -0.544716
2722140328 0.193945 -0.544371
2723626207 0.196291 -0.534823
2725112086 0.204554 -0.539348
2726597965 0.206733 -0.529749
2728083844 0.197771 -0.531607
2729569723 0.190992 -0.5248
2731055602 0.202053 -0.53009
2732541481 0.205004 -0.527766
2734027360 0.199331 -0.53134
2735513239 0.187807 -0.538417
2736999118 0.201796 -0.531855
2738484997 0.192463 -0.53969
2739970876 0.191202 -0.541719
2741456755 0.191377 -0.541818
2742942634 0.20061 -0.53944
2744428513 0.201008 -0.538187
2745914392 0.188435 -0.543085
2747400271 0.189306 -0.548759
2748886150 0.197383 -0.542976
2750372029 0.182193 -0.548749
2751857908 0.194204 -0.540713
2753343787 0.184202 -0.544577
2754829666 0.17833 -0.546579
2756315545 0.187492 -0.543405
2757801424 0.190201 -0.538162
2759287303 0.177418 -0.54162
2760773182 0.182831 -0.537228
2762259061 0.185959 -0.548189
2763744940 0.183683 -0.544658
2765230819 0.190069 -0.542402
2766716698 0.182685 -0.551183
2768202577 0.190037 -0.549776
2769688456 0.189249 -0.54843
2771174335 0.186386 -0.546807
2772660214 0.1868 -0.542973
2774146093 0.18089 -0.550655
2775631972 0.183265 -0.547887
2777117851 0.188525 -0.549349
2778603730 0.189161 -0.543455
2780089609 0.183912 -0.545759
2781575488 0.184817 -0.543158
2783061367 0.191191 -0.538338
2784547246 0.187367 -0.53263
2786033125 0.179306 -0.539725
2787519004 0.186795 -0.521543
2789004883 0.181743 -0.523885
2790490762 0.182136 -0.524552
2791976641 0.182739 -0.521958
2793462520 0.190215 -0.528378
2794948399 0.188476 -0.529905
2796434278 0.186686 -0.529265
2797920157 0.182752 -0.541896
2799406036 0.194167 -0.538339
2800891915 0.183122 -0.541157
2802377794 0.18428 -0.544201
2803863673 0.184372 -0.538542
2805349552 0.184824 -0.540132
2806835431 0.187809 -0.545799
2808321310 0.183221 -0.540924
2809807189 0.184163 -0.538971
2811293068 0.186995 -0.542012
2812778947 0.182994 -0.536628
2814264826 0.189708 -0.539315
2815750705 0.181291 -0.527929
2817236584 0.182372 -0.529528
2818722463 0.181073 -0.532079
2820208342 0.180729 -0.533712
2821694221 0.182632 -0.52782
2823180100 0.182993 -0.530827
2824665979 0.184574 -0.543662
2826151858 0.18435 -0.533233
2827637737 0.185036 -0.545752
2829123616 0.188829 -0.544963
2830609495 0.184262 -0.542655
2832095374 0.175349 -0.55009
2833581253 0.186927 -0.544129
2835067132 0.188116 -0.538937
2836553011 0.183996 -0.538585
2838038890 0.185033 -0.54166
2839524769 0.183708 -0.53999
2841010648 0.180817 -0.534384
2842496527 0.178851 -0.533084
2843982406 0.18888 -0.538589
2845468285 0.187439 -0.529078
2846954164 0.182986 -0.531928
2848440043 0.183034 -0.521659
2849925922 0.179934 -0.520624
2851411801 0.186995 -0.507483
2852897680 0.171972 -0.533861
2854383559 0.187914 -0.525249
2855869438 0.171151 -0.537868
2857355317 0.180887 -0.529148
2858841196 0.16382 -0.539081
2860327075 0.18385 -0.529557
2861812954 0.16952 -0.539111
2863298833 0.183062 -0.530413
2864784712 0.162879 -0.531343
2866270591 0.182526 -0.528061
2867756470 0.157285 -0.552049
2869242349 0.160399 -0.528516
2870728228 0.164614 -0.538742
2872214107 0.161396 -0.540946
2873699986 0.16461 -0.528267
2875185865 0.155969 -0.530508
2876671744 0.152949 -0.530907
2878157623 0.155639 -0.527468
2879643502 0.158795 -0.522955
2881129381 0.155575 -0.52975
2882615260 0.153013 -0.535113
2884101139 0.152374 -0.531112
2885587018 0.154295 -0.536088
2887072897 0.160485 -0.534896
2888558776 0.153101 -0.535646
2890044655 0.15296 -0.525849
2891530534 0.163003 -0.539233
2893016413 0.165711 -0.535052
2894502292 0.16981 -0.53457
2895988171 0.164233 -0.533215
2897474050 0.163996 -0.532504
2898959929 0.163081 -0.533264
2900445808 0.165555 -0.52977
2901931687 0.165403 -0.528886
2903417566 0.160156 -0.528974
2904903445 0.163662 -0.524267
2906389324 0.163813 -0.526205
2907875203 0.163273 -0.522469
2909361082 0.159237 -0.52165
2910846961 0.162043 -0.521297
2912332840 0.162951 -0.523723
2913818719 0.163756 -0.524938
2915304598 0.16489 -0.525906
2916790477 0.15952 -0.531244
2918276356 0.164631 -0.531045
2919762235 0.169888 -0.528062
2921248114 0.163072 -0.531598
2922733993 0.167204 -0.533411
2924219872 0.166724 -0.532004
2925705751 0.17183 -0.53144
2927191630 0.168433 -0.530931
2928677509 0.173428 -0.529595
2930163388 0.173718 -0.529879
2931649267 0.173089 -0.529196
2933135146 0.173604 -0.528052
2934621025 0.175391 -0.524534
2936106904 0.171368 -0.523162
2937592783 0.172601 -0.522212
2939078662 0.172161 -0.518988
2940564541 0.170468 -0.521025
2942050420 0.168232 -0.523943
2943536299 0.166911 -0.523002
2945022178 0.166898 -0.524834
2946508057 0.169745 -0.526027
2947993936 0.171898 -0.52699
2949479815 0.168831 -0.527765
2950965694 0.170819 -0.528786
2952451573 0.169062 -0.53125
2953937452 0.172684 -0.52699
2955423331 0.173655 -0.526623
2956909210 0.171767 -0.52603
2958395089 0.169376 -0.527924
2959880968 0.16845 -0.53024
2961366847 0.174942 -0.522659
2962852726 0.172939 -0.524009
2964338605 0.169127 -0.521882
2965824484 0.171969 -0.519612
2967310363 0.1632 -0.518002
2968796242 0.165393 -0.516316
2970282121 0.169037 -0.510783
2971768000 0.159658 -0.518258
2973253879 0.163149 -0.520227
2974739758 0.170466 -0.519981
2976225637 0.163965 -0.524619
2977711516 0.165522 -0.520576
2979197395 0.169746 -0.525655
2980683274 0.163995 -0.527442
2982169153 0.165279 -0.526644
2983655032 0.166918 -0.525906
2985140911 0.164772 -0.525618
2986626790 0.162992 -0.523876
2988112669 0.166887 -0.536531
2989598548 0.167501 -0.534923
2991084427 0.161022 -0.526483
2992570306 0.169605 -0.52453
2994056185 0.162529 -0.527184
2995542064 0.167943 -0.527567
2997027943 0.168935 -0.528495
2998513822 0.165015 -0.525664
2999999701 0.162548 -0.519228
