# HZ S RI R 50
10000 0.57088 -0.141467
1495879 1.657936 1.552613
2981758 1.348239 0.963362
4467637 1.285445 0.629516
5953516 1.325916 0.540279
7439395 1.345868 0.571383
8925274 0.942279 6.94893
10411153 0.91248 8.00024
11897032 -0.377424 5.701915
13382911 -0.810912 4.386003
14868790 -0.977601 3.570792
16354669 -1.044071 3.018564
17840548 -1.077666 2.618107
19326427 -1.096864 2.323971
20812306 -1.109324 2.104301
22298185 -1.117602 1.918453
23784064 -1.125563 1.773467
25269943 -1.134858 1.654087
26755822 -1.142087 1.551179
28241701 -1.15313 1.471182
29727580 -1.163459 1.398645
31213459 -0.965895 1.228066
32699338 -0.756333 1.043385
34185217 -0.579199 0.868301
35671096 -0.43389 0.697058
37156975 -0.312526 0.527968
38642854 -0.200476 0.363887
40128733 -0.099617 0.195687
41614612 0.004758 0.023278
43100491 0.119011 -0.158555
44586370 0.262626 -0.348643
46072249 0.46443 -0.526341
47558128 0.740879 -0.658089
49044007 1.070559 -0.655592
50529886 1.343201 -0.485524
52015765 1.396029 -0.244696
53501644 1.347085 -0.070651
54987523 1.245893 0.002693
56473402 1.141185 -0.012794
57959281 1.071051 -0.02146
59445160 1.017575 -0.029209
60931039 0.889769 -0.086839
62416918 1.003998 -0.041924
63902797 1.006588 -0.049728
65388676 1.010537 -0.058736
66874555 1.012599 -0.054123
68360434 1.007532 -0.138839
69846313 1.017761 -0.031229
71332192 1.018389 -0.025985
72818071 1.017772 -0.069762
74303950 1.018776 -0.061854
75789829 1.018911 0.007226
77275708 1.018852 -0.000475
78761587 1.016585 0.00472
80247466 1.013183 -0.112867
81733345 1.015032 -0.064244
83219224 1.011091 -0.074442
84705103 1.006207 -0.098857
86190982 1.005434 0.026372
87676861 1.00133 -0.090852
89162740 0.998732 -0.065698
90648619 0.994819 -0.082873
92134498 1.000151 -0.080406
93620377 1.00507 -0.048494
95106256 1.005872 -0.07494
96592135 1.008106 -0.074739
98078014 1.010704 -0.068833
99563893 1.012962 -0.066485
101049772 1.015049 -0.080625
102535651 1.01302 -0.080459
104021530 1.015263 -0.081654
105507409 1.012869 -0.08339
106993288 1.01345 -0.083282
108479167 1.014024 -0.084123
109965046 1.012239 -0.083948
111450925 1.01087 -0.084806
112936804 1.008648 -0.084966
114422683 1.006901 -0.086151
115908562 1.00278 -0.084742
117394441 0.999539 -0.086883
118880320 0.995211 -0.088049
120366199 0.994481 -0.087479
121852078 0.998311 -0.089132
123337957 1.002841 -0.090994
124823836 1.006452 -0.094172
126309715 1.008854 -0.09423
127795594 1.010754 -0.096026
129281473 1.014432 -0.095273
130767352 1.016829 -0.096917
132253231 1.016761 -0.098181
133739110 1.018732 -0.096401
135224989 1.005355 -0.110004
136710868 1.004881 -0.110043
138196747 1.004951 -0.109579
139682626 1.003159 -0.109821
141168505 1.002622 -0.110242
142654384 1.001723 -0.11006
144140263 0.999807 -0.110552
145626142 0.996904 -0.110068
147112021 0.994411 -0.111214
148597900 0.99218 -0.111553
150083779 0.987006 -0.110717
151569658 0.991605 -0.113003
153055537 0.993691 -0.114877
154541416 0.997196 -0.116245
156027295 0.999874 -0.116785
157513174 1.002993 -0.117337
158999053 1.003966 -0.120359
160484932 1.005547 -0.120393
161970811 1.006401 -0.120877
163456690 1.005524 -0.120801
164942569 1.006808 -0.122496
166428448 1.006302 -0.122902
167914327 1.005678 -0.124406
169400206 1.004362 -0.124815
170886085 1.003294 -0.125409
172371964 1.000312 -0.125516
173857843 0.997883 -0.125556
175343722 0.996227 -0.127054
176829601 0.994087 -0.130585
178315480 0.988223 -0.129766
179801359 0.98429 -0.131932
181287238 0.988515 -0.132199
182773117 0.989965 -0.133556
184258996 0.992912 -0.134906
185744875 0.996867 -0.136202
187230754 0.998502 -0.137395
188716633 0.999708 -0.136932
190202512 1.000887 -0.138848
191688391 1.001315 -0.14051
193174270 1.001925 -0.140159
194660149 1.001895 -0.140836
196146028 1.001553 -0.141366
197631907 1.001259 -0.142118
199117786 0.99836 -0.14304
200603665 0.997781 -0.145162
202089544 0.995151 -0.145288
203575423 0.992847 -0.147038
205061302 0.989071 -0.147803
206547181 0.986606 -0.147943
208033060 0.982007 -0.148489
209518939 0.978101 -0.151391
211004818 0.978739 -0.152345
212490697 0.982993 -0.153033
213976576 0.985878 -0.15422
215462455 0.987723 -0.155858
216948334 0.991546 -0.157271
218434213 0.993994 -0.159089
219920092 0.995883 -0.159095
221405971 0.99475 -0.161168
222891850 0.997299 -0.161526
224377729 0.997832 -0.160523
225863608 0.996922 -0.162218
227349487 0.997785 -0.161359
228835366 0.99386 -0.162765
230321245 0.994332 -0.164844
231807124 0.990161 -0.164345
233293003 0.987762 -0.166019
234778882 0.98448 -0.166948
236264761 0.981589 -0.169085
237750640 0.977843 -0.169795
239236519 0.973412 -0.16955
240722398 0.972931 -0.17275
242208277 0.97761 -0.17449
243694156 0.979966 -0.176871
245180035 0.983469 -0.176498
246665914 0.987132 -0.177904
248151793 0.988567 -0.180467
249637672 0.990879 -0.178834
251123551 0.991773 -0.18148
252609430 0.991857 -0.181785
254095309 0.992056 -0.181934
255581188 0.991781 -0.182224
257067067 0.991074 -0.184102
258552946 0.990277 -0.184838
260038825 0.988007 -0.185998
261524704 0.98586 -0.186083
263010583 0.983202 -0.185946
264496462 0.97817 -0.18754
265982341 0.975498 -0.188693
267468220 0.970174 -0.189318
268954099 0.966486 -0.190354
270439978 0.964193 -0.191364
271925857 0.968998 -0.193943
273411736 0.972459 -0.195367
274897615 0.976592 -0.197072
276383494 0.978574 -0.198688
277869373 0.980324 -0.201156
279355252 0.983596 -0.20032
280841131 0.983458 -0.201383
282327010 0.986192 -0.203546
283812889 0.985891 -0.203341
285298768 0.986989 -0.202733
286784647 0.985815 -0.204679
288270526 0.984337 -0.205507
289756405 0.982509 -0.207228
291242284 0.979783 -0.207056
292728163 0.977172 -0.206948
294214042 0.9739 -0.206602
295699921 0.970462 -0.208279
297185800 0.965124 -0.208132
298671679 0.960502 -0.209528
300157558 0.95525 -0.209928
301643437 0.960875 -0.212383
303129316 0.964621 -0.216059
304615195 0.967704 -0.219045
306101074 0.970478 -0.219717
307586953 0.971995 -0.223004
309072832 0.976914 -0.222236
310558711 0.976488 -0.222856
312044590 0.97581 -0.224193
313530469 0.976882 -0.223829
315016348 0.977363 -0.224883
316502227 0.976834 -0.227368
317988106 0.9757 -0.226314
319473985 0.973553 -0.226885
320959864 0.971401 -0.227917
322445743 0.969133 -0.227639
323931622 0.965788 -0.228301
325417501 0.960697 -0.229604
326903380 0.95678 -0.229255
328389259 0.951158 -0.228708
329875138 0.945657 -0.230062
331361017 0.949774 -0.233033
332846896 0.95333 -0.234918
334332775 0.95612 -0.237804
335818654 0.959015 -0.238283
337304533 0.963405 -0.242461
338790412 0.963557 -0.242667
340276291 0.966361 -0.243523
341762170 0.966737 -0.246785
343248049 0.968799 -0.245843
344733928 0.96742 -0.246284
346219807 0.966255 -0.247045
347705686 0.966249 -0.247362
349191565 0.963514 -0.248097
350677444 0.962032 -0.247304
352163323 0.958679 -0.248399
353649202 0.957725 -0.248307
355135081 0.953036 -0.247759
356620960 0.948814 -0.248075
358106839 0.943642 -0.247118
359592718 0.93951 -0.247651
361078597 0.938662 -0.248821
362564476 0.943089 -0.25171
364050355 0.947268 -0.255519
365536234 0.948607 -0.25758
367022113 0.951291 -0.258973
368507992 0.953815 -0.261357
369993871 0.955367 -0.262321
371479750 0.955758 -0.263897
372965629 0.957399 -0.263079
374451508 0.950491 -0.281618
375937387 0.957597 -0.26577
377423266 0.955412 -0.267452
378909145 0.95434 -0.263875
380395024 0.953302 -0.264902
381880903 0.950392 -0.265593
383366782 0.948444 -0.263705
384852661 0.944202 -0.265095
386338540 0.93994 -0.266121
387824419 0.936899 -0.263668
389310298 0.931823 -0.264873
390796177 0.930648 -0.265771
392282056 0.933584 -0.270365
393767935 0.937109 -0.271167
395253814 0.940322 -0.272497
396739693 0.940867 -0.276457
398225572 0.942494 -0.277303
399711451 0.944526 -0.278255
401197330 0.94522 -0.280124
402683209 0.94567 -0.281857
404169088 0.946673 -0.282356
405654967 0.945191 -0.282029
407140846 0.944519 -0.282054
408626725 0.94291 -0.280884
410112604 0.940738 -0.282277
411598483 0.93961 -0.283458
413084362 0.935731 -0.28326
414570241 0.934297 -0.282172
416056120 0.929863 -0.282331
417541999 0.924819 -0.281406
419027878 0.921855 -0.280575
420513757 0.917872 -0.282888
421999636 0.921992 -0.286762
423485515 0.924901 -0.288066
424971394 0.927674 -0.289561
426457273 0.929217 -0.28872
427943152 0.930185 -0.293699
429429031 0.931043 -0.293837
430914910 0.933533 -0.295029
432400789 0.932444 -0.296994
433886668 0.933909 -0.296687
435372547 0.933226 -0.298296
436858426 0.930799 -0.298016
438344305 0.931798 -0.297993
439830184 0.92879 -0.298414
441316063 0.928633 -0.299549
442801942 0.923915 -0.297338
444287821 0.92132 -0.297491
445773700 0.917529 -0.297539
447259579 0.914598 -0.298186
448745458 0.910646 -0.297013
450231337 0.906341 -0.295802
451717216 0.906437 -0.299046
453203095 0.911126 -0.300729
454688974 0.916028 -0.304296
456174853 0.917643 -0.305475
457660732 0.919634 -0.308754
459146611 0.917841 -0.311151
460632490 0.921304 -0.31013
462118369 0.92155 -0.312121
463604248 0.921507 -0.312779
465090127 0.921634 -0.314614
466576006 0.920881 -0.313851
468061885 0.918919 -0.315162
469547764 0.918281 -0.313744
471033643 0.916137 -0.313926
472519522 0.91314 -0.31556
474005401 0.910563 -0.31411
475491280 0.90761 -0.31427
476977159 0.90363 -0.315585
478463038 0.900615 -0.314958
479948917 0.895043 -0.315056
481434796 0.897876 -0.315874
482920675 0.901805 -0.319909
484406554 0.902864 -0.32268
485892433 0.905938 -0.32297
487378312 0.908042 -0.32237
488864191 0.908398 -0.32623
490350070 0.909706 -0.325034
491835949 0.90827 -0.329627
493321828 0.909629 -0.328463
494807707 0.909657 -0.327085
496293586 0.909411 -0.329979
497779465 0.906164 -0.331529
499265344 0.905626 -0.328962
500751223 0.903584 -0.329714
502237102 0.90217 -0.329012
503722981 0.89718 -0.331087
505208860 0.897258 -0.325599
506694739 0.892323 -0.329282
508180618 0.886199 -0.327573
509666497 0.882183 -0.329725
511152376 0.884434 -0.331333
512638255 0.887128 -0.334588
514124134 0.890559 -0.334918
515610013 0.891017 -0.339165
517095892 0.894007 -0.339998
518581771 0.895503 -0.339292
520067650 0.897068 -0.34238
521553529 0.897005 -0.342312
523039408 0.896635 -0.341289
524525287 0.898415 -0.345294
526011166 0.898303 -0.342112
527497045 0.896799 -0.342992
528982924 0.895399 -0.343666
530468803 0.892903 -0.344026
531954682 0.889734 -0.344421
533440561 0.88683 -0.343324
534926440 0.884381 -0.342554
536412319 0.88121 -0.34164
537898198 0.878674 -0.341235
539384077 0.87145 -0.343307
540869956 0.872635 -0.344055
542355835 0.873348 -0.34429
543841714 0.876921 -0.345167
545327593 0.878982 -0.347076
546813472 0.88023 -0.350127
548299351 0.880517 -0.350619
549785230 0.88109 -0.349837
551271109 0.882456 -0.349224
552756988 0.881428 -0.351744
554242867 0.881525 -0.349645
555728746 0.880077 -0.351184
557214625 0.878773 -0.351679
558700504 0.875568 -0.35268
560186383 0.87399 -0.35096
561672262 0.867772 -0.351654
563158141 0.86733 -0.348412
564644020 0.861412 -0.349572
566129899 0.857734 -0.347665
567615778 0.853715 -0.347751
569101657 0.849754 -0.3463
570587536 0.847132 -0.345472
572073415 0.848556 -0.353459
573559294 0.851996 -0.356819
575045173 0.855797 -0.357235
576531052 0.858299 -0.360388
578016931 0.859905 -0.362319
579502810 0.862128 -0.36472
580988689 0.863636 -0.366396
582474568 0.862447 -0.368862
583960447 0.864223 -0.369162
585446326 0.864936 -0.371173
586932205 0.864714 -0.371471
588418084 0.864237 -0.370759
589903963 0.861463 -0.374162
591389842 0.860901 -0.374398
592875721 0.857586 -0.375069
594361600 0.856594 -0.373574
595847479 0.85249 -0.373511
597333358 0.848558 -0.374434
598819237 0.847428 -0.374144
600305116 0.841433 -0.374903
601790995 0.846483 -0.377945
603276874 0.847885 -0.37956
604762753 0.851615 -0.382664
606248632 0.853878 -0.384552
607734511 0.855797 -0.3848
609220390 0.857921 -0.384833
610706269 0.856958 -0.388676
612192148 0.857039 -0.388196
613678027 0.858485 -0.389665
615163906 0.859821 -0.389234
616649785 0.858082 -0.391376
618135664 0.858769 -0.389041
619621543 0.856512 -0.387938
621107422 0.853607 -0.388367
622593301 0.850246 -0.389369
624079180 0.846798 -0.386271
625565059 0.84414 -0.38624
627050938 0.840922 -0.384817
628536817 0.836682 -0.381886
630022696 0.830766 -0.382974
631508575 0.83514 -0.38548
632994454 0.837095 -0.389585
634480333 0.839099 -0.391906
635966212 0.842652 -0.391856
637452091 0.84109 -0.395369
638937970 0.843215 -0.396732
640423849 0.851683 -0.386255
641909728 0.846469 -0.396215
643395607 0.885651 -0.349508
644881486 0.84637 -0.398494
646367365 0.843089 -0.400631
647853244 0.843309 -0.400976
649339123 0.842543 -0.397944
650825002 0.838948 -0.399775
652310881 0.837138 -0.397192
653796760 0.835523 -0.398598
655282639 0.830919 -0.395101
656768518 0.826557 -0.39488
658254397 0.821446 -0.397313
659740276 0.816693 -0.392882
661226155 0.819261 -0.393959
662712034 0.821328 -0.398625
664197913 0.825733 -0.402698
665683792 0.826231 -0.401906
667169671 0.830198 -0.405415
668655550 0.833639 -0.406462
670141429 0.821627 -0.422259
671627308 0.833358 -0.41013
673113187 0.835127 -0.408292
674599066 0.837385 -0.409804
676084945 0.835284 -0.408146
677570824 0.83374 -0.409443
679056703 0.833265 -0.408345
680542582 0.831781 -0.410541
682028461 0.831996 -0.405674
683514340 0.827319 -0.406607
685000219 0.824893 -0.403181
686486098 0.825429 -0.400214
687971977 0.820259 -0.398417
689457856 0.818241 -0.398654
690943735 0.815218 -0.401436
692429614 0.819786 -0.405284
693915493 0.827334 -0.393282
695401372 0.821641 -0.410033
696887251 0.831501 -0.395438
698373130 0.823899 -0.41334
699859009 0.831517 -0.400436
701344888 0.823178 -0.415707
702830767 0.831291 -0.403097
704316646 0.819789 -0.418271
705802525 0.830121 -0.402033
707288404 0.817532 -0.41908
708774283 0.826295 -0.405995
710260162 0.816419 -0.418239
711746041 0.820171 -0.407092
713231920 0.809186 -0.422194
714717799 0.817291 -0.403718
716203678 0.803152 -0.419143
717689557 0.807229 -0.401651
719175436 0.796219 -0.415121
720661315 0.804109 -0.405479
722147194 0.797412 -0.418629
723633073 0.807317 -0.408728
725118952 0.801926 -0.422239
726604831 0.809085 -0.414412
728090710 0.801151 -0.428214
729576589 0.812775 -0.415132
731062468 0.803684 -0.429209
732548347 0.812162 -0.417173
734034226 0.80631 -0.428409
735520105 0.813098 -0.416643
737005984 0.803876 -0.429668
738491863 0.812243 -0.416093
739977742 0.802045 -0.428762
741463621 0.809538 -0.413473
742949500 0.794416 -0.431313
744435379 0.793912 -0.427366
745921258 0.79172 -0.423813
747407137 0.786816 -0.425495
748893016 0.783021 -0.424399
750378895 0.77954 -0.424691
751864774 0.783231 -0.425876
753350653 0.784441 -0.42591
754836532 0.786039 -0.431107
756322411 0.787949 -0.434503
757808290 0.792662 -0.434955
759294169 0.789843 -0.435902
760780048 0.792517 -0.436093
762265927 0.790163 -0.437423
763751806 0.791943 -0.436822
765237685 0.791271 -0.439996
766723564 0.791894 -0.438283
768209443 0.789333 -0.438192
769695322 0.874878 -0.41078
771181201 0.787113 -0.43581
772667080 0.78427 -0.436565
774152959 0.781773 -0.433705
775638838 0.778194 -0.433908
777124717 0.774336 -0.436757
778610596 0.771481 -0.43211
780096475 0.768842 -0.433356
781582354 0.76938 -0.438347
783068233 0.770537 -0.438764
784554112 0.773559 -0.442196
786039991 0.776123 -0.442022
787525870 0.776568 -0.444923
789011749 0.778782 -0.444174
790497628 0.78092 -0.445011
791983507 0.781865 -0.445903
793469386 0.781205 -0.447039
794955265 0.778685 -0.450061
796441144 0.780385 -0.447507
797927023 0.778492 -0.447448
799412902 0.775414 -0.448379
800898781 0.775827 -0.445738
802384660 0.772443 -0.445879
803870539 0.770041 -0.447323
805356418 0.767213 -0.445139
806842297 0.765091 -0.442504
808328176 0.759822 -0.442874
809814055 0.756985 -0.44174
811299934 0.757367 -0.443444
812785813 0.75783 -0.449068
814271692 0.762427 -0.449148
815757571 0.764178 -0.449776
817243450 0.766897 -0.450481
818729329 0.767409 -0.451849
820215208 0.764534 -0.456708
821701087 0.765992 -0.454814
823186966 0.766151 -0.459318
824672845 0.765198 -0.457794
826158724 0.764684 -0.456052
827644603 0.764788 -0.456043
829130482 0.76217 -0.45491
830616361 0.761335 -0.455141
832102240 0.757856 -0.454575
833588119 0.75484 -0.453159
835073998 0.752288 -0.451537
836559877 0.749823 -0.450063
838045756 0.744997 -0.450022
839531635 0.741012 -0.448428
841017514 0.742703 -0.448918
842503393 0.742696 -0.453175
843989272 0.742996 -0.457803
845475151 0.746785 -0.46064
846961030 0.747679 -0.460799
848446909 0.750886 -0.461176
849932788 0.751099 -0.463479
851418667 0.752547 -0.462412
852904546 0.753767 -0.463447
854390425 0.752181 -0.463948
855876304 0.752842 -0.46485
857362183 0.75233 -0.462763
858848062 0.750316 -0.464602
860333941 0.746557 -0.465213
861819820 0.745655 -0.464167
863305699 0.741262 -0.464007
864791578 0.740243 -0.46248
866277457 0.735874 -0.46032
867763336 0.734247 -0.456177
869249215 0.730264 -0.456109
870735094 0.727213 -0.459098
872220973 0.729564 -0.463994
873706852 0.735535 -0.461579
875192731 0.736585 -0.465765
876678610 0.736147 -0.468923
878164489 0.73923 -0.470208
879650368 0.736503 -0.47361
881136247 0.741585 -0.470427
882622126 0.738937 -0.474504
884108005 0.74026 -0.471688
885593884 0.739817 -0.473639
887079763 0.736659 -0.476061
888565642 0.736498 -0.47275
890051521 0.733709 -0.472672
891537400 0.735014 -0.470199
893023279 0.730235 -0.471435
894509158 0.729646 -0.468697
895995037 0.724979 -0.46913
897480916 0.722444 -0.46591
898966795 0.717445 -0.462917
900452674 0.718842 -0.461586
901938553 0.716885 -0.466338
903424432 0.719859 -0.470344
904910311 0.72176 -0.473448
906396190 0.722624 -0.472096
907882069 0.724348 -0.476445
909367948 0.72418 -0.476026
910853827 0.726451 -0.475206
912339706 0.724322 -0.479755
913825585 0.724199 -0.479223
915311464 0.722482 -0.481348
916797343 0.723015 -0.475943
918283222 0.720857 -0.48
919769101 0.677946 -0.519711
921254980 0.720342 -0.476978
922740859 0.718693 -0.477645
924226738 0.713384 -0.476218
925712617 0.71095 -0.477195
927198496 0.707832 -0.474191
928684375 0.703636 -0.471669
930170254 0.701024 -0.468893
931656133 0.701194 -0.471938
933142012 0.70462 -0.47537
934627891 0.706113 -0.479522
936113770 0.705244 -0.481855
937599649 0.706674 -0.483795
939085528 0.70804 -0.482317
940571407 0.707978 -0.484886
942057286 0.707624 -0.487839
943543165 0.710063 -0.4837
945029044 0.70826 -0.487469
946514923 0.706582 -0.487978
948000802 0.707951 -0.485469
949486681 0.706102 -0.485891
950972560 0.705817 -0.48186
952458439 0.704123 -0.483205
953944318 0.698499 -0.484283
955430197 0.701319 -0.479139
956916076 0.6949 -0.478559
958401955 0.695127 -0.476659
959887834 0.68963 -0.475878
961373713 0.691336 -0.476677
962859592 0.691368 -0.481598
964345471 0.69419 -0.481985
965831350 0.695184 -0.483902
967317229 0.695877 -0.487966
968803108 0.695626 -0.491242
970288987 0.695624 -0.491282
971774866 0.69555 -0.493908
973260745 0.697348 -0.492802
974746624 0.696012 -0.492904
976232503 0.694638 -0.493431
977718382 0.69489 -0.493076
979204261 0.693284 -0.49462
980690140 0.691846 -0.49201
982176019 0.691003 -0.489125
983661898 0.68684 -0.492251
985147777 0.687233 -0.489691
986633656 0.684774 -0.487326
988119535 0.680475 -0.48846
989605414 0.679945 -0.485562
991091293 0.678918 -0.486841
992577172 0.680461 -0.488688
994063051 0.680485 -0.491342
995548930 0.682762 -0.4928
997034809 0.682301 -0.495352
998520688 0.683274 -0.495738
1000006567 0.685115 -0.495126
1001492446 0.685234 -0.496717
1002978325 0.68705 -0.493729
1004464204 0.683719 -0.496386
1005950083 0.683435 -0.494501
1007435962 0.682161 -0.495583
1008921841 0.682411 -0.495546
1010407720 0.680803 -0.493321
1011893599 0.678524 -0.492311
1013379478 0.677459 -0.489889
1014865357 0.673873 -0.489882
1016351236 0.672356 -0.489243
1017837115 0.668716 -0.487787
1019322994 0.664683 -0.485306
1020808873 0.664686 -0.485367
1022294752 0.666294 -0.488598
1023780631 0.668952 -0.48968
1025266510 0.668986 -0.49176
1026752389 0.670194 -0.490708
1028238268 0.670954 -0.496489
1029724147 0.673196 -0.495052
1031210026 0.672032 -0.497444
1032695905 0.673947 -0.494195
1034181784 0.675613 -0.493546
1035667663 0.670221 -0.500515
1037153542 0.673004 -0.495901
1038639421 0.672359 -0.494458
1040125300 0.670323 -0.493824
1041611179 0.669451 -0.494172
1043097058 0.667409 -0.491847
1044582937 0.663983 -0.493458
1046068816 0.664643 -0.489128
1047554695 0.66239 -0.489181
1049040574 0.657599 -0.490352
1050526453 0.654821 -0.489167
1052012332 0.660296 -0.489558
1053498211 0.659927 -0.494457
1054984090 0.66094 -0.496364
1056469969 0.662736 -0.49629
1057955848 0.662313 -0.49786
1059441727 0.661951 -0.501555
1060927606 0.665133 -0.498443
1062413485 0.661607 -0.5026
1063899364 0.663521 -0.501831
1065385243 0.66405 -0.502687
1066871122 0.662701 -0.501929
1068357001 0.663313 -0.499687
1069842880 0.653054 -0.505147
1071328759 0.657067 -0.500423
1072814638 0.656551 -0.49867
1074300517 0.654309 -0.499364
1075786396 0.649218 -0.500848
1077272275 0.647393 -0.496925
1078758154 0.647409 -0.493684
1080244033 0.64026 -0.496383
1081729912 0.64306 -0.498477
1083215791 0.648483 -0.496243
1084701670 0.649688 -0.500754
1086187549 0.649772 -0.502519
1087673428 0.650841 -0.504732
1089159307 0.652864 -0.504784
1090645186 0.653833 -0.504856
1092131065 0.651861 -0.503909
1093616944 0.653797 -0.507186
1095102823 0.655294 -0.504384
1096588702 0.649853 -0.505415
1098074581 0.652475 -0.506523
1099560460 0.650662 -0.504266
1101046339 0.645715 -0.506756
1102532218 0.646662 -0.504361
1104018097 0.645203 -0.502395
1105503976 0.643263 -0.500273
1106989855 0.637737 -0.496681
1108475734 0.636978 -0.496821
1109961613 0.632391 -0.497985
1111447492 0.63779 -0.497238
1112933371 0.638165 -0.50033
1114419250 0.638427 -0.50178
1115905129 0.639164 -0.505425
1117391008 0.640079 -0.505843
1118876887 0.640052 -0.507728
1120362766 0.640915 -0.508456
1121848645 0.642568 -0.508173
1123334524 0.673997 -0.491802
1124820403 0.63783 -0.510039
1126306282 0.639729 -0.51002
1127792161 0.638135 -0.51002
1129278040 0.639023 -0.506931
1130763919 0.641503 -0.508597
1132249798 0.632858 -0.506204
1133735677 0.632538 -0.506694
1135221556 0.63216 -0.502778
1136707435 0.626782 -0.50306
1138193314 0.624032 -0.503799
1139679193 0.621366 -0.500627
1141165072 0.621175 -0.499156
1142650951 0.618967 -0.508699
1144136830 0.625824 -0.50717
1145622709 0.624978 -0.509048
1147108588 0.627766 -0.509726
1148594467 0.628155 -0.511695
1150080346 0.626317 -0.512702
1151566225 0.632277 -0.512685
1153052104 0.630962 -0.512508
1154537983 0.631453 -0.514314
1156023862 0.631935 -0.51316
1157509741 0.62538 -0.516321
1158995620 0.626659 -0.512424
1160481499 0.628215 -0.509749
1161967378 0.629196 -0.50781
1163453257 0.621968 -0.508491
1164939136 0.619536 -0.506399
1166425015 0.615397 -0.50579
1167910894 0.615772 -0.503454
1169396773 0.609536 -0.504642
1170882652 0.609376 -0.503844
1172368531 0.611405 -0.507363
1173854410 0.614138 -0.50889
1175340289 0.614713 -0.512252
1176826168 0.618263 -0.510641
1178312047 0.615988 -0.516897
1179797926 0.614721 -0.518252
1181283805 0.617668 -0.515538
1182769684 0.617294 -0.517886
1184255563 0.6178 -0.517951
1185741442 0.618981 -0.516182
1187227321 0.618515 -0.515655
1188713200 0.614522 -0.517523
1190199079 0.618367 -0.515535
1191684958 0.610986 -0.518193
1193170837 0.610523 -0.513002
1194656716 0.605578 -0.513461
1196142595 0.604428 -0.510795
1197628474 0.602124 -0.509248
1199114353 0.60188 -0.506675
1200600232 0.599268 -0.504838
1202086111 0.598932 -0.510367
1203571990 0.602156 -0.5118
1205057869 0.603635 -0.511641
1206543748 0.601933 -0.51788
1208029627 0.600928 -0.518864
1209515506 0.603391 -0.520755
1211001385 0.605694 -0.523035
1212487264 0.602106 -0.523349
1213973143 0.604856 -0.521546
1215459022 0.605447 -0.521854
1216944901 0.603391 -0.523211
1218430780 0.602312 -0.5204
1219916659 0.602681 -0.518487
1221402538 0.602641 -0.516381
1222888417 0.597784 -0.518074
1224374296 0.594269 -0.51682
1225860175 0.595563 -0.512918
1227346054 0.590408 -0.513801
1228831933 0.587661 -0.512209
1230317812 0.584894 -0.510131
1231803691 0.585499 -0.51404
1233289570 0.585589 -0.519237
1234775449 0.588073 -0.517945
1236261328 0.588956 -0.518405
1237747207 0.592125 -0.519321
1239233086 0.58835 -0.522514
1240718965 0.587815 -0.524776
1242204844 0.590175 -0.520817
1243690723 0.588499 -0.522434
1245176602 0.589683 -0.52155
1246662481 0.588423 -0.522909
1248148360 0.58585 -0.521707
1249634239 0.589612 -0.51845
1251120118 0.582946 -0.522128
1252605997 0.583482 -0.515164
1254091876 0.579998 -0.516358
1255577755 0.577241 -0.513097
1257063634 0.574721 -0.511379
1258549513 0.568525 -0.511555
1260035392 0.563274 -0.508676
1261521271 0.568319 -0.512847
1263007150 0.571177 -0.512165
1264493029 0.570193 -0.515966
1265978908 0.569189 -0.518622
1267464787 0.574979 -0.516456
1268950666 0.571654 -0.52281
1270436545 0.576884 -0.520961
1271922424 0.576544 -0.522343
1273408303 0.574869 -0.524131
1274894182 0.577387 -0.523417
1276380061 0.574451 -0.525717
1277865940 0.572893 -0.524591
1279351819 0.571536 -0.527751
1280837698 0.572943 -0.52266
1282323577 0.571376 -0.522001
1283809456 0.573947 -0.517555
1285295335 0.570631 -0.516453
1286781214 0.565642 -0.519824
1288267093 0.565218 -0.514533
1289752972 0.562745 -0.511427
1291238851 0.561954 -0.514232
1292724730 0.562769 -0.51724
1294210609 0.565508 -0.518054
1295696488 0.563551 -0.52186
1297182367 0.565562 -0.521382
1298668246 0.566244 -0.521833
1300154125 0.567957 -0.519606
1301640004 0.567708 -0.520052
1303125883 0.565159 -0.523727
1304611762 0.563588 -0.524331
1306097641 0.564497 -0.521552
1307583520 0.563251 -0.519879
1309069399 0.564474 -0.518889
1310555278 0.561798 -0.519536
1312041157 0.558806 -0.518497
1313527036 0.557196 -0.517941
1315012915 0.558272 -0.515285
1316498794 0.552143 -0.513324
1317984673 0.55192 -0.508564
1319470552 0.547355 -0.510103
1320956431 0.546312 -0.509284
1322442310 0.548258 -0.514475
1323928189 0.546954 -0.517506
1325414068 0.551402 -0.51894
1326899947 0.552307 -0.519737
1328385826 0.554069 -0.520365
1329871705 0.553961 -0.523678
1331357584 0.554866 -0.522406
1332843463 0.555351 -0.519868
1334329342 0.556913 -0.524972
1335815221 0.558075 -0.523715
1337301100 0.552396 -0.525235
1338786979 0.555105 -0.525253
1340272858 0.549851 -0.525443
1341758737 0.552006 -0.524756
1343244616 0.550287 -0.525503
1344730495 0.549788 -0.520253
1346216374 0.549181 -0.518021
1347702253 0.549789 -0.519135
1349188132 0.542603 -0.517664
1350674011 0.543148 -0.516532
1352159890 0.54484 -0.518977
1353645769 0.544798 -0.523386
1355131648 0.546923 -0.524349
1356617527 0.548141 -0.526974
1358103406 0.550368 -0.528272
1359589285 0.552234 -0.525069
1361075164 0.551275 -0.530625
1362561043 0.550968 -0.529982
1364046922 0.548684 -0.532369
1365532801 0.550028 -0.531259
1367018680 0.550402 -0.530695
1368504559 0.550349 -0.52902
1369990438 0.539552 -0.519878
1371476317 0.548366 -0.532398
1372962196 0.547382 -0.529196
1374448075 0.543923 -0.529282
1375933954 0.544327 -0.525574
1377419833 0.539549 -0.526463
1378905712 0.535446 -0.528507
1380391591 0.53653 -0.524644
1381877470 0.538094 -0.527556
1383363349 0.538361 -0.53222
1384849228 0.539921 -0.528366
1386335107 0.539648 -0.5309
1387820986 0.541266 -0.533467
1389306865 0.542337 -0.531278
1390792744 0.5409 -0.53333
1392278623 0.541468 -0.534573
1393764502 0.546425 -0.53174
1395250381 0.536606 -0.53459
1396736260 0.537581 -0.533166
1398222139 0.537546 -0.530676
1399708018 0.535124 -0.53058
1401193897 0.532434 -0.52844
1402679776 0.531397 -0.528169
1404165655 0.531913 -0.526055
1405651534 0.52823 -0.5238
1407137413 0.525573 -0.522377
1408623292 0.524542 -0.520329
1410109171 0.520589 -0.519945
1411595050 0.521862 -0.523274
1413080929 0.52838 -0.524983
1414566808 0.527309 -0.527545
1416052687 0.528662 -0.527433
1417538566 0.528859 -0.528421
1419024445 0.531574 -0.530257
1420510324 0.53581 -0.52957
1421996203 0.538059 -0.527481
1423482082 0.527364 -0.529655
1424967961 0.532626 -0.527606
1426453840 0.535431 -0.525447
1427939719 0.539539 -0.522173
1429425598 0.533848 -0.527339
1430911477 0.537593 -0.520005
1432397356 0.535294 -0.522872
1433883235 0.534502 -0.520224
1435369114 0.530942 -0.519068
1436854993 0.522201 -0.518976
1438340872 0.529088 -0.512898
1439826751 0.526693 -0.507086
1441312630 0.525392 -0.50759
1442798509 0.530973 -0.512028
1444284388 0.530035 -0.515834
1445770267 0.527717 -0.519142
1447256146 0.529426 -0.520087
1448742025 0.531867 -0.520018
1450227904 0.532634 -0.520132
1451713783 0.530185 -0.523158
1453199662 0.528757 -0.524764
1454685541 0.527355 -0.526157
1456171420 0.528962 -0.522933
1457657299 0.526664 -0.525487
1459143178 0.523411 -0.52554
1460629057 0.522696 -0.524762
1462114936 0.519427 -0.524777
1463600815 0.5186 -0.523444
1465086694 0.517114 -0.519988
1466572573 0.514312 -0.518915
1468058452 0.514268 -0.517699
1469544331 0.510227 -0.517093
1471030210 0.507394 -0.521376
1472516089 0.509903 -0.521628
1474001968 0.509199 -0.524637
1475487847 0.512333 -0.524925
1476973726 0.515089 -0.526742
1478459605 0.514833 -0.528958
1479945484 0.516632 -0.529604
1481431363 0.516391 -0.528607
1482917242 0.519504 -0.529198
1484403121 0.51926 -0.528041
1485889000 0.518773 -0.528362
1487374879 0.520087 -0.526316
1488860758 0.514109 -0.528566
1490346637 0.515637 -0.526103
1491832516 0.515003 -0.523058
1493318395 0.513678 -0.524001
1494804274 0.509009 -0.523572
1496290153 0.505225 -0.523439
1497776032 0.503065 -0.519722
1499261911 0.504681 -0.514399
1500747790 0.497069 -0.519317
1502233669 0.507388 -0.517643
1503719548 0.505248 -0.521604
1505205427 0.50718 -0.522821
1506691306 0.508586 -0.524234
1508177185 0.505264 -0.528
1509663064 0.509109 -0.528101
1511148943 0.507645 -0.528679
1512634822 0.514763 -0.526479
1514120701 0.510314 -0.529344
1515606580 0.510477 -0.529347
1517092459 0.507365 -0.530416
1518578338 0.50803 -0.527486
1520064217 0.508521 -0.527077
1521550096 0.505377 -0.525505
1523035975 0.503338 -0.523425
1524521854 0.500641 -0.5228
1526007733 0.498924 -0.518078
1527493612 0.499273 -0.514255
1528979491 0.491954 -0.517114
1530465370 0.492836 -0.512765
1531951249 0.491511 -0.519972
1533437128 0.496952 -0.520095
1534923007 0.495621 -0.523104
1536408886 0.494437 -0.525401
1537894765 0.497641 -0.525803
1539380644 0.498641 -0.527252
1540866523 0.499561 -0.527706
1542352402 0.499023 -0.528134
1543838281 0.499477 -0.5281
1545324160 0.49861 -0.531894
1546810039 0.497675 -0.528342
1548295918 0.498561 -0.527868
1549781797 0.497192 -0.526659
1551267676 0.49603 -0.523363
1552753555 0.495585 -0.524346
1554239434 0.492571 -0.524178
1555725313 0.491734 -0.520644
1557211192 0.489025 -0.517785
1558697071 0.48551 -0.514094
1560182950 0.482883 -0.514244
1561668829 0.483668 -0.517253
1563154708 0.483615 -0.521444
1564640587 0.484871 -0.522677
1566126466 0.489078 -0.524148
1567612345 0.488812 -0.525845
1569098224 0.484302 -0.531312
1570584103 0.485307 -0.529368
1572069982 0.489821 -0.525736
1573555861 0.490095 -0.529738
1575041740 0.492809 -0.525738
1576527619 0.487922 -0.527495
1578013498 0.489452 -0.52796
1579499377 0.48801 -0.526789
1580985256 0.484019 -0.528762
1582471135 0.48088 -0.526452
1583957014 0.482492 -0.521573
1585442893 0.477999 -0.521573
1586928772 0.47441 -0.519865
1588414651 0.474964 -0.515248
1589900530 0.473289 -0.513144
1591386409 0.473895 -0.514628
1592872288 0.475947 -0.518294
1594358167 0.472718 -0.522557
1595844046 0.477077 -0.522624
1597329925 0.477576 -0.525403
1598815804 0.478622 -0.526613
1600301683 0.478944 -0.527704
1601787562 0.477356 -0.529499
1603273441 0.478259 -0.529457
1604759320 0.480605 -0.527991
1606245199 0.476611 -0.530485
1607731078 0.477605 -0.529649
1609216957 0.476897 -0.528919
1610702836 0.472274 -0.530045
1612188715 0.476629 -0.525062
1613674594 0.474476 -0.523091
1615160473 0.47191 -0.524489
1616646352 0.470486 -0.521971
1618132231 0.465446 -0.522611
1619618110 0.46552 -0.517556
1621103989 0.468107 -0.515878
1622589868 0.469366 -0.519253
1624075747 0.469518 -0.52093
1625561626 0.468771 -0.52399
1627047505 0.472428 -0.523586
1628533384 0.470481 -0.526861
1630019263 0.469758 -0.527152
1631505142 0.471529 -0.527799
1632991021 0.469766 -0.529924
1634476900 0.470337 -0.528431
1635962779 0.470351 -0.527887
1637448658 0.470531 -0.525787
1638934537 0.469915 -0.526671
1640420416 0.468984 -0.52457
1641906295 0.470224 -0.522579
1643392174 0.467712 -0.522223
1644878053 0.463357 -0.521611
1646363932 0.46087 -0.519585
1647849811 0.458508 -0.518167
1649335690 0.461014 -0.513954
1650821569 0.455472 -0.514485
1652307448 0.458542 -0.516351
1653793327 0.457539 -0.521823
1655279206 0.460238 -0.521543
1656765085 0.464237 -0.520078
1658250964 0.462443 -0.522462
1659736843 0.461671 -0.525101
1661222722 0.460138 -0.529215
1662708601 0.461887 -0.525595
1664194480 0.462127 -0.528245
1665680359 0.461601 -0.526245
1667166238 0.45971 -0.528618
1668652117 0.458968 -0.524598
1670137996 0.473053 -0.512194
1671623875 0.457665 -0.524144
1673109754 0.456156 -0.525014
1674595633 0.453383 -0.521563
1676081512 0.453527 -0.52156
1677567391 0.453868 -0.516005
1679053270 0.448428 -0.517216
1680539149 0.451993 -0.515752
1682025028 0.449952 -0.519276
1683510907 0.447874 -0.52322
1684996786 0.452757 -0.523499
1686482665 0.453915 -0.525137
1687968544 0.454062 -0.525328
1689454423 0.457367 -0.524076
1690940302 0.45463 -0.527343
1692426181 0.455729 -0.528826
1693912060 0.454786 -0.529419
1695397939 0.458198 -0.525936
1696883818 0.454045 -0.528194
1698369697 0.454273 -0.529678
1699855576 0.450205 -0.529596
1701341455 0.453152 -0.526826
1702827334 0.451781 -0.526707
1704313213 0.44991 -0.525806
1705799092 0.450288 -0.5187
1707284971 0.447783 -0.519748
1708770850 0.446382 -0.516516
1710256729 0.439955 -0.520485
1711742608 0.44634 -0.518916
1713228487 0.448639 -0.520736
1714714366 0.443106 -0.52449
1716200245 0.448062 -0.524452
1717686124 0.448174 -0.527408
1719172003 0.44523 -0.52748
1720657882 0.449959 -0.528198
1722143761 0.449675 -0.530039
1723629640 0.448871 -0.527187
1725115519 0.395818 -0.531988
1726601398 0.451216 -0.525371
1728087277 0.448933 -0.529118
1729573156 0.451151 -0.527021
1731059035 0.450779 -0.527549
1732544914 0.447429 -0.523013
1734030793 0.448786 -0.522801
1735516672 0.442096 -0.524099
1737002551 0.44273 -0.519661
1738488430 0.441425 -0.519106
1739974309 0.43561 -0.517292
1741460188 0.440094 -0.520353
1742946067 0.441378 -0.520738
1744431946 0.440544 -0.522138
1745917825 0.445658 -0.521834
1747403704 0.445082 -0.523015
1748889583 0.44263 -0.526598
1750375462 0.445689 -0.526118
1751861341 0.444903 -0.525279
1753347220 0.443143 -0.52476
1754833099 0.447769 -0.52389
1756318978 0.44124 -0.524748
1757804857 0.443059 -0.52329
1759290736 0.440901 -0.52314
1760776615 0.438537 -0.523715
1762262494 0.4413 -0.51948
1763748373 0.438398 -0.51999
1765234252 0.43638 -0.513879
1766720131 0.433532 -0.513638
1768206010 0.433684 -0.513652
1769691889 0.430212 -0.511983
1771177768 0.433275 -0.50866
1772663647 0.435353 -0.514509
1774149526 0.434657 -0.513748
1775635405 0.431401 -0.51941
1777121284 0.434883 -0.519494
1778607163 0.434069 -0.519773
1780093042 0.439706 -0.51786
1781578921 0.440918 -0.51992
1783064800 0.438524 -0.522141
1784550679 0.434266 -0.520924
1786036558 0.437686 -0.52086
1787522437 0.433409 -0.52034
1789008316 0.437698 -0.519851
1790494195 0.432367 -0.520303
1791980074 0.435484 -0.519472
1793465953 0.434086 -0.517171
1794951832 0.435932 -0.513453
1796437711 0.431828 -0.512637
1797923590 0.426093 -0.510149
1799409469 0.424694 -0.506442
1800895348 0.427168 -0.508553
1802381227 0.42623 -0.511379
1803867106 0.430416 -0.515289
1805352985 0.429391 -0.515812
1806838864 0.431236 -0.517392
1808324743 0.433609 -0.518461
1809810622 0.435661 -0.516427
1811296501 0.429101 -0.521047
1812782380 0.43278 -0.519385
1814268259 0.43264 -0.521161
1815754138 0.433525 -0.51961
1817240017 0.432719 -0.522244
1818725896 0.427043 -0.520003
1820211775 0.435113 -0.518568
1821697654 0.426995 -0.518416
1823183533 0.430564 -0.512661
1824669412 0.426124 -0.51286
1826155291 0.423543 -0.512636
1827641170 0.427326 -0.508179
1829127049 0.419854 -0.508414
1830612928 0.421422 -0.506566
1832098807 0.417973 -0.512987
1833584686 0.417935 -0.51593
1835070565 0.419266 -0.517804
1836556444 0.423354 -0.516203
1838042323 0.421592 -0.51879
1839528202 0.428566 -0.520339
1841014081 0.426151 -0.521182
1842499960 0.424801 -0.521595
1843985839 0.423974 -0.525468
1845471718 0.423798 -0.522973
1846957597 0.425089 -0.52249
1848443476 0.42032 -0.523163
1849929355 0.422199 -0.526827
1851415234 0.420973 -0.519529
1852901113 0.419549 -0.520567
1854386992 0.419129 -0.51917
1855872871 0.41995 -0.517403
1857358750 0.411703 -0.514972
1858844629 0.413785 -0.511288
1860330508 0.41384 -0.513291
1861816387 0.410471 -0.514099
1863302266 0.415501 -0.515893
1864788145 0.414392 -0.518438
1866274024 0.415046 -0.519371
1867759903 0.417247 -0.521968
1869245782 0.419247 -0.520426
1870731661 0.418701 -0.521205
1872217540 0.417445 -0.522744
1873703419 0.420533 -0.523406
1875189298 0.415848 -0.523329
1876675177 0.417658 -0.520234
1878161056 0.417791 -0.521921
1879646935 0.417479 -0.519919
1881132814 0.414246 -0.518774
1882618693 0.417764 -0.512243
1884104572 0.411416 -0.514956
1885590451 0.406045 -0.515702
1887076330 0.410799 -0.510886
1888562209 0.412824 -0.50722
1890048088 0.404041 -0.505889
1891533967 0.403862 -0.511223
1893019846 0.406576 -0.511517
1894505725 0.409053 -0.511632
1895991604 0.406171 -0.512885
1897477483 0.411795 -0.516185
1898963362 0.410801 -0.514894
1900449241 0.408487 -0.516293
1901935120 0.410806 -0.5206
1903420999 0.414067 -0.51571
1904906878 0.409222 -0.521084
1906392757 0.414406 -0.516593
1907878636 0.411053 -0.518028
1909364515 0.409273 -0.518161
1910850394 0.408065 -0.515278
1912336273 0.405692 -0.514921
1913822152 0.411028 -0.511215
1915308031 0.405873 -0.509153
1916793910 0.405995 -0.509961
1918279789 0.403573 -0.505675
1919765668 0.400562 -0.5073
1921251547 0.402569 -0.508011
1922737426 0.398104 -0.510975
1924223305 0.404481 -0.507244
1925709184 0.399664 -0.512115
1927195063 0.402201 -0.510451
1928680942 0.402921 -0.515487
1930166821 0.403835 -0.516342
1931652700 0.408004 -0.512118
1933138579 0.406738 -0.513732
1934624458 0.405581 -0.515744
1936110337 0.40571 -0.513313
1937596216 0.401886 -0.515693
1939082095 0.4049 -0.515114
1940567974 0.40295 -0.510464
1942053853 0.401197 -0.510062
1943539732 0.401672 -0.50997
1945025611 0.400314 -0.507426
1946511490 0.394724 -0.507624
1947997369 0.396645 -0.50258
1949483248 0.394647 -0.50093
1950969127 0.393882 -0.501422
1952455006 0.3934 -0.503332
1953940885 0.39256 -0.507983
1955426764 0.397873 -0.506385
1956912643 0.394352 -0.510007
1958398522 0.394422 -0.514425
1959884401 0.396488 -0.511416
1961370280 0.40126 -0.51182
1962856159 0.39744 -0.512801
1964342038 0.394836 -0.513922
1965827917 0.394978 -0.513436
1967313796 0.390852 -0.512587
1968799675 0.40984 -0.539593
1970285554 0.402007 -0.506656
1971771433 0.391937 -0.509935
1973257312 0.394053 -0.509275
1974743191 0.389376 -0.513655
1976229070 0.39343 -0.503039
1977714949 0.389393 -0.506012
1979200828 0.389107 -0.503161
1980686707 0.382212 -0.506325
1982172586 0.386338 -0.505861
1983658465 0.385262 -0.507887
1985144344 0.384838 -0.512491
1986630223 0.377859 -0.520274
1988116102 0.377617 -0.518871
1989601981 0.379407 -0.525227
1991087860 0.391615 -0.517041
1992573739 0.392689 -0.51594
1994059618 0.391519 -0.514667
1995545497 0.38088 -0.523397
1997031376 0.382178 -0.520786
1998517255 0.391014 -0.512406
2000003134 0.388097 -0.51777
2001489013 0.388421 -0.517002
2002974892 0.391127 -0.511395
2004460771 0.38617 -0.5137
2005946650 0.383192 -0.515677
2007432529 0.387986 -0.504609
2008918408 0.381296 -0.508661
2010404287 0.378635 -0.50687
2011890166 0.383758 -0.5057
2013376045 0.386482 -0.509715
2014861924 0.384774 -0.510919
2016347803 0.383877 -0.517158
2017833682 0.387553 -0.513826
2019319561 0.391898 -0.50985
2020805440 0.390027 -0.514246
2022291319 0.384989 -0.518705
2023777198 0.386628 -0.5175
2025263077 0.388819 -0.516907
2026748956 0.385765 -0.519816
2028234835 0.391734 -0.514992
2029720714 0.3907 -0.512616
2031206593 0.387588 -0.509485
2032692472 0.385047 -0.514223
2034178351 0.387203 -0.506638
2035664230 0.385995 -0.508003
2037150109 0.382774 -0.507229
2038635988 0.381625 -0.506603
2040121867 0.380205 -0.502898
2041607746 0.383257 -0.506234
2043093625 0.381599 -0.50646
2044579504 0.384261 -0.50828
2046065383 0.387864 -0.505555
2047551262 0.384358 -0.510088
2049037141 0.383904 -0.511902
2050523020 0.387241 -0.505783
2052008899 0.381591 -0.515673
2053494778 0.386274 -0.510769
2054980657 0.388899 -0.506299
2056466536 0.383348 -0.508977
2057952415 0.384581 -0.505842
2059438294 0.384391 -0.508002
2060924173 0.382176 -0.50489
2062410052 0.380088 -0.506416
2063895931 0.379205 -0.501816
2065381810 0.376506 -0.505105
2066867689 0.379253 -0.498618
2068353568 0.373364 -0.49653
2069839447 0.373509 -0.495342
2071325326 0.372682 -0.497516
2072811205 0.373502 -0.501926
2074297084 0.371923 -0.502652
2075782963 0.37638 -0.503397
2077268842 0.376243 -0.506586
2078754721 0.376775 -0.505124
2080240600 0.376712 -0.50807
2081726479 0.376378 -0.510994
2083212358 0.378053 -0.50911
2084698237 0.377299 -0.509967
2086184116 0.375052 -0.510697
2087669995 0.375811 -0.507377
2089155874 0.374874 -0.513495
2090641753 0.374929 -0.509124
2092127632 0.373497 -0.509151
2093613511 0.372786 -0.508305
2095099390 0.372017 -0.505025
2096585269 0.370069 -0.506384
2098071148 0.367443 -0.501637
2099557027 0.364046 -0.502239
2101042906 0.364618 -0.503627
2102528785 0.369 -0.50527
2104014664 0.368697 -0.507674
2105500543 0.375318 -0.504471
2106986422 0.369995 -0.5105
2108472301 0.371402 -0.511015
2109958180 0.371738 -0.512061
2111444059 0.375231 -0.511464
2112929938 0.374507 -0.510574
2114415817 0.378265 -0.51096
2115901696 0.376847 -0.508373
2117387575 0.374362 -0.507805
2118873454 0.372982 -0.508728
2120359333 0.383439 -0.495955
2121845212 0.369601 -0.505822
2123331091 0.374824 -0.502096
2124816970 0.367967 -0.504317
2126302849 0.369323 -0.499262
2127788728 0.366683 -0.500001
2129274607 0.365518 -0.496943
2130760486 0.36354 -0.49695
2132246365 0.363335 -0.498673
2133732244 0.36699 -0.499757
2135218123 0.368378 -0.502005
2136704002 0.368837 -0.501999
2138189881 0.366606 -0.503215
2139675760 0.367864 -0.505819
2141161639 0.366291 -0.505517
2142647518 0.369535 -0.506025
2144133397 0.367045 -0.507248
2145619276 0.367414 -0.507355
2147105155 0.361903 -0.509364
2148591034 0.36577 -0.505449
2150076913 0.365091 -0.505069
2151562792 0.363658 -0.503997
2153048671 0.363814 -0.502827
2154534550 0.360987 -0.500126
2156020429 0.358 -0.500685
2157506308 0.360633 -0.496887
2158992187 0.358122 -0.496493
2160478066 0.356053 -0.495161
2161963945 0.35644 -0.497437
2163449824 0.359871 -0.502416
2164935703 0.356812 -0.50488
2166421582 0.354952 -0.509335
2167907461 0.363887 -0.504561
2169393340 0.359083 -0.505268
2170879219 0.364124 -0.50775
2172365098 0.364161 -0.504761
2173850977 0.361219 -0.507402
2175336856 0.360998 -0.507435
2176822735 0.36029 -0.508061
2178308614 0.362635 -0.505631
2179794493 0.363524 -0.507616
2181280372 0.361936 -0.504884
2182766251 0.361787 -0.503192
2184252130 0.366736 -0.501103
2185738009 0.356046 -0.50154
2187223888 0.355377 -0.499475
2188709767 0.358096 -0.495061
2190195646 0.35807 -0.496803
2191681525 0.351467 -0.49675
2193167404 0.356137 -0.498
2194653283 0.3621 -0.498895
2196139162 0.359154 -0.503805
2197625041 0.359389 -0.502993
2199110920 0.360137 -0.499372
2200596799 0.357665 -0.500454
2202082678 0.356525 -0.505612
2203568557 0.361253 -0.503312
2205054436 0.358588 -0.50117
2206540315 0.354758 -0.500143
2208026194 0.361099 -0.474127
2209512073 0.358738 -0.500746
2210997952 0.358511 -0.498406
2212483831 0.354688 -0.497419
2213969710 0.350689 -0.501833
2215455589 0.356463 -0.49433
2216941468 0.349774 -0.493321
2218427347 0.351272 -0.489231
2219913226 0.35061 -0.485416
2221399105 0.351441 -0.490605
2222884984 0.34775 -0.493925
2224370863 0.351316 -0.492298
2225856742 0.353863 -0.497922
2227342621 0.349131 -0.499882
2228828500 0.35523 -0.49852
2230314379 0.347544 -0.499763
2231800258 0.35004 -0.502885
2233286137 0.353358 -0.503294
2234772016 0.354295 -0.498703
2236257895 0.354473 -0.503253
2237743774 0.353147 -0.501393
2239229653 0.354888 -0.501337
2240715532 0.353992 -0.499999
2242201411 0.349269 -0.499788
2243687290 0.350858 -0.496903
2245173169 0.351074 -0.493944
2246659048 0.352838 -0.493413
2248144927 0.348721 -0.492776
2249630806 0.346132 -0.487672
2251116685 0.346763 -0.492954
2252602564 0.346237 -0.49254
2254088443 0.347485 -0.49568
2255574322 0.349356 -0.496108
2257060201 0.352406 -0.497057
2258546080 0.348003 -0.497247
2260031959 0.353932 -0.496329
2261517838 0.345929 -0.503329
2263003717 0.34961 -0.502323
2264489596 0.353161 -0.499122
2265975475 0.346614 -0.500071
2267461354 0.352038 -0.498439
2268947233 0.315791 -0.522266
2270433112 0.35663 -0.499612
2271918991 0.339582 -0.498258
2273404870 0.334169 -0.495665
2274890749 0.344282 -0.492747
2276376628 0.352675 -0.488097
2277862507 0.332611 -0.488026
2279348386 0.335737 -0.484009
2280834265 0.342451 -0.489622
2282320144 0.346543 -0.485185
2283806023 0.340671 -0.492996
2285291902 0.328777 -0.494374
2286777781 0.334271 -0.493587
2288263660 0.348557 -0.492785
2289749539 0.34656 -0.496727
2291235418 0.345438 -0.500293
2292721297 0.345035 -0.492019
2294207176 0.319795 -0.492219
2295693055 0.342531 -0.498664
2297178934 0.346723 -0.495348
2298664813 0.345401 -0.496773
2300150692 0.348988 -0.497725
2301636571 0.347972 -0.493743
2303122450 0.347704 -0.490023
2304608329 0.346692 -0.489823
2306094208 0.343516 -0.489255
2307580087 0.346662 -0.487989
2309065966 0.34669 -0.487635
2310551845 0.3421 -0.485464
2312037724 0.340358 -0.48883
2313523603 0.343482 -0.488322
2315009482 0.34003 -0.492065
2316495361 0.346485 -0.487182
2317981240 0.353996 -0.485369
2319467119 0.342511 -0.490933
2320952998 0.346965 -0.489752
2322438877 0.419971 -0.535
2323924756 0.342827 -0.489786
2325410635 0.339778 -0.492593
2326896514 0.337126 -0.491296
2328382393 0.340805 -0.486473
2329868272 0.342249 -0.486248
2331354151 0.341381 -0.488241
2332840030 0.336282 -0.485327
2334325909 0.338807 -0.487221
2335811788 0.337085 -0.48081
2337297667 0.328866 -0.485087
2338783546 0.330934 -0.484336
2340269425 0.333597 -0.480057
2341755304 0.326834 -0.480194
2343241183 0.332861 -0.484194
2344727062 0.333388 -0.483383
2346212941 0.333735 -0.485646
2347698820 0.336511 -0.48416
2349184699 0.33938 -0.487653
2350670578 0.342729 -0.490592
2352156457 0.330195 -0.4957
2353642336 0.331447 -0.491379
2355128215 0.332373 -0.490502
2356614094 0.335744 -0.490887
2358099973 0.331434 -0.491441
2359585852 0.329608 -0.489759
2361071731 0.335702 -0.484326
2362557610 0.333629 -0.484605
2364043489 0.330987 -0.48808
2365529368 0.328422 -0.483009
2367015247 0.329558 -0.486707
2368501126 0.333313 -0.483132
2369987005 0.331552 -0.479475
2371472884 0.33219 -0.482378
2372958763 0.325935 -0.485523
2374444642 0.326519 -0.48113
2375930521 0.333183 -0.486431
2377416400 0.342057 -0.483427
2378902279 0.3314 -0.487706
2380388158 0.339006 -0.485478
2381874037 0.332474 -0.491153
2383359916 0.330417 -0.491807
2384845795 0.328782 -0.495459
2386331674 0.337979 -0.489915
2387817553 0.330738 -0.492013
2389303432 0.334322 -0.48888
2390789311 0.329641 -0.487274
2392275190 0.329809 -0.487558
2393761069 0.331627 -0.484619
2395246948 0.325429 -0.482609
2396732827 0.323484 -0.482705
2398218706 0.322166 -0.482727
2399704585 0.318687 -0.477696
2401190464 0.322596 -0.480345
2402676343 0.321618 -0.487529
2404162222 0.323168 -0.486731
2405648101 0.320601 -0.485511
2407133980 0.331413 -0.489145
2408619859 0.330637 -0.487179
2410105738 0.324023 -0.487078
2411591617 0.327084 -0.491825
2413077496 0.323933 -0.488958
2414563375 0.331832 -0.495355
2416049254 0.327285 -0.488723
2417535133 0.303991 -0.50667
2419021012 0.328946 -0.487688
2420506891 0.327147 -0.488529
2421992770 0.326923 -0.48834
2423478649 0.31971 -0.495723
2424964528 0.328317 -0.490234
2426450407 0.323015 -0.487153
2427936286 0.316315 -0.488654
2429422165 0.317315 -0.487987
2430908044 0.315323 -0.489655
2432393923 0.314489 -0.489505
2433879802 0.317531 -0.489068
2435365681 0.321793 -0.491658
2436851560 0.321231 -0.492536
2438337439 0.323604 -0.493086
2439823318 0.323377 -0.489257
2441309197 0.327264 -0.48967
2442795076 0.322668 -0.491138
2444280955 0.324455 -0.489865
2445766834 0.328174 -0.48992
2447252713 0.322665 -0.485205
2448738592 0.327845 -0.490593
2450224471 0.32603 -0.479145
2451710350 0.321961 -0.489987
2453196229 0.325047 -0.479205
2454682108 0.322905 -0.4853
2456167987 0.318696 -0.483891
2457653866 0.316166 -0.481745
2459139745 0.313503 -0.470698
2460625624 0.319085 -0.47816
2462111503 0.317974 -0.474644
2463597382 0.32339 -0.481154
2465083261 0.318287 -0.48377
2466569140 0.31856 -0.486433
2468055019 0.325672 -0.478939
2469540898 0.322617 -0.485448
2471026777 0.326262 -0.493075
2472512656 0.323097 -0.486342
2473998535 0.328715 -0.487505
2475484414 0.329952 -0.48937
2476970293 0.329997 -0.491702
2478456172 0.326644 -0.489641
2479942051 0.32922 -0.489125
2481427930 0.327415 -0.487347
2482913809 0.326703 -0.485155
2484399688 0.328764 -0.486603
2485885567 0.328109 -0.483969
2487371446 0.330764 -0.482666
2488857325 0.329089 -0.480021
2490343204 0.324955 -0.476997
2491829083 0.327613 -0.476068
2493314962 0.328957 -0.483265
2494800841 0.327456 -0.486235
2496286720 0.329169 -0.48363
2497772599 0.331633 -0.484774
2499258478 0.329733 -0.483858
2500744357 0.328326 -0.483706
2502230236 0.328712 -0.488019
2503716115 0.330183 -0.489098
2505201994 0.328862 -0.486814
2506687873 0.331476 -0.486272
2508173752 0.328264 -0.486166
2509659631 0.328185 -0.481656
2511145510 0.323171 -0.482452
2512631389 0.33282 -0.479922
2514117268 0.324999 -0.479688
2515603147 0.322206 -0.477711
2517089026 0.321369 -0.476532
2518574905 0.321107 -0.470678
2520060784 0.316256 -0.472314
2521546663 0.319795 -0.469711
2523032542 0.318615 -0.473409
2524518421 0.320598 -0.477453
2526004300 0.320775 -0.479594
2527490179 0.318567 -0.48021
2528976058 0.318487 -0.482748
2530461937 0.313371 -0.482685
2531947816 0.317213 -0.485444
2533433695 0.31985 -0.487683
2534919574 0.317588 -0.486813
2536405453 0.321347 -0.484958
2537891332 0.318865 -0.486073
2539377211 0.315387 -0.48619
2540863090 0.314739 -0.485777
2542348969 0.313068 -0.48482
2543834848 0.312367 -0.480967
2545320727 0.311373 -0.481756
2546806606 0.309227 -0.481092
2548292485 0.303256 -0.480677
2549778364 0.305098 -0.478229
2551264243 0.308546 -0.481457
2552750122 0.308041 -0.482574
2554236001 0.310308 -0.484944
2555721880 0.313733 -0.483647
2557207759 0.312153 -0.487538
2558693638 0.309206 -0.486864
2560179517 0.313009 -0.483369
2561665396 0.311544 -0.491481
2563151275 0.313771 -0.487815
2564637154 0.308536 -0.488391
2566123033 0.312566 -0.487551
2567608912 0.309526 -0.48848
2569094791 0.306766 -0.493609
2570580670 0.297944 -0.493158
2572066549 0.297499 -0.495466
2573552428 0.301359 -0.49594
2575038307 0.300387 -0.489397
2576524186 0.300011 -0.491214
2578010065 0.302588 -0.484851
2579495944 0.294165 -0.484952
2580981823 0.293494 -0.484975
2582467702 0.307762 -0.476794
2583953581 0.297586 -0.484722
2585439460 0.310467 -0.477634
2586925339 0.300071 -0.493414
2588411218 0.300147 -0.491432
2589897097 0.303556 -0.490249
2591382976 0.297877 -0.490362
2592868855 0.309202 -0.47772
2594354734 0.297116 -0.48496
2595840613 0.311191 -0.478708
2597326492 0.311803 -0.47605
2598812371 0.305881 -0.473366
2600298250 0.305664 -0.474323
2601784129 0.306602 -0.476226
2603270008 0.304939 -0.476034
2604755887 0.310443 -0.470673
2606241766 0.303047 -0.470928
2607727645 0.305951 -0.470707
2609213524 0.305402 -0.465952
2610699403 0.300683 -0.465445
2612185282 0.304883 -0.463664
2613671161 0.299961 -0.466386
2615157040 0.303485 -0.471636
2616642919 0.303044 -0.472462
2618128798 0.305823 -0.471063
2619614677 0.303342 -0.470915
2621100556 0.309063 -0.47279
2622586435 0.301441 -0.506402
2624072314 0.303016 -0.471297
2625558193 0.305284 -0.471525
2627044072 0.301575 -0.467279
2628529951 0.304783 -0.466652
2630015830 0.30275 -0.467699
2631501709 0.302796 -0.47072
2632987588 0.299689 -0.469372
2634473467 0.296793 -0.464003
2635959346 0.301997 -0.463785
2637445225 0.28914 -0.458177
2638931104 0.295328 -0.461638
2640416983 0.295071 -0.466426
2641902862 0.289241 -0.464569
2643388741 0.290264 -0.46576
2644874620 0.301994 -0.474667
2646360499 0.294061 -0.468258
2647846378 0.296797 -0.471652
2649332257 0.296347 -0.478126
2650818136 0.300192 -0.472857
2652304015 0.298443 -0.475061
2653789894 0.298722 -0.475051
2655275773 0.29242 -0.470744
2656761652 0.30147 -0.475382
2658247531 0.297207 -0.476126
2659733410 0.296229 -0.475266
2661219289 0.302775 -0.472282
2662705168 0.298854 -0.478539
2664191047 0.30369 -0.480454
2665676926 0.299259 -0.473759
2667162805 0.290689 -0.475192
2668648684 0.296449 -0.469808
2670134563 0.298461 -0.471822
2671620442 0.295463 -0.475112
2673106321 0.299037 -0.47801
2674592200 0.298869 -0.475006
2676078079 0.292023 -0.477265
2677563958 0.301528 -0.476402
2679049837 0.304936 -0.478919
2680535716 0.295887 -0.475796
2682021595 0.29704 -0.482133
2683507474 0.300446 -0.475672
2684993353 0.300737 -0.476113
2686479232 0.299761 -0.476539
2687965111 0.308872 -0.477143
2689450990 0.30357 -0.470503
2690936869 0.303801 -0.469698
2692422748 0.293696 -0.474196
2693908627 0.290892 -0.469322
2695394506 0.291542 -0.474168
2696880385 0.295285 -0.468075
2698366264 0.286676 -0.467951
2699852143 0.292818 -0.467202
2701338022 0.287919 -0.466345
2702823901 0.284842 -0.472056
2704309780 0.286488 -0.477153
2705795659 0.299864 -0.475203
2707281538 0.298518 -0.479794
2708767417 0.305971 -0.476346
2710253296 0.300028 -0.477354
2711739175 0.309847 -0.478614
2713225054 0.301328 -0.479261
2714710933 0.303879 -0.474831
2716196812 0.305571 -0.478874
2717682691 0.306908 -0.47812
2719168570 0.35487 -0.484459
2720654449 0.309196 -0.470614
2722140328 0.315872 -0.46864
2723626207 0.310119 -0.464949
2725112086 0.298032 -0.469142
2726597965 0.312135 -0.466374
2728083844 0.30832 -0.469383
2729569723 0.300804 -0.460191
2731055602 0.29663 -0.465703
2732541481 0.303315 -0.466598
2734027360 0.298385 -0.467159
2735513239 0.30326 -0.466104
2736999118 0.301495 -0.471485
2738484997 0.298582 -0.46861
2739970876 0.29558 -0.474566
2741456755 0.304104 -0.469748
2742942634 0.314035 -0.465437
2744428513 0.300525 -0.472256
2745914392 0.307632 -0.477483
2747400271 0.291415 -0.479454
2748886150 0.300333 -0.473308
2750372029 0.299442 -0.476493
2751857908 0.300606 -0.475199
2753343787 0.299933 -0.474678
2754829666 0.297627 -0.476193
2756315545 0.294709 -0.473135
2757801424 0.299898 -0.469462
2759287303 0.293658 -0.465897
2760773182 0.288237 -0.4773
2762259061 0.298235 -0.475814
2763744940 0.300073 -0.473584
2765230819 0.296404 -0.474957
2766716698 0.293625 -0.48571
2768202577 0.295461 -0.482943
2769688456 0.295932 -0.479355
2771174335 0.301812 -0.469516
2772660214 0.301069 -0.474432
2774146093 0.292173 -0.47669
2775631972 0.294755 -0.484956
2777117851 0.303668 -0.477779
2778603730 0.289843 -0.478457
2780089609 0.299303 -0.472146
2781575488 0.297454 -0.470349
2783061367 0.290119 -0.472193
2784547246 0.295452 -0.477989
2786033125 0.289996 -0.470316
2787519004 0.297557 -0.465873
2789004883 0.296758 -0.463374
2790490762 0.285583 -0.467868
2791976641 0.291749 -0.461302
2793462520 0.286233 -0.46882
2794948399 0.294735 -0.468072
2796434278 0.290217 -0.471717
2797920157 0.289116 -0.472907
2799406036 0.298486 -0.46559
2800891915 0.296652 -0.474583
2802377794 0.297704 -0.476247
2803863673 0.295642 -0.47121
2805349552 0.289856 -0.478252
2806835431 0.292751 -0.472953
2808321310 0.302597 -0.468526
2809807189 0.295626 -0.466415
2811293068 0.292165 -0.47295
2812778947 0.29755 -0.463743
2814264826 0.291787 -0.478774
2815750705 0.298078 -0.465832
2817236584 0.28977 -0.468408
2818722463 0.287731 -0.460779
2820208342 0.292851 -0.458102
2821694221 0.283682 -0.466538
2823180100 0.29038 -0.471357
2824665979 0.290411 -0.47423
2826151858 0.297316 -0.469776
2827637737 0.29342 -0.469521
2829123616 0.294396 -0.478298
2830609495 0.287036 -0.4752
2832095374 0.297645 -0.477262
2833581253 0.292248 -0.475538
2835067132 0.296726 -0.473176
2836553011 0.300444 -0.473111
2838038890 0.298067 -0.465478
2839524769 0.292451 -0.476595
2841010648 0.294394 -0.465083
2842496527 0.288946 -0.460889
2843982406 0.293484 -0.452907
2845468285 0.296215 -0.466426
2846954164 0.286344 -0.458535
2848440043 0.285451 -0.458794
2849925922 0.280429 -0.453546
2851411801 0.28383 -0.457053
2852897680 0.289264 -0.463869
2854383559 0.288467 -0.461536
2855869438 0.2868 -0.462569
2857355317 0.286801 -0.465166
2858841196 0.288839 -0.465224
2860327075 0.284397 -0.463312
2861812954 0.282011 -0.47248
2863298833 0.28601 -0.463226
2864784712 0.283182 -0.46493
2866270591 0.28411 -0.462897
2867756470 0.278389 -0.473211
2869242349 0.284567 -0.468751
2870728228 0.281196 -0.46038
2872214107 0.285346 -0.469026
2873699986 0.266781 -0.459136
2875185865 0.287432 -0.454494
2876671744 0.285175 -0.45016
2878157623 0.283012 -0.455491
2879643502 0.280256 -0.452192
2881129381 0.281108 -0.456909
2882615260 0.282124 -0.455774
2884101139 0.286704 -0.455604
2885587018 0.280652 -0.46343
2887072897 0.285177 -0.456869
2888558776 0.284115 -0.461822
2890044655 0.283217 -0.460184
2891530534 0.283451 -0.461842
2893016413 0.283491 -0.460273
2894502292 0.282695 -0.463276
2895988171 0.271056 -0.470897
2897474050 0.283409 -0.461741
2898959929 0.270297 -0.468319
2900445808 0.281286 -0.459519
2901931687 0.272568 -0.471072
2903417566 0.28741 -0.45692
2904903445 0.271701 -0.464444
2906389324 0.281081 -0.456765
2907875203 0.262628 -0.46236
2909361082 0.278236 -0.45264
2910846961 0.264249 -0.463262
2912332840 0.27578 -0.454066
2913818719 0.264962 -0.467593
2915304598 0.282466 -0.459051
2916790477 0.265236 -0.458428
2918276356 0.275574 -0.462037
2919762235 0.277407 -0.462776
2921248114 0.278838 -0.462899
2922733993 0.280023 -0.468223
2924219872 0.283856 -0.464756
2925705751 0.281241 -0.463967
2927191630 0.281079 -0.466327
2928677509 0.283082 -0.4626
2930163388 0.280862 -0.464614
2931649267 0.281344 -0.462613
2933135146 0.282265 -0.461204
2934621025 0.281084 -0.463232
2936106904 0.282579 -0.456303
2937592783 0.282136 -0.456002
2939078662 0.278036 -0.454211
2940564541 0.280165 -0.453431
2942050420 0.278856 -0.45628
2943536299 0.282858 -0.4534
2945022178 0.283988 -0.455849
2946508057 0.281606 -0.459775
2947993936 0.281705 -0.460133
2949479815 0.282018 -0.460982
2950965694 0.280673 -0.462572
2952451573 0.28351 -0.463289
2953937452 0.28303 -0.463322
2955423331 0.284229 -0.461569
2956909210 0.283477 -0.460592
2958395089 0.283318 -0.460943
2959880968 0.285006 -0.457607
2961366847 0.278374 -0.461942
2962852726 0.282519 -0.456653
2964338605 0.280117 -0.456576
2965824484 0.281106 -0.454926
2967310363 0.280037 -0.454257
2968796242 0.274721 -0.452983
2970282121 0.280021 -0.447598
2971768000 0.278449 -0.448842
2973253879 0.272916 -0.456093
2974739758 0.274715 -0.451917
2976225637 0.276931 -0.454123
2977711516 0.27994 -0.462417
2979197395 0.276697 -0.455119
2980683274 0.276218 -0.462012
2982169153 0.280234 -0.456255
2983655032 0.274587 -0.46422
2985140911 0.276962 -0.455742
2986626790 0.280281 -0.464353
2988112669 0.281253 -0.45944
2989598548 0.282569 -0.460898
2991084427 0.275542 -0.463631
2992570306 0.274458 -0.462364
2994056185 0.280596 -0.458187
2995542064 0.278072 -0.46059
2997027943 0.27632 -0.452432
2998513822 0.273604 -0.454477
2999999701 0.268907 -0.455563
