# HZ S RI R 50
10000 0.89438 -0.180182
1495879 0.728619 1.86458
2981758 1.347031 0.963892
4467637 1.285157 0.629297
5953516 1.324004 0.54107
7439395 1.342064 0.571761
8925274 6.51585 11.298828
10411153 1.045474 7.998373
11897032 -0.311661 5.710724
13382911 -0.755446 4.399127
14868790 -0.935733 3.583034
16354669 -1.012534 3.026753
17840548 -1.054309 2.639402
19326427 -1.073523 2.340265
20812306 -1.087349 2.113593
22298185 -1.098302 1.93522
23784064 -1.107421 1.786839
25269943 -1.113394 1.663838
26755822 -1.121653 1.56559
28241701 -1.129538 1.484116
29727580 -1.141281 1.415789
31213459 -0.947031 1.238335
32699338 -0.743302 1.051255
34185217 -0.567806 0.872025
35671096 -0.426101 0.699528
37156975 -0.30622 0.530157
38642854 -0.196911 0.364901
40128733 -0.097748 0.196417
41614612 0.004967 0.023232
43100491 0.117592 -0.159782
44586370 0.260185 -0.351715
46072249 0.461459 -0.533396
47558128 0.742025 -0.668559
49044007 1.080954 -0.669602
50529886 1.364657 -0.492898
52015765 1.54732 -0.298715
53501644 1.366746 -0.053919
54987523 1.257283 0.022677
56473402 1.148099 0.006903
57959281 1.074892 -0.000577
59445160 1.017719 -0.007232
60931039 1.001108 -0.011748
62416918 1.00435 -0.019636
63902797 1.007095 -0.027924
65388676 1.009872 -0.03695
66874555 1.01247 -0.031887
68360434 1.009604 -0.115325
69846313 1.016044 -0.007012
71332192 1.017602 -0.000651
72818071 1.018209 -0.045678
74303950 1.018534 -0.034418
75789829 1.017481 0.033144
77275708 1.017613 0.02448
78761587 1.017246 0.031139
80247466 1.014294 -0.084357
81733345 1.014239 -0.034859
83219224 1.012791 -0.044103
84705103 1.007996 -0.070633
86190982 1.005519 0.055149
87676861 1.002517 -0.061717
89162740 0.999099 -0.034835
90648619 0.996268 -0.053706
92134498 1.001477 -0.049391
93620377 1.004497 -0.017447
95106256 1.007036 -0.044244
96592135 1.008759 -0.041791
98078014 1.010376 -0.036911
99563893 1.013061 -0.033589
101049772 1.015318 -0.045026
102535651 1.013825 -0.045314
104021530 1.016447 -0.045992
105507409 1.015875 -0.046686
106993288 1.015795 -0.046272
108479167 1.013807 -0.046631
109965046 1.013986 -0.048765
111450925 1.011356 -0.045081
112936804 1.010909 -0.046985
114422683 1.006574 -0.047269
115908562 1.004003 -0.046348
117394441 0.999756 -0.047412
118880320 0.998232 -0.048095
120366199 0.995211 -0.046269
121852078 0.999953 -0.048104
123337957 1.003867 -0.049998
124823836 1.006576 -0.049667
126309715 1.010334 -0.051305
127795594 1.013748 -0.051502
129281473 1.015234 -0.051249
130767352 1.018455 -0.052072
132253231 1.018643 -0.051558
133739110 1.022253 -0.049696
135224989 1.006836 -0.062034
136710868 1.007086 -0.063055
138196747 1.005901 -0.062232
139682626 1.006118 -0.061307
141168505 1.005994 -0.062845
142654384 1.003783 -0.0619
144140263 1.001668 -0.061139
145626142 0.999572 -0.060883
147112021 0.997874 -0.061208
148597900 0.99338 -0.059664
150083779 0.991549 -0.060744
151569658 0.993882 -0.060836
153055537 0.996726 -0.06164
154541416 1.000663 -0.063285
156027295 1.001564 -0.063146
157513174 1.005134 -0.064012
158999053 1.007862 -0.065341
160484932 1.007287 -0.065212
161970811 1.008306 -0.065577
163456690 1.009786 -0.064912
164942569 1.010001 -0.066372
166428448 1.009016 -0.066372
167914327 1.008505 -0.066191
169400206 1.006493 -0.065948
170886085 1.006085 -0.067141
172371964 1.003497 -0.067128
173857843 1.001463 -0.067676
175343722 0.999668 -0.067153
176829601 0.993697 -0.068094
178315480 0.992883 -0.070156
179801359 0.988338 -0.068773
181287238 0.990788 -0.07035
182773117 0.994748 -0.071067
184258996 0.996923 -0.072211
185744875 0.999301 -0.072055
187230754 1.001962 -0.072767
188716633 1.003396 -0.07233
190202512 1.004393 -0.07327
191688391 1.00475 -0.074316
193174270 1.006112 -0.073937
194660149 1.004993 -0.07385
196146028 1.005477 -0.073792
197631907 1.004132 -0.074513
199117786 1.004193 -0.074042
200603665 1.00185 -0.074502
202089544 0.9991 -0.075712
203575423 0.996818 -0.07549
205061302 0.99324 -0.075816
206547181 0.991389 -0.076793
208033060 0.986359 -0.077017
209518939 0.982095 -0.080432
211004818 0.983591 -0.080475
212490697 0.988274 -0.08142
213976576 0.991129 -0.081325
215462455 0.993807 -0.081615
216948334 0.996516 -0.082072
218434213 0.998751 -0.081744
219920092 1.001221 -0.081424
221405971 1.001522 -0.082386
222891850 1.001728 -0.082206
224377729 1.001543 -0.082138
225863608 1.001752 -0.08129
227349487 1.001894 -0.084055
228835366 0.997259 -0.082905
230321245 0.998185 -0.084683
231807124 0.995235 -0.086649
233293003 0.993868 -0.085094
234778882 0.99068 -0.085899
236264761 0.988146 -0.087125
237750640 0.983905 -0.088352
239236519 0.980213 -0.088564
240722398 0.980304 -0.090476
242208277 0.984847 -0.092635
243694156 0.987056 -0.091742
245180035 0.990241 -0.093008
246665914 0.993524 -0.09345
248151793 0.996087 -0.091842
249637672 0.997677 -0.093358
251123551 0.997672 -0.092409
252609430 0.999113 -0.09367
254095309 0.999049 -0.093393
255581188 0.999002 -0.093605
257067067 0.998802 -0.094042
258552946 0.997243 -0.09368
260038825 0.995009 -0.094811
261524704 0.991774 -0.095385
263010583 0.989805 -0.094322
264496462 0.986902 -0.095502
265982341 0.984445 -0.09647
267468220 0.979647 -0.097096
268954099 0.974139 -0.098769
270439978 0.972738 -0.099013
271925857 0.977398 -0.100022
273411736 0.980612 -0.100881
274897615 0.984236 -0.101205
276383494 0.988494 -0.102773
277869373 0.989957 -0.103915
279355252 0.993134 -0.103931
280841131 0.993361 -0.102934
282327010 0.994475 -0.103225
283812889 0.993989 -0.103767
285298768 0.99559 -0.104783
286784647 0.994028 -0.102734
288270526 0.993136 -0.103251
289756405 0.990198 -0.103637
291242284 0.988968 -0.105057
292728163 0.986267 -0.103723
294214042 0.983988 -0.105113
295699921 0.978913 -0.105974
297185800 0.975799 -0.105915
298671679 0.969764 -0.107234
300157558 0.966641 -0.107012
301643437 0.971928 -0.110202
303129316 0.974746 -0.110085
304615195 0.97904 -0.111107
306101074 0.981759 -0.111235
307586953 0.983692 -0.112432
309072832 0.987387 -0.114169
310558711 0.98822 -0.111712
312044590 0.989045 -0.114956
313530469 0.988978 -0.113478
315016348 0.989562 -0.113194
316502227 0.98979 -0.114212
317988106 0.987495 -0.115423
319473985 0.984991 -0.114734
320959864 0.983402 -0.114261
322445743 0.979997 -0.115739
323931622 0.977025 -0.115377
325417501 0.975267 -0.115728
326903380 0.969876 -0.116999
328389259 0.964721 -0.116068
329875138 0.961232 -0.116471
331361017 0.965606 -0.117674
332846896 0.967425 -0.120326
334332775 0.970891 -0.123265
335818654 0.974883 -0.122083
337304533 0.976973 -0.125095
338790412 0.979701 -0.122514
340276291 0.980102 -0.124482
341762170 0.982231 -0.125726
343248049 0.98415 -0.124908
344733928 0.981915 -0.1246
346219807 0.982062 -0.124685
347705686 0.98107 -0.124939
349191565 0.9797 -0.124226
350677444 0.978073 -0.125485
352163323 0.975988 -0.124258
353649202 0.973142 -0.12342
355135081 0.968064 -0.123712
356620960 0.963112 -0.121666
358106839 0.95872 -0.12499
359592718 0.953839 -0.124828
361078597 0.95583 -0.125649
362564476 0.960796 -0.128106
364050355 0.96418 -0.128017
365536234 0.966278 -0.129657
367022113 0.96873 -0.131865
368507992 0.971912 -0.130961
369993871 0.973083 -0.133315
371479750 0.975408 -0.132916
372965629 1.108447 -0.083182
374451508 0.975984 -0.132484
375937387 0.975569 -0.131824
377423266 0.975585 -0.132945
378909145 0.974619 -0.13239
380395024 0.970539 -0.132812
381880903 0.969327 -0.131476
383366782 0.96655 -0.132707
384852661 0.963233 -0.129843
386338540 0.960622 -0.131417
387824419 0.955912 -0.129041
389310298 0.950538 -0.131106
390796177 0.95111 -0.130732
392282056 0.953821 -0.132433
393767935 0.95792 -0.134494
395253814 0.959789 -0.135737
396739693 0.960978 -0.136221
398225572 0.964822 -0.137795
399711451 0.966992 -0.137946
401197330 0.968781 -0.139014
402683209 0.96816 -0.139146
404169088 0.968535 -0.140601
405654967 0.967833 -0.138382
407140846 0.966876 -0.1407
408626725 0.965591 -0.13769
410112604 0.965133 -0.137056
411598483 0.961744 -0.138303
413084362 0.958546 -0.136464
414570241 0.955763 -0.138521
416056120 0.952624 -0.136316
417541999 0.948352 -0.138504
419027878 0.943517 -0.135646
420513757 0.941672 -0.137071
421999636 0.945 -0.140276
423485515 0.947838 -0.140481
424971394 0.950849 -0.142336
426457273 0.953944 -0.142405
427943152 0.956809 -0.141953
429429031 0.957482 -0.144018
430914910 0.958978 -0.144734
432400789 0.959481 -0.145268
433886668 0.960154 -0.144673
435372547 0.959048 -0.144429
436858426 0.958855 -0.146133
438344305 0.957125 -0.144239
439830184 0.956394 -0.145991
441316063 0.953308 -0.144058
442801942 0.952319 -0.142106
444287821 0.950352 -0.144477
445773700 0.944994 -0.144699
447259579 0.94167 -0.141836
448745458 0.937477 -0.142451
450231337 0.933437 -0.14095
451717216 0.936166 -0.142474
453203095 0.940552 -0.146612
454688974 0.942709 -0.147823
456174853 0.944404 -0.148636
457660732 0.947852 -0.146967
459146611 0.947775 -0.149902
460632490 0.949739 -0.151569
462118369 0.951181 -0.150361
463604248 0.953319 -0.150731
465090127 0.952308 -0.148885
466576006 0.951169 -0.152062
468061885 0.950343 -0.152474
469547764 0.949012 -0.151203
471033643 0.94744 -0.152323
472519522 0.945221 -0.150677
474005401 0.94263 -0.151592
475491280 0.941036 -0.149166
476977159 0.936106 -0.150742
478463038 0.930997 -0.150858
479948917 0.927552 -0.149134
481434796 0.930753 -0.152292
482920675 0.932379 -0.153079
484406554 0.937176 -0.151934
485892433 0.939424 -0.154474
487378312 0.940719 -0.155954
488864191 0.943006 -0.1555
490350070 0.943555 -0.155378
491835949 0.945369 -0.154218
493321828 0.943741 -0.156455
494807707 0.945255 -0.157257
496293586 0.944502 -0.155903
497779465 0.943729 -0.155017
499265344 0.94113 -0.155633
500751223 0.941199 -0.155566
502237102 0.936713 -0.154682
503722981 0.936065 -0.15311
505208860 0.932828 -0.154383
506694739 0.92722 -0.153018
508180618 0.924733 -0.153471
509666497 0.920515 -0.155695
511152376 0.921328 -0.158065
512638255 0.927291 -0.155539
514124134 0.928126 -0.157296
515610013 0.931759 -0.15692
517095892 0.934485 -0.158992
518581771 0.936055 -0.158036
520067650 0.935745 -0.159416
521553529 0.938112 -0.158684
523039408 0.937091 -0.1622
524525287 0.938886 -0.159119
526011166 0.93899 -0.160215
527497045 0.938025 -0.159326
528982924 0.936167 -0.160521
530468803 0.935178 -0.160723
531954682 0.931788 -0.159903
533440561 0.930888 -0.157345
534926440 0.926307 -0.157717
536412319 0.923343 -0.157712
537898198 0.917838 -0.158001
539384077 0.915544 -0.158876
540869956 0.915527 -0.157885
542355835 0.917901 -0.159576
543841714 0.918614 -0.161914
545327593 0.922722 -0.160093
546813472 0.923568 -0.16192
548299351 0.924727 -0.158462
549785230 0.925561 -0.163147
551271109 0.927134 -0.160325
552756988 0.927132 -0.162992
554242867 0.926023 -0.160948
555728746 0.924946 -0.159807
557214625 0.922122 -0.160639
558700504 0.920356 -0.159678
560186383 0.918507 -0.160627
561672262 0.91491 -0.160101
563158141 0.914179 -0.158487
564644020 0.910037 -0.159821
566129899 0.904419 -0.15791
567615778 0.900488 -0.158109
569101657 0.894887 -0.161263
570587536 0.895227 -0.160677
572073415 0.896659 -0.162702
573559294 0.902824 -0.163986
575045173 0.90465 -0.165024
576531052 0.906679 -0.167071
578016931 0.910045 -0.169459
579502810 0.913771 -0.171819
580988689 0.91477 -0.169951
582474568 0.916631 -0.16972
583960447 0.915373 -0.170857
585446326 0.917887 -0.170143
586932205 0.916055 -0.172714
588418084 0.916159 -0.175345
589903963 0.916399 -0.17119
591389842 0.91296 -0.17301
592875721 0.913324 -0.172272
594361600 0.91068 -0.172465
595847479 0.907112 -0.172538
597333358 0.904618 -0.17282
598819237 0.900071 -0.172895
600305116 0.897787 -0.174923
601790995 0.902526 -0.173209
603276874 0.905236 -0.176047
604762753 0.910096 -0.175379
606248632 0.913145 -0.175756
607734511 0.91434 -0.17696
609220390 0.916239 -0.180733
610706269 0.917473 -0.179876
612192148 0.918772 -0.178849
613678027 0.918934 -0.179527
615163906 0.918803 -0.177144
616649785 0.919471 -0.177001
618135664 0.91846 -0.176329
619621543 0.914986 -0.177159
621107422 0.916725 -0.175752
622593301 0.91221 -0.174999
624079180 0.90935 -0.175064
625565059 0.905003 -0.17294
627050938 0.901988 -0.172714
628536817 0.896779 -0.171521
630022696 0.893059 -0.172088
631508575 0.897228 -0.175249
632994454 0.899263 -0.174428
634480333 0.901411 -0.178491
635966212 0.90507 -0.178465
637452091 0.907201 -0.179238
638937970 0.90949 -0.179536
640423849 0.909972 -0.177995
641909728 0.911353 -0.181141
643395607 0.913225 -0.17834
644881486 0.913058 -0.18025
646367365 0.911586 -0.180737
647853244 0.910687 -0.177193
649339123 0.907858 -0.178757
650825002 0.906802 -0.178401
652310881 0.904505 -0.177933
653796760 0.900841 -0.177522
655282639 0.899332 -0.175416
656768518 0.895286 -0.177048
658254397 0.888985 -0.175166
659740276 0.885832 -0.17324
661226155 0.889172 -0.177555
662712034 0.890761 -0.177847
664197913 0.894067 -0.178003
665683792 0.898265 -0.182384
667169671 0.902791 -0.178559
668655550 0.904843 -0.179754
670141429 0.905776 -0.18134
671627308 0.906974 -0.180874
673113187 0.907771 -0.179916
674599066 0.908026 -0.180137
676084945 0.907636 -0.176239
677570824 0.907459 -0.176417
679056703 0.906358 -0.179058
680542582 0.904432 -0.176999
682028461 0.903571 -0.173466
683514340 0.899422 -0.172112
685000219 0.897247 -0.170209
686486098 0.896729 -0.171171
687971977 0.891094 -0.168806
689457856 0.886331 -0.169783
690943735 0.88886 -0.169081
692429614 0.889905 -0.170064
693915493 0.891829 -0.172486
695401372 0.895583 -0.177918
696887251 0.898194 -0.176555
698373130 0.898998 -0.176659
699859009 0.899048 -0.181408
701344888 0.901322 -0.179707
702830767 0.899842 -0.178646
704316646 0.901249 -0.181879
705802525 0.901016 -0.181024
707288404 0.900134 -0.183028
708774283 0.898471 -0.181589
710260162 0.894241 -0.180167
711746041 0.89554 -0.181844
713231920 0.892477 -0.181518
714717799 0.886819 -0.181585
716203678 0.885845 -0.181073
717689557 0.882765 -0.180112
719175436 0.877809 -0.179882
720661315 0.876149 -0.181191
722147194 0.881754 -0.184211
723633073 0.88266 -0.185619
725118952 0.885495 -0.18506
726604831 0.888445 -0.184476
728090710 0.89141 -0.184939
729576589 0.890734 -0.187537
731062468 0.891822 -0.184418
732548347 0.89319 -0.18999
734034226 0.889909 -0.188281
735520105 0.894338 -0.185326
737005984 0.893204 -0.185855
738491863 0.893358 -0.187246
739977742 0.886961 -0.183791
741463621 0.886555 -0.183479
742949500 0.887012 -0.1831
744435379 0.884208 -0.181788
745921258 0.881817 -0.181494
747407137 0.878163 -0.181099
748893016 0.874605 -0.180012
750378895 0.871162 -0.184674
751864774 0.873147 -0.180731
753350653 0.873347 -0.181439
754836532 0.878968 -0.183205
756322411 0.878908 -0.185435
757808290 0.882587 -0.184602
759294169 0.884403 -0.184818
760780048 0.885152 -0.188398
762265927 0.885746 -0.188935
763751806 0.884649 -0.184971
765237685 0.883062 -0.186711
766723564 0.883788 -0.189184
768209443 0.884101 -0.187042
769695322 0.897561 -0.158035
771181201 0.880914 -0.185665
772667080 0.879346 -0.185351
774152959 0.876708 -0.184892
775638838 0.87121 -0.186716
777124717 0.870088 -0.184318
778610596 0.867255 -0.18187
780096475 0.862986 -0.186198
781582354 0.867794 -0.186843
783068233 0.869587 -0.186716
784554112 0.873593 -0.186433
786039991 0.874328 -0.189428
787525870 0.877423 -0.18782
789011749 0.875964 -0.191747
790497628 0.880887 -0.186268
791983507 0.879202 -0.189837
793469386 0.881423 -0.191354
794955265 0.884082 -0.188548
796441144 0.881261 -0.191884
797927023 0.882464 -0.18817
799412902 0.880181 -0.188864
800898781 0.877862 -0.189253
802384660 0.876519 -0.185344
803870539 0.873859 -0.187576
805356418 0.872536 -0.186097
806842297 0.868817 -0.187158
808328176 0.863739 -0.186809
809814055 0.861254 -0.185766
811299934 0.863005 -0.185489
812785813 0.866239 -0.185438
814271692 0.86782 -0.189964
815757571 0.87035 -0.1906
817243450 0.871078 -0.191269
818729329 0.874587 -0.189297
820215208 0.8759 -0.189098
821701087 0.876557 -0.190865
823186966 0.876529 -0.190997
824672845 0.876731 -0.189343
826158724 0.875615 -0.192591
827644603 0.875011 -0.188678
829130482 0.873917 -0.189755
830616361 0.872716 -0.187851
832102240 0.86878 -0.18851
833588119 0.867344 -0.190495
835073998 0.864148 -0.187575
836559877 0.859754 -0.188655
838045756 0.857407 -0.186705
839531635 0.853434 -0.186989
841017514 0.85466 -0.186824
842503393 0.85751 -0.18905
843989272 0.860332 -0.19298
845475151 0.863959 -0.192194
846961030 0.86567 -0.193199
848446909 0.865993 -0.194923
849932788 0.870616 -0.192881
851418667 0.87089 -0.19453
852904546 0.870705 -0.191314
854390425 0.872178 -0.193507
855876304 0.870877 -0.194493
857362183 0.86963 -0.193967
858848062 0.868631 -0.192016
860333941 0.868644 -0.192157
861819820 0.865089 -0.193188
863305699 0.864639 -0.188809
864791578 0.862071 -0.187923
866277457 0.858582 -0.190266
867763336 0.852836 -0.188009
869249215 0.848569 -0.188289
870735094 0.848226 -0.191164
872220973 0.852489 -0.191002
873706852 0.855994 -0.194808
875192731 0.859032 -0.191884
876678610 0.860297 -0.194021
878164489 0.861928 -0.197395
879650368 0.864459 -0.194218
881136247 0.864509 -0.199057
882622126 0.868183 -0.195693
884108005 0.866658 -0.197412
885593884 0.866697 -0.19796
887079763 0.865658 -0.196978
888565642 0.866399 -0.194946
890051521 0.863443 -0.195522
891537400 0.862354 -0.194864
893023279 0.858513 -0.19258
894509158 0.856384 -0.19508
895995037 0.851894 -0.19442
897480916 0.848489 -0.193884
898966795 0.844414 -0.190162
900452674 0.842882 -0.189074
901938553 0.84571 -0.192797
903424432 0.848698 -0.195064
904910311 0.852919 -0.195342
906396190 0.854134 -0.197453
907882069 0.856971 -0.198638
909367948 0.857948 -0.199621
910853827 0.860191 -0.198824
912339706 0.858997 -0.200705
913825585 0.860872 -0.199456
915311464 0.857327 -0.19821
916797343 0.861283 -0.196482
918283222 0.8574 -0.198073
919769101 0.858022 -0.197846
921254980 0.821216 -0.255212
922740859 0.849361 -0.201162
924226738 0.849741 -0.196743
925712617 0.849399 -0.196438
927198496 0.845733 -0.195825
928684375 0.840098 -0.193868
930170254 0.835279 -0.194862
931656133 0.838081 -0.196451
933142012 0.841717 -0.196601
934627891 0.842583 -0.198391
936113770 0.847616 -0.199959
937599649 0.839473 -0.213091
939085528 0.847492 -0.200869
940571407 0.850265 -0.202474
942057286 0.852805 -0.200645
943543165 0.852501 -0.201517
945029044 0.853235 -0.204573
946514923 0.848985 -0.199087
948000802 0.851471 -0.20181
949486681 0.850982 -0.19962
950972560 0.850154 -0.199894
952458439 0.848225 -0.200967
953944318 0.845787 -0.197798
955430197 0.841901 -0.195815
956916076 0.841099 -0.195313
958401955 0.836722 -0.194215
959887834 0.830553 -0.192245
961373713 0.833769 -0.195359
962859592 0.83722 -0.198022
964345471 0.838243 -0.198202
965831350 0.842584 -0.198833
967317229 0.843037 -0.200734
968803108 0.84388 -0.202248
970288987 0.846892 -0.201767
971774866 0.849326 -0.200584
973260745 0.838988 -0.234597
974746624 0.847636 -0.206476
976232503 0.849477 -0.203401
977718382 0.848027 -0.204881
979204261 0.845806 -0.204496
980690140 0.84609 -0.199582
982176019 0.843578 -0.20048
983661898 0.840344 -0.19819
985147777 0.838445 -0.200181
986633656 0.836843 -0.200599
988119535 0.833732 -0.196964
989605414 0.830284 -0.195603
991091293 0.83148 -0.198186
992577172 0.834985 -0.195368
994063051 0.837574 -0.198308
995548930 0.838816 -0.200539
997034809 0.839621 -0.201201
998520688 0.839785 -0.203097
1000006567 0.84196 -0.201131
1001492446 0.843903 -0.200709
1002978325 0.843913 -0.202785
1004464204 0.843886 -0.202771
1005950083 0.842205 -0.203077
1007435962 0.84108 -0.203407
1008921841 0.840412 -0.20221
1010407720 0.838406 -0.200647
1011893599 0.838159 -0.200896
1013379478 0.836683 -0.198979
1014865357 0.832098 -0.197647
1016351236 0.831215 -0.19334
1017837115 0.826771 -0.193027
1019322994 0.824177 -0.194174
1020808873 0.823672 -0.195693
1022294752 0.826432 -0.197911
1023780631 0.829087 -0.198089
1025266510 0.831412 -0.199526
1026752389 0.834569 -0.197687
1028238268 0.836029 -0.200495
1029724147 0.836845 -0.198942
1031210026 0.838283 -0.199237
1032695905 0.837692 -0.200337
1034181784 0.838691 -0.197665
1035667663 0.838692 -0.199167
1037153542 0.836837 -0.200613
1038639421 0.836919 -0.19852
1040125300 0.836695 -0.19719
1041611179 0.833706 -0.200063
1043097058 0.833745 -0.200273
1044582937 0.831324 -0.197495
1046068816 0.828231 -0.197065
1047554695 0.825405 -0.195271
1049040574 0.823967 -0.195378
1050526453 0.822677 -0.19069
1052012332 0.824679 -0.193506
1053498211 0.826306 -0.195838
1054984090 0.829456 -0.197423
1056469969 0.829962 -0.19772
1057955848 0.831832 -0.196574
1059441727 0.834522 -0.199109
1060927606 0.832652 -0.197941
1062413485 0.834617 -0.197899
1063899364 0.835856 -0.199811
1065385243 0.83494 -0.199053
1066871122 0.834105 -0.199655
1068357001 0.83526 -0.1956
1069842880 0.838209 -0.185647
1071328759 0.831038 -0.200591
1072814638 0.831264 -0.194321
1074300517 0.827177 -0.197553
1075786396 0.825125 -0.195995
1077272275 0.822151 -0.198473
1078758154 0.81986 -0.194664
1080244033 0.815609 -0.19463
1081729912 0.82148 -0.195648
1083215791 0.822351 -0.200015
1084701670 0.824402 -0.198596
1086187549 0.827272 -0.197912
1087673428 0.830622 -0.198313
1089159307 0.83114 -0.20074
1090645186 0.831574 -0.197638
1092131065 0.833422 -0.197107
1093616944 0.830222 -0.196705
1095102823 0.832525 -0.197159
1096588702 0.833315 -0.195953
1098074581 0.830591 -0.197418
1099560460 0.831696 -0.197173
1101046339 0.827615 -0.197707
1102532218 0.827632 -0.195984
1104018097 0.825206 -0.194938
1105503976 0.825772 -0.189914
1106989855 0.818835 -0.195981
1108475734 0.816201 -0.192743
1109961613 0.812994 -0.192311
1111447492 0.816368 -0.194986
1112933371 0.818323 -0.19344
1114419250 0.820735 -0.195509
1115905129 0.82344 -0.200011
1117391008 0.827002 -0.195765
1118876887 0.827716 -0.196666
1120362766 0.831006 -0.193872
1121848645 0.830724 -0.196639
1123334524 0.831946 -0.198265
1124820403 0.831699 -0.199725
1126306282 0.832792 -0.194715
1127792161 0.832361 -0.196972
1129278040 0.827305 -0.195856
1130763919 0.825397 -0.197134
1132249798 0.823162 -0.197523
1133735677 0.821077 -0.195837
1135221556 0.820411 -0.19551
1136707435 0.816404 -0.194863
1138193314 0.812264 -0.197225
1139679193 0.807829 -0.196882
1141165072 0.808303 -0.192812
1142650951 0.817183 -0.196152
1144136830 0.816884 -0.194944
1145622709 0.82023 -0.198006
1147108588 0.822319 -0.198807
1148594467 0.825729 -0.197731
1150080346 0.822846 -0.196586
1151566225 0.827624 -0.19725
1153052104 0.82708 -0.196313
1154537983 0.829994 -0.198472
1156023862 0.830063 -0.19709
1157509741 0.825772 -0.199041
1158995620 0.826081 -0.195422
1160481499 0.823432 -0.199933
1161967378 0.82492 -0.194886
1163453257 0.819746 -0.195678
1164939136 0.819432 -0.19424
1166425015 0.813427 -0.196267
1167910894 0.810486 -0.194537
1169396773 0.807041 -0.191569
1170882652 0.806723 -0.195441
1172368531 0.810136 -0.196226
1173854410 0.813992 -0.199346
1175340289 0.816126 -0.196283
1176826168 0.818937 -0.197447
1178312047 0.821709 -0.195476
1179797926 0.819876 -0.201277
1181283805 0.82413 -0.197068
1182769684 0.82412 -0.196606
1184255563 0.823178 -0.1999
1185741442 0.824364 -0.198968
1187227321 0.822955 -0.197027
1188713200 0.823891 -0.191827
1190199079 0.822261 -0.194919
1191684958 0.818805 -0.197463
1193170837 0.815128 -0.198165
1194656716 0.813756 -0.195506
1196142595 0.809049 -0.196555
1197628474 0.806908 -0.195335
1199114353 0.800944 -0.197097
1200600232 0.802911 -0.199435
1202086111 0.806611 -0.199251
1203571990 0.808671 -0.196903
1205057869 0.812746 -0.199258
1206543748 0.81446 -0.199638
1208029627 0.817193 -0.201748
1209515506 0.818575 -0.203852
1211001385 0.81881 -0.20393
1212487264 0.817586 -0.20405
1213973143 0.821099 -0.200762
1215459022 0.82359 -0.198936
1216944901 0.822068 -0.204329
1218430780 0.816937 -0.201731
1219916659 0.839595 -0.166536
1221402538 0.815006 -0.201981
1222888417 0.81452 -0.198745
1224374296 0.810174 -0.198044
1225860175 0.809344 -0.199356
1227346054 0.803075 -0.19894
1228831933 0.799664 -0.197633
1230317812 0.797718 -0.197473
1231803691 0.798271 -0.199188
1233289570 0.803393 -0.202533
1234775449 0.806034 -0.202182
1236261328 0.806887 -0.203009
1237747207 0.811007 -0.202707
1239233086 0.809871 -0.203128
1240718965 0.812131 -0.205808
1242204844 0.812448 -0.204112
1243690723 0.811573 -0.205536
1245176602 0.810381 -0.204795
1246662481 0.812771 -0.203948
1248148360 0.80988 -0.204481
1249634239 0.806235 -0.202362
1251120118 0.806865 -0.20335
1252605997 0.804589 -0.198076
1254091876 0.802304 -0.197
1255577755 0.797933 -0.196313
1257063634 0.793406 -0.200957
1258549513 0.790512 -0.196246
1260035392 0.786167 -0.197492
1261521271 0.7902 -0.197731
1263007150 0.792466 -0.201555
1264493029 0.795357 -0.206267
1265978908 0.796733 -0.204939
1267464787 0.799284 -0.206532
1268950666 0.801322 -0.207405
1270436545 0.805006 -0.204541
1271922424 0.806536 -0.206696
1273408303 0.805962 -0.203623
1274894182 0.807926 -0.203707
1276380061 0.812438 -0.192708
1277865940 0.806626 -0.2018
1279351819 0.81111 -0.187953
1280837698 0.803267 -0.204878
1282323577 0.809011 -0.187355
1283809456 0.803116 -0.197859
1285295335 0.805271 -0.186186
1286781214 0.795205 -0.200684
1288267093 0.798825 -0.187165
1289752972 0.790663 -0.194838
1291238851 0.796504 -0.186802
1292724730 0.793691 -0.197812
1294210609 0.799529 -0.186631
1295696488 0.79593 -0.203804
1297182367 0.80462 -0.19035
1298668246 0.798907 -0.202519
1300154125 0.805183 -0.192669
1301640004 0.801223 -0.201905
1303125883 0.807413 -0.188898
1304611762 0.802065 -0.201864
1306097641 0.805595 -0.187362
1307583520 0.798799 -0.202017
1309069399 0.806172 -0.186122
1310555278 0.795871 -0.199773
1312041157 0.799237 -0.186401
1313527036 0.791007 -0.196343
1315012915 0.794548 -0.185266
1316498794 0.789417 -0.194752
1317984673 0.786603 -0.182075
1319470552 0.778981 -0.197268
1320956431 0.782139 -0.182008
1322442310 0.78072 -0.201743
1323928189 0.790147 -0.179451
1325414068 0.788454 -0.201758
1326899947 0.795232 -0.188206
1328385826 0.788843 -0.206076
1329871705 0.792386 -0.206345
1331357584 0.792906 -0.202103
1332843463 0.794934 -0.205332
1334329342 0.797059 -0.20528
1335815221 0.796687 -0.203909
1337301100 0.79617 -0.205263
1338786979 0.796292 -0.205851
1340272858 0.79559 -0.19872
1341758737 0.791863 -0.202505
1343244616 0.791925 -0.202116
1344730495 0.794195 -0.196917
1346216374 0.792583 -0.199152
1347702253 0.784935 -0.203963
1349188132 0.787263 -0.193512
1350674011 0.78683 -0.200368
1352159890 0.785833 -0.203007
1353645769 0.793816 -0.202569
1355131648 0.794023 -0.204838
1356617527 0.793871 -0.207684
1358103406 0.796946 -0.208748
1359589285 0.795637 -0.2096
1361075164 0.799195 -0.207899
1362561043 0.801709 -0.204059
1364046922 0.799175 -0.211224
1365532801 0.799654 -0.209375
1367018680 0.801729 -0.213278
1368504559 0.802931 -0.209841
1369990438 0.737393 -0.253631
1371476317 0.801655 -0.205527
1372962196 0.795683 -0.212273
1374448075 0.797096 -0.211796
1375933954 0.794065 -0.213255
1377419833 0.793596 -0.207586
1378905712 0.791756 -0.201168
1380391591 0.789344 -0.207782
1381877470 0.790932 -0.207623
1383363349 0.795192 -0.210746
1384849228 0.797026 -0.208308
1386335107 0.799528 -0.210235
1387820986 0.795501 -0.211462
1389306865 0.797664 -0.210765
1390792744 0.801627 -0.207128
1392278623 0.79948 -0.20978
1393764502 0.796467 -0.20868
1395250381 0.800173 -0.205577
1396736260 0.79835 -0.208936
1398222139 0.795874 -0.207023
1399708018 0.798019 -0.205209
1401193897 0.792662 -0.209105
1402679776 0.795183 -0.200334
1404165655 0.787009 -0.209644
1405651534 0.787285 -0.205465
1407137413 0.78347 -0.204639
1408623292 0.780537 -0.201168
1410109171 0.774724 -0.202275
1411595050 0.777655 -0.205553
1413080929 0.784133 -0.203526
1414566808 0.787183 -0.201891
1416052687 0.793566 -0.198818
1417538566 0.793684 -0.199919
1419024445 0.798458 -0.197874
1420510324 0.796437 -0.201273
1421996203 0.803632 -0.200113
1423482082 0.794673 -0.200919
1424967961 0.797582 -0.196986
1426453840 0.796537 -0.203254
1427939719 0.798455 -0.191534
1429425598 0.798853 -0.194962
1430911477 0.79612 -0.188705
1432397356 0.79468 -0.188194
1433883235 0.79336 -0.189614
1435369114 0.788055 -0.189888
1436854993 0.788374 -0.184137
1438340872 0.786144 -0.18566
1439826751 0.781738 -0.179332
1441312630 0.782273 -0.184421
1442798509 0.788206 -0.181932
1444284388 0.788402 -0.184294
1445770267 0.786451 -0.18347
1447256146 0.789455 -0.192665
1448742025 0.791379 -0.185131
1450227904 0.791788 -0.192297
1451713783 0.793758 -0.189832
1453199662 0.792693 -0.194
1454685541 0.793085 -0.190476
1456171420 0.792361 -0.193605
1457657299 0.794906 -0.187352
1459143178 0.790465 -0.193032
1460629057 0.792174 -0.194946
1462114936 0.787802 -0.194252
1463600815 0.784903 -0.196389
1465086694 0.782072 -0.198424
1466572573 0.780648 -0.198189
1468058452 0.778493 -0.194887
1469544331 0.776309 -0.192782
1471030210 0.776806 -0.199233
1472516089 0.779275 -0.200096
1474001968 0.781406 -0.200673
1475487847 0.785029 -0.19831
1476973726 0.787121 -0.201019
1478459605 0.787969 -0.201875
1479945484 0.789437 -0.201243
1481431363 0.790569 -0.201923
1482917242 0.792068 -0.19903
1484403121 0.792765 -0.197113
1485889000 0.792206 -0.197703
1487374879 0.790951 -0.197056
1488860758 0.790182 -0.196639
1490346637 0.787925 -0.199755
1491832516 0.786983 -0.196184
1493318395 0.784406 -0.194618
1494804274 0.783387 -0.193879
1496290153 0.776654 -0.199399
1497776032 0.778237 -0.1901
1499261911 0.772626 -0.192742
1500747790 0.770674 -0.197959
1502233669 0.779002 -0.191958
1503719548 0.779832 -0.194184
1505205427 0.783419 -0.196544
1506691306 0.784609 -0.196658
1508177185 0.78831 -0.195244
1509663064 0.79053 -0.194045
1511148943 0.789013 -0.196112
1512634822 0.790516 -0.19787
1514120701 0.791397 -0.196285
1515606580 0.792201 -0.197263
1517092459 0.791007 -0.198604
1518578338 0.790723 -0.195502
1520064217 0.79977 -0.173869
1521550096 0.788246 -0.189726
1523035975 0.785073 -0.192978
1524521854 0.783341 -0.191813
1526007733 0.776896 -0.195862
1527493612 0.773629 -0.192614
1528979491 0.770859 -0.191114
1530465370 0.771807 -0.189422
1531951249 0.775636 -0.192461
1533437128 0.777107 -0.196977
1534923007 0.779641 -0.196353
1536408886 0.781879 -0.195184
1537894765 0.785477 -0.196115
1539380644 0.78396 -0.203742
1540866523 0.785748 -0.199359
1542352402 0.789958 -0.193357
1543838281 0.788494 -0.197675
1545324160 0.789413 -0.198186
1546810039 0.789299 -0.19554
1548295918 0.786024 -0.195931
1549781797 0.786922 -0.198136
1551267676 0.783555 -0.197127
1552753555 0.781615 -0.192713
1554239434 0.777097 -0.193612
1555725313 0.776451 -0.195297
1557211192 0.772571 -0.189403
1558697071 0.762984 -0.195631
1560182950 0.763987 -0.195648
1561668829 0.768548 -0.193729
1563154708 0.773952 -0.193502
1564640587 0.77534 -0.194329
1566126466 0.778217 -0.194312
1567612345 0.778757 -0.201556
1569098224 0.778812 -0.200973
1570584103 0.782263 -0.199789
1572069982 0.781175 -0.203119
1573555861 0.782978 -0.198596
1575041740 0.781247 -0.205056
1576527619 0.785375 -0.198387
1578013498 0.78323 -0.202455
1579499377 0.783606 -0.195928
1580985256 0.777322 -0.201239
1582471135 0.7792 -0.19735
1583957014 0.77542 -0.198553
1585442893 0.776396 -0.19141
1586928772 0.768747 -0.198652
1588414651 0.766147 -0.197529
1589900530 0.76283 -0.19309
1591386409 0.765818 -0.196464
1592872288 0.767238 -0.203934
1594358167 0.770098 -0.199099
1595844046 0.775412 -0.193671
1597329925 0.774814 -0.199564
1598815804 0.77824 -0.200252
1600301683 0.780139 -0.199359
1601787562 0.779581 -0.202218
1603273441 0.781837 -0.200315
1604759320 0.780937 -0.200427
1606245199 0.779919 -0.198028
1607731078 0.780066 -0.206651
1609216957 0.779426 -0.203341
1610702836 0.778985 -0.197875
1612188715 0.778704 -0.200687
1613674594 0.772727 -0.197962
1615160473 0.772561 -0.195568
1616646352 0.770225 -0.195608
1618132231 0.765601 -0.198103
1619618110 0.763505 -0.195832
1621103989 0.764068 -0.194296
1622589868 0.767457 -0.196806
1624075747 0.769223 -0.200987
1625561626 0.77288 -0.202719
1627047505 0.77445 -0.198329
1628533384 0.774314 -0.199626
1630019263 0.777346 -0.196382
1631505142 0.776519 -0.202862
1632991021 0.777113 -0.198078
1634476900 0.777647 -0.203696
1635962779 0.778623 -0.204271
1637448658 0.778192 -0.19984
1638934537 0.776075 -0.199123
1640420416 0.775699 -0.202713
1641906295 0.774518 -0.196803
1643392174 0.771914 -0.199846
1644878053 0.769632 -0.194047
1646363932 0.765759 -0.197227
1647849811 0.761619 -0.197467
1649335690 0.760321 -0.190908
1650821569 0.760318 -0.190562
1652307448 0.762342 -0.195854
1653793327 0.766797 -0.196404
1655279206 0.768517 -0.20138
1656765085 0.769057 -0.198354
1658250964 0.770544 -0.19762
1659736843 0.769944 -0.202807
1661222722 0.77146 -0.199238
1662708601 0.771918 -0.202708
1664194480 0.776578 -0.196285
1665680359 0.775096 -0.20005
1667166238 0.77335 -0.201856
1668652117 0.77217 -0.200016
1670137996 0.772474 -0.196922
1671623875 0.770511 -0.199093
1673109754 0.769184 -0.197758
1674595633 0.766249 -0.200101
1676081512 0.765925 -0.192305
1677567391 0.76023 -0.194469
1679053270 0.759284 -0.192167
1680539149 0.757107 -0.193654
1682025028 0.759909 -0.198864
1683510907 0.762065 -0.196971
1684996786 0.764145 -0.200138
1686482665 0.768438 -0.199959
1687968544 0.769081 -0.197511
1689454423 0.770862 -0.203505
1690940302 0.772146 -0.201495
1692426181 0.773448 -0.199479
1693912060 0.77251 -0.202099
1695397939 0.77343 -0.203427
1696883818 0.770623 -0.197918
1698369697 0.771611 -0.199776
1699855576 0.768879 -0.197568
1701341455 0.770535 -0.196906
1702827334 0.76634 -0.196911
1704313213 0.766475 -0.19818
1705799092 0.763868 -0.194651
1707284971 0.763194 -0.198146
1708770850 0.757106 -0.193623
1710256729 0.755897 -0.191177
1711742608 0.759018 -0.193251
1713228487 0.760807 -0.199883
1714714366 0.764044 -0.197998
1716200245 0.766237 -0.194504
1717686124 0.768335 -0.194125
1719172003 0.768961 -0.205532
1720657882 0.770733 -0.198724
1722143761 0.773184 -0.200571
1723629640 0.770359 -0.20225
1725115519 0.773277 -0.20137
1726601398 0.772935 -0.197583
1728087277 0.770405 -0.198878
1729573156 0.77321 -0.195374
1731059035 0.771256 -0.19713
1732544914 0.769649 -0.193453
1734030793 0.766287 -0.194279
1735516672 0.763709 -0.194678
1737002551 0.762475 -0.190269
1738488430 0.758803 -0.19439
1739974309 0.75808 -0.187259
1741460188 0.759599 -0.19406
1742946067 0.761381 -0.193301
1744431946 0.759544 -0.198411
1745917825 0.76576 -0.19488
1747403704 0.768361 -0.195778
1748889583 0.766885 -0.200348
1750375462 0.769169 -0.194851
1751861341 0.770662 -0.19318
1753347220 0.771261 -0.195276
1754833099 0.76989 -0.193904
1756318978 0.767464 -0.193396
1757804857 0.769023 -0.198111
1759290736 0.768671 -0.191842
1760776615 0.765943 -0.19789
1762262494 0.763849 -0.197038
1763748373 0.765328 -0.189955
1765234252 0.762105 -0.189723
1766720131 0.759645 -0.187014
1768206010 0.752762 -0.190655
1769691889 0.749659 -0.193012
1771177768 0.752159 -0.193894
1772663647 0.75328 -0.191306
1774149526 0.758094 -0.193596
1775635405 0.760447 -0.191994
1777121284 0.764462 -0.189064
1778607163 0.764983 -0.188954
1780093042 0.765706 -0.193783
1781578921 0.767659 -0.190084
1783064800 0.768514 -0.187284
1784550679 0.769516 -0.188412
1786036558 0.766851 -0.192671
1787522437 0.765545 -0.188884
1789008316 0.771196 -0.188872
1790494195 0.764254 -0.187679
1791980074 0.76044 -0.191706
1793465953 0.762628 -0.189695
1794951832 0.758534 -0.179438
1796437711 0.753384 -0.182582
1797923590 0.754756 -0.185392
1799409469 0.751525 -0.180826
1800895348 0.750656 -0.184787
1802381227 0.752692 -0.182415
1803867106 0.756873 -0.181903
1805352985 0.75919 -0.18276
1806838864 0.762291 -0.185455
1808324743 0.760316 -0.18968
1809810622 0.764178 -0.186742
1811296501 0.76853 -0.186302
1812782380 0.765595 -0.193113
1814268259 0.767557 -0.187264
1815754138 0.76766 -0.189232
1817240017 0.76669 -0.185137
1818725896 0.765813 -0.182767
1820211775 0.764166 -0.186751
1821697654 0.763616 -0.186942
1823183533 0.760925 -0.186445
1824669412 0.762718 -0.180362
1826155291 0.753925 -0.18566
1827641170 0.760185 -0.184267
1829127049 0.755371 -0.184667
1830612928 0.751953 -0.18441
1832098807 0.75306 -0.188884
1833584686 0.758016 -0.188964
1835070565 0.758667 -0.19057
1836556444 0.762752 -0.192201
1838042323 0.763209 -0.190517
1839528202 0.766243 -0.195836
1841014081 0.767549 -0.192455
1842499960 0.771588 -0.19042
1843985839 0.769102 -0.198416
1845471718 0.77133 -0.196606
1846957597 0.770872 -0.193951
1848443476 0.768426 -0.188806
1849929355 0.766361 -0.19704
1851415234 0.768723 -0.189419
1852901113 0.767993 -0.192472
1854386992 0.759664 -0.194306
1855872871 0.76407 -0.187616
1857358750 0.756878 -0.195927
1858844629 0.754928 -0.192156
1860330508 0.753568 -0.189834
1861816387 0.758188 -0.189496
1863302266 0.758484 -0.193599
1864788145 0.762336 -0.194011
1866274024 0.76066 -0.196192
1867759903 0.765375 -0.194621
1869245782 0.766023 -0.19807
1870731661 0.768129 -0.190352
1872217540 0.768878 -0.195772
1873703419 0.768488 -0.19563
1875189298 0.765973 -0.196378
1876675177 0.767735 -0.190989
1878161056 0.765357 -0.194175
1879646935 0.765188 -0.192943
1881132814 0.76335 -0.190736
1882618693 0.758787 -0.191376
1884104572 0.756982 -0.189201
1885590451 0.754558 -0.187043
1887076330 0.750022 -0.188503
1888562209 0.749052 -0.187387
1890048088 0.744298 -0.183143
1891533967 0.747052 -0.18941
1893019846 0.75545 -0.186241
1894505725 0.75244 -0.190852
1895991604 0.75847 -0.189029
1897477483 0.756177 -0.19563
1898963362 0.761189 -0.190291
1900449241 0.759207 -0.189987
1901935120 0.762415 -0.19166
1903420999 0.764351 -0.188496
1904906878 0.762481 -0.191593
1906392757 0.762496 -0.192079
1907878636 0.763018 -0.191991
1909364515 0.75913 -0.192872
1910850394 0.75793 -0.193399
1912336273 0.758029 -0.189103
1913822152 0.757747 -0.186019
1915308031 0.755361 -0.185738
1916793910 0.752448 -0.186448
1918279789 0.750399 -0.182365
1919765668 0.747725 -0.184036
1921251547 0.749789 -0.188292
1922737426 0.749231 -0.186123
1924223305 0.751794 -0.183854
1925709184 0.752692 -0.192284
1927195063 0.758553 -0.191532
1928680942 0.756826 -0.193351
1930166821 0.75825 -0.191745
1931652700 0.76178 -0.190096
1933138579 0.761888 -0.187112
1934624458 0.763215 -0.187548
1936110337 0.759704 -0.186472
1937596216 0.763019 -0.18698
1939082095 0.761802 -0.185579
1940567974 0.759318 -0.187298
1942053853 0.75577 -0.188838
1943539732 0.758154 -0.184376
1945025611 0.750487 -0.18365
1946511490 0.750153 -0.186139
1947997369 0.746803 -0.182504
1949483248 0.745803 -0.178915
1950969127 0.741686 -0.185666
1952455006 0.746253 -0.187637
1953940885 0.750892 -0.18678
1955426764 0.751045 -0.186923
1956912643 0.755314 -0.182857
1958398522 0.752654 -0.191048
1959884401 0.753593 -0.190255
1961370280 0.752375 -0.193443
1962856159 0.754347 -0.191836
1964342038 0.757403 -0.186248
1965827917 0.75459 -0.189809
1967313796 0.753963 -0.191734
1968799675 0.756188 -0.187187
1970285554 0.754107 -0.189658
1971771433 0.75264 -0.191279
1973257312 0.749057 -0.189453
1974743191 0.746885 -0.190604
1976229070 0.747228 -0.182141
1977714949 0.736261 -0.188715
1979200828 0.736751 -0.189854
1980686707 0.742949 -0.182686
1982172586 0.742478 -0.186163
1983658465 0.745628 -0.182546
1985144344 0.748472 -0.183475
1986630223 0.748666 -0.192642
1988116102 0.753425 -0.18807
1989601981 0.744154 -0.172745
1991087860 0.755153 -0.190767
1992573739 0.755259 -0.188213
1994059618 0.754416 -0.190241
1995545497 0.759528 -0.180738
1997031376 0.754157 -0.184199
1998517255 0.755555 -0.184351
2000003134 0.752832 -0.192044
2001489013 0.751836 -0.190106
2002974892 0.7494 -0.187976
2004460771 0.75019 -0.188331
2005946650 0.748907 -0.181292
2007432529 0.748753 -0.181464
2008918408 0.741022 -0.186683
2010404287 0.740961 -0.179873
2011890166 0.739858 -0.192129
2013376045 0.7445 -0.191724
2014861924 0.750524 -0.187111
2016347803 0.752975 -0.184934
2017833682 0.751349 -0.192578
2019319561 0.754127 -0.190546
2020805440 0.756031 -0.194324
2022291319 0.774291 -0.172512
2023777198 0.757003 -0.188223
2025263077 0.75767 -0.189605
2026748956 0.754925 -0.184642
2028234835 0.761168 -0.188474
2029720714 0.758368 -0.187743
2031206593 0.753174 -0.183318
2032692472 0.756321 -0.181873
2034178351 0.754454 -0.183555
2035664230 0.750294 -0.185851
2037150109 0.749817 -0.18312
2038635988 0.745411 -0.18165
2040121867 0.744887 -0.177822
2041607746 0.746581 -0.182573
2043093625 0.74967 -0.182266
2044579504 0.750285 -0.182715
2046065383 0.752954 -0.179732
2047551262 0.752869 -0.192006
2049037141 0.757361 -0.18227
2050523020 0.755875 -0.185919
2052008899 0.756361 -0.188023
2053494778 0.756289 -0.175678
2054980657 0.756368 -0.173494
2056466536 0.757766 -0.182086
2057952415 0.757366 -0.178601
2059438294 0.756028 -0.176952
2060924173 0.753528 -0.183654
2062410052 0.75022 -0.179394
2063895931 0.749128 -0.182917
2065381810 0.747158 -0.185706
2066867689 0.740978 -0.181633
2068353568 0.741596 -0.170296
2069839447 0.736259 -0.179965
2071325326 0.737727 -0.182308
2072811205 0.739396 -0.18341
2074297084 0.744054 -0.183039
2075782963 0.745702 -0.187671
2077268842 0.745474 -0.185663
2078754721 0.749152 -0.187802
2080240600 0.749127 -0.184328
2081726479 0.751339 -0.18648
2083212358 0.750714 -0.186299
2084698237 0.752875 -0.184906
2086184116 0.751334 -0.18795
2087669995 0.750779 -0.19024
2089155874 0.750947 -0.189399
2090641753 0.749645 -0.190483
2092127632 0.747777 -0.188106
2093613511 0.748728 -0.183424
2095099390 0.743425 -0.184618
2096585269 0.743324 -0.189496
2098071148 0.741145 -0.186288
2099557027 0.733508 -0.182433
2101042906 0.738926 -0.182769
2102528785 0.741863 -0.186503
2104014664 0.743101 -0.186496
2105500543 0.746515 -0.188755
2106986422 0.747948 -0.189418
2108472301 0.748497 -0.192497
2109958180 0.751621 -0.186524
2111444059 0.753029 -0.193307
2112929938 0.752392 -0.186442
2114415817 0.752432 -0.183229
2115901696 0.754097 -0.186434
2117387575 0.752079 -0.187478
2118873454 0.754653 -0.18442
2120359333 0.749021 -0.183213
2121845212 0.752252 -0.174915
2123331091 0.748825 -0.181998
2124816970 0.745561 -0.178203
2126302849 0.74372 -0.179785
2127788728 0.74294 -0.179916
2129274607 0.740232 -0.175741
2130760486 0.735814 -0.178581
2132246365 0.740608 -0.178634
2133732244 0.742635 -0.18238
2135218123 0.744135 -0.181478
2136704002 0.746912 -0.180077
2138189881 0.749582 -0.184152
2139675760 0.750056 -0.186063
2141161639 0.749299 -0.182385
2142647518 0.756318 -0.181352
2144133397 0.752178 -0.183723
2145619276 0.753326 -0.183585
2147105155 0.747876 -0.18466
2148591034 0.752038 -0.182278
2150076913 0.752749 -0.177651
2151562792 0.751271 -0.185018
2153048671 0.747935 -0.18161
2154534550 0.745691 -0.183648
2156020429 0.745462 -0.178693
2157506308 0.7368 -0.179032
2158992187 0.738582 -0.179102
2160478066 0.733608 -0.175349
2161963945 0.736634 -0.179503
2163449824 0.74063 -0.180803
2164935703 0.745165 -0.184939
2166421582 0.743696 -0.185137
2167907461 0.744649 -0.183399
2169393340 0.747788 -0.188655
2170879219 0.749297 -0.182834
2172365098 0.755068 -0.185758
2173850977 0.748556 -0.186457
2175336856 0.751652 -0.181305
2176822735 0.751716 -0.181115
2178308614 0.750056 -0.184665
2179794493 0.749412 -0.181766
2181280372 0.747623 -0.18002
2182766251 0.743379 -0.178055
2184252130 0.745276 -0.174962
2185738009 0.742649 -0.178576
2187223888 0.739532 -0.175995
2188709767 0.736187 -0.176601
2190195646 0.734749 -0.179825
2191681525 0.738897 -0.178743
2193167404 0.741313 -0.183874
2194653283 0.744748 -0.176212
2196139162 0.746478 -0.179286
2197625041 0.746066 -0.183968
2199110920 0.749754 -0.177848
2200596799 0.750121 -0.188827
2202082678 0.752097 -0.184631
2203568557 0.752851 -0.177837
2205054436 0.751582 -0.184445
2206540315 0.748853 -0.176991
2208026194 0.784693 -0.146963
2209512073 0.749127 -0.179913
2210997952 0.744668 -0.177008
2212483831 0.746084 -0.18304
2213969710 0.740008 -0.185984
2215455589 0.740042 -0.180257
2216941468 0.736957 -0.177003
2218427347 0.731772 -0.179482
2219913226 0.731244 -0.178573
2221399105 0.731329 -0.181011
2222884984 0.735689 -0.177566
2224370863 0.738043 -0.181428
2225856742 0.740815 -0.183023
2227342621 0.742351 -0.18594
2228828500 0.745008 -0.185703
2230314379 0.747219 -0.185943
2231800258 0.749353 -0.184651
2233286137 0.745614 -0.183941
2234772016 0.747698 -0.183122
2236257895 0.75218 -0.182452
2237743774 0.7462 -0.183225
2239229653 0.74056 -0.187286
2240715532 0.743686 -0.185184
2242201411 0.748067 -0.175968
2243687290 0.745395 -0.179782
2245173169 0.744525 -0.179088
2246659048 0.739902 -0.180793
2248144927 0.737824 -0.180174
2249630806 0.730215 -0.180105
2251116685 0.734543 -0.177682
2252602564 0.73711 -0.178909
2254088443 0.739328 -0.180466
2255574322 0.742156 -0.180754
2257060201 0.741275 -0.181991
2258546080 0.744329 -0.184243
2260031959 0.745058 -0.181132
2261517838 0.748898 -0.180359
2263003717 0.741617 -0.180209
2264489596 0.752089 -0.178072
2265975475 0.745277 -0.181149
2267461354 0.746757 -0.177609
2268947233 0.86516 -0.204104
2270433112 0.745384 -0.180012
2271918991 0.742475 -0.180584
2273404870 0.740051 -0.182006
2274890749 0.740047 -0.179257
2276376628 0.73708 -0.177989
2277862507 0.730103 -0.176118
2279348386 0.727212 -0.180005
2280834265 0.732946 -0.180139
2282320144 0.730971 -0.181164
2283806023 0.732223 -0.183473
2285291902 0.733292 -0.183236
2286777781 0.734472 -0.184112
2288263660 0.745611 -0.181143
2289749539 0.741613 -0.181643
2291235418 0.742378 -0.183053
2292721297 0.745678 -0.18062
2294207176 0.74321 -0.180758
2295693055 0.745793 -0.178474
2297178934 0.741818 -0.182292
2298664813 0.743576 -0.177216
2300150692 0.740873 -0.17568
2301636571 0.741203 -0.177895
2303122450 0.746648 -0.176938
2304608329 0.739428 -0.178826
2306094208 0.736499 -0.173006
2307580087 0.733368 -0.18158
2309065966 0.736828 -0.166539
2310551845 0.734931 -0.166256
2312037724 0.734069 -0.170802
2313523603 0.73003 -0.175091
2315009482 0.732247 -0.179165
2316495361 0.737448 -0.175275
2317981240 0.741582 -0.175538
2319467119 0.736652 -0.172472
2320952998 0.742029 -0.173405
2322438877 0.738672 -0.17807
2323924756 0.736983 -0.176952
2325410635 0.742221 -0.177176
2326896514 0.733473 -0.177038
2328382393 0.739081 -0.173063
2329868272 0.741562 -0.168888
2331354151 0.737241 -0.172252
2332840030 0.733264 -0.177328
2334325909 0.73063 -0.173174
2335811788 0.725544 -0.177575
2337297667 0.730713 -0.173369
2338783546 0.72329 -0.178558
2340269425 0.726027 -0.176723
2341755304 0.728677 -0.171819
2343241183 0.732807 -0.17898
2344727062 0.736402 -0.169987
2346212941 0.730754 -0.175863
2347698820 0.737078 -0.171858
2349184699 0.740182 -0.175111
2350670578 0.73871 -0.175477
2352156457 0.742672 -0.166755
2353642336 0.73821 -0.176404
2355128215 0.741757 -0.172616
2356614094 0.744445 -0.172366
2358099973 0.744467 -0.177582
2359585852 0.739507 -0.169623
2361071731 0.738457 -0.177755
2362557610 0.740534 -0.172835
2364043489 0.735269 -0.17408
2365529368 0.730828 -0.173516
2367015247 0.726386 -0.181084
2368501126 0.735937 -0.165718
2369987005 0.726371 -0.171171
2371472884 0.730005 -0.173515
2372958763 0.735692 -0.168822
2374444642 0.733387 -0.171193
2375930521 0.737608 -0.170929
2377416400 0.734946 -0.167625
2378902279 0.741809 -0.171688
2380388158 0.746735 -0.16047
2381874037 0.732704 -0.184573
2383359916 0.748575 -0.157618
2384845795 0.739907 -0.177337
2386331674 0.736027 -0.17864
2387817553 0.740752 -0.170721
2389303432 0.743005 -0.168482
2390789311 0.739247 -0.177071
2392275190 0.738097 -0.16411
2393761069 0.732261 -0.171006
2395246948 0.732645 -0.165186
2396732827 0.732085 -0.165635
2398218706 0.726139 -0.172497
2399704585 0.721443 -0.171578
2401190464 0.727031 -0.169059
2402676343 0.725251 -0.172731
2404162222 0.73477 -0.173089
2405648101 0.7325 -0.179446
2407133980 0.736333 -0.175656
2408619859 0.733817 -0.173404
2410105738 0.733936 -0.176496
2411591617 0.734665 -0.175659
2413077496 0.735293 -0.176933
2414563375 0.737333 -0.174544
2416049254 0.737093 -0.173307
2417535133 0.738643 -0.182216
2419021012 0.74533 -0.165681
2420506891 0.736953 -0.176866
2421992770 0.735468 -0.183822
2423478649 0.734086 -0.175536
2424964528 0.736981 -0.176683
2426450407 0.730673 -0.179539
2427936286 0.728263 -0.183433
2429422165 0.72332 -0.181685
2430908044 0.718754 -0.190879
2432393923 0.72109 -0.1794
2433879802 0.730798 -0.190687
2435365681 0.729944 -0.190066
2436851560 0.736365 -0.178659
2438337439 0.737204 -0.181627
2439823318 0.735243 -0.180291
2441309197 0.742844 -0.173911
2442795076 0.734549 -0.176023
2444280955 0.742136 -0.177024
2445766834 0.745497 -0.176202
2447252713 0.736513 -0.174915
2448738592 0.747957 -0.169403
2450224471 0.735356 -0.170072
2451710350 0.736506 -0.169554
2453196229 0.73601 -0.178505
2454682108 0.730438 -0.174643
2456167987 0.728193 -0.167821
2457653866 0.724216 -0.17322
2459139745 0.728897 -0.169214
2460625624 0.722957 -0.168089
2462111503 0.724675 -0.166408
2463597382 0.731658 -0.161006
2465083261 0.727225 -0.174494
2466569140 0.738405 -0.171167
2468055019 0.732459 -0.170459
2469540898 0.739548 -0.17707
2471026777 0.739619 -0.171178
2472512656 0.738733 -0.174315
2473998535 0.738261 -0.179374
2475484414 0.741299 -0.170559
2476970293 0.734881 -0.168992
2478456172 0.74287 -0.17435
2479942051 0.741606 -0.164921
2481427930 0.735049 -0.172753
2482913809 0.741502 -0.175234
2484399688 0.729881 -0.167217
2485885567 0.730189 -0.173084
2487371446 0.73267 -0.174897
2488857325 0.728874 -0.16909
2490343204 0.730955 -0.176081
2491829083 0.728046 -0.170651
2493314962 0.733567 -0.167773
2494800841 0.736529 -0.16478
2496286720 0.743665 -0.167622
2497772599 0.741956 -0.172266
2499258478 0.741724 -0.172887
2500744357 0.744596 -0.168586
2502230236 0.745209 -0.173969
2503716115 0.747847 -0.178134
2505201994 0.743994 -0.171246
2506687873 0.742551 -0.17363
2508173752 0.746373 -0.173847
2509659631 0.737842 -0.172405
2511145510 0.740882 -0.167085
2512631389 0.736505 -0.16375
2514117268 0.739289 -0.171237
2515603147 0.735655 -0.170432
2517089026 0.730909 -0.164838
2518574905 0.72739 -0.169397
2520060784 0.727321 -0.158472
2521546663 0.728757 -0.173341
2523032542 0.731448 -0.168012
2524518421 0.734555 -0.170264
2526004300 0.732425 -0.170778
2527490179 0.738551 -0.175524
2528976058 0.734721 -0.172883
2530461937 0.738407 -0.173443
2531947816 0.742404 -0.176278
2533433695 0.744692 -0.176481
2534919574 0.742924 -0.165485
2536405453 0.742511 -0.169715
2537891332 0.73909 -0.167554
2539377211 0.741259 -0.167003
2540863090 0.742564 -0.175622
2542348969 0.738981 -0.172096
2543834848 0.736137 -0.172537
2545320727 0.735879 -0.173992
2546806606 0.729458 -0.176372
2548292485 0.727529 -0.167715
2549778364 0.724345 -0.167872
2551264243 0.725408 -0.171481
2552750122 0.733263 -0.169642
2554236001 0.732485 -0.179796
2555721880 0.733889 -0.172845
2557207759 0.734283 -0.173594
2558693638 0.736602 -0.167131
2560179517 0.740582 -0.176215
2561665396 0.741958 -0.173519
2563151275 0.740687 -0.175034
2564637154 0.744784 -0.172199
2566123033 0.739853 -0.169978
2567608912 0.73972 -0.171406
2569094791 0.704027 -0.130028
2570580670 0.727121 -0.18625
2572066549 0.736627 -0.167114
2573552428 0.732974 -0.167054
2575038307 0.732674 -0.173471
2576524186 0.727079 -0.172141
2578010065 0.724851 -0.164418
2579495944 0.722898 -0.168316
2580981823 0.72235 -0.172685
2582467702 0.727899 -0.171779
2583953581 0.730347 -0.164768
2585439460 0.729182 -0.17332
2586925339 0.72714 -0.177927
2588411218 0.732342 -0.170372
2589897097 0.73465 -0.167954
2591382976 0.736338 -0.16189
2592868855 0.737147 -0.171314
2594354734 0.726142 -0.181198
2595840613 0.730769 -0.164898
2597326492 0.742313 -0.155612
2598812371 0.735021 -0.16879
2600298250 0.736748 -0.164472
2601784129 0.729955 -0.165968
2603270008 0.72955 -0.162555
2604755887 0.725764 -0.165897
2606241766 0.722487 -0.166123
2607727645 0.723942 -0.163074
2609213524 0.721807 -0.162967
2610699403 0.719742 -0.165117
2612185282 0.723025 -0.166487
2613671161 0.723476 -0.170048
2615157040 0.726894 -0.1672
2616642919 0.728025 -0.171405
2618128798 0.728963 -0.169627
2619614677 0.732657 -0.162678
2621100556 0.731526 -0.169546
2622586435 0.73252 -0.173592
2624072314 0.696576 -0.147964
2625558193 0.732868 -0.176881
2627044072 0.729899 -0.16529
2628529951 0.732897 -0.161735
2630015830 0.734573 -0.168069
2631501709 0.726021 -0.173294
2632987588 0.729558 -0.167076
2634473467 0.723575 -0.164015
2635959346 0.727907 -0.157665
2637445225 0.722188 -0.159956
2638931104 0.715317 -0.161563
2640416983 0.719036 -0.161452
2641902862 0.716203 -0.169999
2643388741 0.722083 -0.161512
2644874620 0.722129 -0.172873
2646360499 0.726387 -0.172057
2647846378 0.728309 -0.168144
2649332257 0.722165 -0.172243
2650818136 0.734416 -0.162067
2652304015 0.734282 -0.166131
2653789894 0.728407 -0.172673
2655275773 0.737788 -0.169924
2656761652 0.731376 -0.166908
2658247531 0.726472 -0.172439
2659733410 0.726103 -0.172176
2661219289 0.731385 -0.174918
2662705168 0.727583 -0.167395
2664191047 0.729781 -0.167815
2665676926 0.722233 -0.169269
2667162805 0.72894 -0.169412
2668648684 0.722756 -0.165342
2670134563 0.725341 -0.173195
2671620442 0.718639 -0.173632
2673106321 0.718009 -0.173924
2674592200 0.719433 -0.172465
2676078079 0.726627 -0.173965
2677563958 0.72255 -0.173108
2679049837 0.726612 -0.170895
2680535716 0.733687 -0.177584
2682021595 0.731148 -0.174752
2683507474 0.729817 -0.170459
2684993353 0.734269 -0.170319
2686479232 0.724657 -0.181256
2687965111 0.751808 -0.181067
2689450990 0.730345 -0.169987
2690936869 0.732936 -0.16889
2692422748 0.724647 -0.174368
2693908627 0.726397 -0.177721
2695394506 0.730143 -0.169843
2696880385 0.723826 -0.172588
2698366264 0.716434 -0.168947
2699852143 0.711413 -0.172806
2701338022 0.713236 -0.176965
2702823901 0.724996 -0.180368
2704309780 0.729046 -0.170831
2705795659 0.721481 -0.17596
2707281538 0.731671 -0.170654
2708767417 0.730566 -0.178102
2710253296 0.745971 -0.174562
2711739175 0.734006 -0.178486
2713225054 0.730783 -0.181219
2714710933 0.728138 -0.177027
2716196812 0.735658 -0.17116
2717682691 0.746669 -0.169548
2719168570 0.744208 -0.16381
2720654449 0.746125 -0.161864
2722140328 0.734973 -0.164355
2723626207 0.732808 -0.166412
2725112086 0.731111 -0.168763
2726597965 0.725674 -0.166995
2728083844 0.726513 -0.163954
2729569723 0.726311 -0.158001
2731055602 0.724953 -0.158709
2732541481 0.727405 -0.166585
2734027360 0.731053 -0.165903
2735513239 0.735935 -0.161457
2736999118 0.733993 -0.162581
2738484997 0.734756 -0.174566
2739970876 0.749107 -0.16063
2741456755 0.735097 -0.168997
2742942634 0.742144 -0.157982
2744428513 0.739528 -0.165728
2745914392 0.740286 -0.164976
2747400271 0.743735 -0.162327
2748886150 0.742318 -0.162588
2750372029 0.738192 -0.160337
2751857908 0.741964 -0.161525
2753343787 0.740709 -0.156476
2754829666 0.738204 -0.152552
2756315545 0.731875 -0.160307
2757801424 0.724401 -0.162865
2759287303 0.727569 -0.158831
2760773182 0.730892 -0.160515
2762259061 0.725864 -0.16587
2763744940 0.733593 -0.163613
2765230819 0.737412 -0.157207
2766716698 0.73925 -0.161883
2768202577 0.738859 -0.157006
2769688456 0.741616 -0.157542
2771174335 0.733659 -0.173
2772660214 0.739672 -0.162862
2774146093 0.738181 -0.166942
2775631972 0.73932 -0.158654
2777117851 0.737537 -0.16343
2778603730 0.737371 -0.16606
2780089609 0.729837 -0.176686
2781575488 0.731913 -0.167579
2783061367 0.73355 -0.163756
2784547246 0.728003 -0.161293
2786033125 0.725831 -0.170572
2787519004 0.72172 -0.174687
2789004883 0.719052 -0.160539
2790490762 0.721826 -0.159971
2791976641 0.715281 -0.165283
2793462520 0.725246 -0.167697
2794948399 0.730488 -0.167522
2796434278 0.732238 -0.163006
2797920157 0.727134 -0.180344
2799406036 0.734707 -0.16194
2800891915 0.732888 -0.171623
2802377794 0.734961 -0.18471
2803863673 0.744172 -0.16666
2805349552 0.737398 -0.160394
2806835431 0.738781 -0.183862
2808321310 0.737413 -0.172236
2809807189 0.737754 -0.159846
2811293068 0.732927 -0.169689
2812778947 0.740133 -0.150648
2814264826 0.737504 -0.15488
2815750705 0.72813 -0.17476
2817236584 0.726036 -0.168345
2818722463 0.715322 -0.165032
2820208342 0.720371 -0.153376
2821694221 0.735962 -0.160833
2823180100 0.72495 -0.172927
2824665979 0.725767 -0.161683
2826151858 0.737976 -0.165919
2827637737 0.733195 -0.160015
2829123616 0.735076 -0.157756
2830609495 0.735957 -0.174974
2832095374 0.741899 -0.172016
2833581253 0.728548 -0.18532
2835067132 0.730839 -0.175612
2836553011 0.740413 -0.167278
2838038890 0.731339 -0.168159
2839524769 0.731524 -0.166249
2841010648 0.735465 -0.168585
2842496527 0.732933 -0.163502
2843982406 0.72901 -0.159449
2845468285 0.727773 -0.149111
2846954164 0.723148 -0.156197
2848440043 0.71787 -0.174608
2849925922 0.718189 -0.173284
2851411801 0.729018 -0.170211
2852897680 0.727263 -0.158485
2854383559 0.729638 -0.157124
2855869438 0.730382 -0.148728
2857355317 0.724023 -0.162652
2858841196 0.733886 -0.152723
2860327075 0.720884 -0.165762
2861812954 0.737763 -0.175404
2863298833 0.72977 -0.16676
2864784712 0.731682 -0.152264
2866270591 0.734324 -0.163126
2867756470 0.732135 -0.172642
2869242349 0.721873 -0.156494
2870728228 0.722108 -0.168629
2872214107 0.72758 -0.159431
2873699986 0.722109 -0.157967
2875185865 0.729841 -0.148483
2876671744 0.725075 -0.150308
2878157623 0.715485 -0.153837
2879643502 0.708307 -0.146945
2881129381 0.709574 -0.152316
2882615260 0.714238 -0.165504
2884101139 0.725038 -0.166511
2885587018 0.721086 -0.168761
2887072897 0.72184 -0.166883
2888558776 0.717149 -0.169196
2890044655 0.720162 -0.157729
2891530534 0.728334 -0.171399
2893016413 0.729396 -0.164479
2894502292 0.729894 -0.170967
2895988171 0.727773 -0.174394
2897474050 0.721141 -0.166179
2898959929 0.719925 -0.166768
2900445808 0.714344 -0.159263
2901931687 0.720621 -0.168934
2903417566 0.720177 -0.164904
2904903445 0.715683 -0.162683
2906389324 0.715042 -0.158845
2907875203 0.711765 -0.160146
2909361082 0.703788 -0.15294
2910846961 0.712939 -0.162235
2912332840 0.718791 -0.165514
2913818719 0.712174 -0.16028
2915304598 0.727618 -0.167891
2916790477 0.722855 -0.169744
2918276356 0.725906 -0.170023
2919762235 0.723417 -0.167371
2921248114 0.727738 -0.157626
2922733993 0.740684 -0.166499
2924219872 0.732844 -0.164707
2925705751 0.739175 -0.170363
2927191630 0.731906 -0.165584
2928677509 0.731239 -0.164918
2930163388 0.732549 -0.167338
2931649267 0.729476 -0.158152
2933135146 0.728603 -0.161329
2934621025 0.727102 -0.162814
2936106904 0.727094 -0.158362
2937592783 0.729245 -0.153814
2939078662 0.724332 -0.155938
2940564541 0.718775 -0.151574
2942050420 0.72273 -0.151416
2943536299 0.726628 -0.154397
2945022178 0.732795 -0.154143
2946508057 0.733906 -0.158025
2947993936 0.732125 -0.156534
2949479815 0.738961 -0.156996
2950965694 0.734207 -0.162425
2952451573 0.73792 -0.15925
2953937452 0.736544 -0.15713
2955423331 0.737312 -0.15819
2956909210 0.7341 -0.158353
2958395089 0.735924 -0.15768
2959880968 0.73551 -0.160475
2961366847 0.729032 -0.163456
2962852726 0.730379 -0.147661
2964338605 0.733444 -0.154027
2965824484 0.726751 -0.154946
2967310363 0.724751 -0.154891
2968796242 0.716489 -0.14957
2970282121 0.718418 -0.15424
2971768000 0.720972 -0.150403
2973253879 0.725198 -0.15027
2974739758 0.725831 -0.157237
2976225637 0.724271 -0.158042
2977711516 0.728001 -0.159176
2979197395 0.733096 -0.152102
2980683274 0.732593 -0.157816
2982169153 0.72995 -0.15614
2983655032 0.732649 -0.157351
2985140911 0.732416 -0.157786
2986626790 0.72828 -0.159658
2988112669 0.732042 -0.16032
2989598548 0.733918 -0.153116
2991084427 0.73184 -0.157074
2992570306 0.729439 -0.15403
2994056185 0.728465 -0.155798
2995542064 0.7244 -0.157158
2997027943 0.720341 -0.160955
2998513822 0.720672 -0.153999
2999999701 0.718284 -0.15016
