# HZ S RI R 50
10000 0.9090453333333334 -0.14381466666666667
1495879 0.7677646666666665 1.1453826666666667
2981758 0.5778443333333333 0.6891443333333332
4467637 0.5812693333333333 0.32675133333333334
5953516 0.6510286666666666 0.13731000000000002
7439395 0.7435483333333334 0.012025333333333332
8925274 1.0579723333333335 -0.061331000000000004
10411153 1.096567 0.037842
11897032 1.083846 0.16874533333333333
13382911 1.0160543333333332 0.29122333333333333
14868790 0.9130726666666665 0.37831866666666664
16354669 0.8007476666666666 0.423916
17840548 0.696965 0.4376613333333334
19326427 0.6082783333333334 0.4307493333333334
20812306 0.5354450000000001 0.41209
22298185 0.47715 0.388498
23784064 0.42980833333333335 0.36243566666666666
25269943 0.3915126666666667 0.336054
26755822 0.3600463333333333 0.31143000000000004
28241701 0.3342243333333333 0.288033
29727580 0.31343666666666664 0.27540366666666666
31213459 0.32283999999999996 0.250682
32699338 0.33924166666666666 0.23617966666666668
34185217 0.354416 0.22231866666666666
35671096 0.3694596666666667 0.20653366666666664
37156975 0.3843813333333333 0.187045
38642854 0.39826933333333336 0.17026366666666667
40128733 0.41228299999999996 0.14734966666666668
41614612 0.4250766666666667 0.13525366666666663
43100491 0.43868766666666664 0.11736
44586370 0.45106666666666667 0.09700766666666667
46072249 0.46484233333333336 0.07124366666666666
47558128 0.47920266666666667 0.054174
49044007 0.495611 0.036642666666666664
50529886 0.514367 0.021646666666666665
52015765 0.535826 -0.008356
53501644 0.5644706666666667 -0.027467666666666668
54987523 0.602195 -0.050722666666666666
56473402 0.653971 -0.09261533333333333
57959281 0.7420016666666666 -0.11133733333333333
59445160 0.903308 -0.08002033333333333
60931039 0.9967876666666666 -0.06737066666666666
62416918 0.9999600000000001 -0.07755466666666666
63902797 1.0022216666666666 -0.08793533333333332
65388676 1.0041646666666668 -0.09786166666666667
66874555 1.0069 -0.09446133333333334
68360434 1.0030073333333334 -0.16106266666666666
69846313 1.0137979999999998 -0.07872933333333333
71332192 1.0141446666666667 -0.06784466666666666
72818071 1.011734 -0.11297366666666665
74303950 1.01374 -0.10508333333333335
75789829 1.0171033333333332 -0.038773
77275708 1.0156843333333334 -0.04141466666666667
78761587 1.016326 -0.041382666666666665
80247466 1.0045140000000001 -0.15930466666666668
81733345 1.0079613333333335 -0.111552
83219224 1.0049126666666666 -0.12931633333333334
84705103 0.9989893333333333 -0.1487706666666667
86190982 1.0055536666666667 -0.024133
87676861 0.9933986666666667 -0.14114333333333332
89162740 0.9922586666666667 -0.11632733333333334
90648619 0.9893689999999999 -0.13562466666666667
92134498 0.9943423333333333 -0.128638
93620377 1.0001863333333334 -0.103222
95106256 0.9991323333333333 -0.13005533333333333
96592135 1.0010463333333335 -0.130227
98078014 1.0039383333333332 -0.12619666666666668
99563893 1.0056859999999999 -0.12329400000000001
101049772 1.006718 -0.13815633333333333
102535651 1.0068323333333333 -0.13878500000000002
104021530 1.0071076666666665 -0.14105633333333334
105507409 1.0063323333333332 -0.14186166666666666
106993288 1.0057426666666667 -0.144726
108479167 1.0051493333333335 -0.14483433333333334
109965046 1.0035063333333332 -0.14682233333333333
111450925 1.0009893333333333 -0.14805000000000001
112936804 0.9987626666666666 -0.14873466666666668
114422683 0.995889 -0.149099
115908562 0.9936366666666666 -0.15052266666666667
117394441 0.9899770000000001 -0.1516846666666667
118880320 0.9870226666666667 -0.153214
120366199 0.9843533333333333 -0.15469266666666667
121852078 0.9876866666666667 -0.157168
123337957 0.9914973333333332 -0.160439
124823836 0.9953196666666666 -0.162377
126309715 0.9982716666666667 -0.16482366666666667
127795594 1.0009203333333334 -0.167181
129281473 1.0040383333333334 -0.16931466666666664
130767352 1.004479 -0.171705
132253231 1.0065730000000002 -0.17210500000000004
133739110 1.0079293333333335 -0.175001
135224989 0.9924506666666667 -0.18519733333333332
136710868 0.9914833333333334 -0.18660633333333335
138196747 0.9912783333333334 -0.18783933333333333
139682626 0.990968 -0.18906799999999999
141168505 0.9895753333333334 -0.18967333333333333
142654384 0.9878270000000001 -0.19096633333333332
144140263 0.9864766666666668 -0.19163866666666665
145626142 0.9839646666666667 -0.19172833333333336
147112021 0.9813679999999999 -0.19352
148597900 0.9782496666666667 -0.19426033333333334
150083779 0.9752330000000001 -0.1942866666666667
151569658 0.9786259999999999 -0.197415
153055537 0.9809950000000001 -0.19998966666666665
154541416 0.9831573333333333 -0.202989
156027295 0.9853423333333332 -0.20411733333333335
157513174 0.9876886666666667 -0.20709233333333332
158999053 0.989207 -0.209027
160484932 0.989837 -0.21056966666666665
161970811 0.9906866666666666 -0.21233899999999997
163456690 0.990767 -0.213772
164942569 0.9898363333333333 -0.21527933333333335
166428448 0.9893253333333333 -0.21676933333333334
167914327 0.9885433333333333 -0.21750766666666665
169400206 0.9871026666666666 -0.22000966666666666
170886085 0.9855123333333333 -0.22143566666666667
172371964 0.881045 -0.210388
173857843 0.980791 -0.22294899999999998
175343722 0.9775016666666666 -0.22451266666666667
176829601 0.9739599999999999 -0.22641033333333335
178315480 0.970398 -0.227877
179801359 0.9665163333333334 -0.22998766666666667
181287238 0.9685083333333333 -0.23273533333333332
182773117 0.9714459999999999 -0.23404500000000003
184258996 0.974208 -0.23727466666666666
185744875 0.9767676666666666 -0.23926266666666665
187230754 0.9788899999999999 -0.241298
188716633 0.9801476666666665 -0.24426333333333336
190202512 0.9812013333333333 -0.24533766666666668
191688391 0.9826383333333334 -0.2475993333333333
193174270 0.9826216666666667 -0.249097
194660149 0.9820193333333332 -0.250697
196146028 0.9814656666666667 -0.2526293333333333
197631907 0.9802953333333333 -0.253924
199117786 0.9790623333333333 -0.25501
200603665 0.97743 -0.25655433333333333
202089544 0.9745603333333334 -0.25922533333333336
203575423 0.9721573333333332 -0.2599743333333333
205061302 0.969215 -0.2615883333333333
206547181 0.9643246666666667 -0.26323300000000005
208033060 0.9604436666666666 -0.26506199999999996
209518939 0.9560276666666666 -0.2673403333333333
211004818 0.9575266666666667 -0.269641
212490697 0.9609390000000001 -0.2717243333333333
213976576 0.9638713333333334 -0.27551
215462455 0.9663523333333334 -0.276596
216948334 0.9678213333333333 -0.2794526666666666
218434213 0.9698743333333333 -0.28165333333333337
219920092 0.9708186666666666 -0.28330000000000005
221405971 0.9725083333333333 -0.28445
222891850 0.9725286666666667 -0.28759033333333334
224377729 0.9724133333333334 -0.28825033333333333
225863608 0.9716480000000001 -0.289595
227349487 0.9701749999999999 -0.290535
228835366 0.969496 -0.292999
230321245 0.96699 -0.29494966666666667
231807124 0.9640983333333333 -0.29593200000000003
233293003 0.960657 -0.29733366666666666
234778882 0.957389 -0.29844166666666666
236264761 0.9530853333333332 -0.29986533333333326
237750640 0.9487533333333333 -0.30146300000000004
239236519 0.9443883333333333 -0.30332733333333334
240722398 0.9431346666666666 -0.30585866666666667
242208277 0.946789 -0.30902233333333334
243694156 0.9497873333333334 -0.311613
245180035 0.9526233333333334 -0.31420166666666666
246665914 0.9547583333333334 -0.316857
248151793 0.9570469999999999 -0.3191446666666667
249637672 0.958878 -0.320964
251123551 0.9593196666666666 -0.32320266666666664
252609430 0.9595953333333332 -0.3241836666666667
254095309 0.9591046666666667 -0.32608733333333334
255581188 0.9588286666666667 -0.327135
257067067 0.9572773333333334 -0.32862366666666665
258552946 0.955766 -0.32975266666666664
260038825 0.9531850000000001 -0.3316303333333333
261524704 0.9506406666666667 -0.33200233333333334
263010583 0.9482229999999999 -0.33313600000000004
264496462 0.9443156666666667 -0.33434366666666665
265982341 0.9395733333333333 -0.33632066666666666
267468220 0.935383 -0.3368503333333333
268954099 0.9293399999999999 -0.3382173333333333
270439978 0.9271750000000001 -0.340529
271925857 0.9305363333333334 -0.3436416666666666
273411736 0.9338923333333332 -0.34713700000000003
274897615 0.9369736666666667 -0.34950666666666663
276383494 0.9391033333333333 -0.35266366666666665
277869373 0.9417063333333333 -0.35581100000000004
279355252 0.9428869999999999 -0.357848
280841131 0.943763 -0.359577
282327010 0.9444396666666667 -0.360624
283812889 0.9440763333333333 -0.36350466666666664
285298768 0.9439169999999999 -0.3651336666666667
286784647 0.9421296666666666 -0.3665153333333333
288270526 0.9410023333333334 -0.3664266666666667
289756405 0.938613 -0.3684096666666667
291242284 0.936279 -0.36921133333333334
292728163 0.9327473333333334 -0.369142
294214042 0.9296703333333333 -0.3710423333333333
295699921 0.9251833333333334 -0.37138133333333334
297185800 0.9205193333333334 -0.3723273333333333
298671679 0.9155426666666666 -0.37284366666666663
300157558 0.911018 -0.37333333333333335
301643437 0.9140199999999999 -0.3778916666666667
303129316 0.9163969999999999 -0.38226933333333335
304615195 0.9194923333333334 -0.3853513333333333
306101074 0.9223586666666667 -0.38796866666666663
307586953 0.923542 -0.391548
309072832 0.9260766666666668 -0.39393866666666666
310558711 0.9272863333333334 -0.395602
312044590 0.9282493333333335 -0.397224
313530469 0.9282396666666667 -0.399387
315016348 0.9271699999999999 -0.400085
316502227 0.927059 -0.4021533333333333
317988106 0.9241903333333333 -0.4022513333333333
319473985 0.9228603333333334 -0.4035203333333333
320959864 0.9201613333333333 -0.403379
322445743 0.9174246666666667 -0.4042973333333333
323931622 0.9140953333333334 -0.4050766666666667
325417501 0.9097026666666667 -0.4052793333333333
326903380 0.8980413333333334 -0.41353599999999996
328389259 0.8993846666666667 -0.40540366666666666
329875138 0.8954433333333333 -0.40463999999999994
331361017 0.8981713333333333 -0.4030606666666667
332846896 0.8994593333333333 -0.4133826666666667
334332775 0.9013233333333334 -0.41697500000000004
335818654 0.9054886666666667 -0.4152363333333333
337304533 0.9046 -0.42239166666666667
338790412 0.9062039999999999 -0.425624
340276291 0.9052859999999999 -0.42888566666666667
341762170 0.9067753333333334 -0.43010366666666666
343248049 0.906267 -0.43147566666666665
344733928 0.9058620000000001 -0.433489
346219807 0.9047006666666667 -0.4351403333333333
347705686 0.9025813333333333 -0.4357853333333333
349191565 0.900271 -0.43602100000000005
350677444 0.8988253333333333 -0.43701066666666666
352163323 0.8988839999999999 -0.4320713333333333
353649202 0.8903163333333334 -0.43787
355135081 0.8897366666666667 -0.432725
356620960 0.8833356666666666 -0.437878
358106839 0.8803700000000001 -0.4327286666666666
359592718 0.8721796666666667 -0.4377686666666667
361078597 0.8756086666666666 -0.435905
362564476 0.8746333333333333 -0.44523533333333337
364050355 0.8800996666666666 -0.444369
365536234 0.8785826666666666 -0.4529586666666667
367022113 0.8843583333333332 -0.45068933333333333
368507992 0.8817503333333333 -0.45834899999999995
369993871 0.8856999999999999 -0.4560053333333333
371479750 0.8829233333333334 -0.46348199999999995
372965629 0.8868170000000001 -0.4590806666666667
374451508 0.8828326666666667 -0.4658063333333333
375937387 0.8855176666666665 -0.4616766666666667
377423266 0.880494 -0.4680613333333333
378909145 0.8797666666666667 -0.4669506666666667
380395024 0.877716 -0.46855
381880903 0.8734006666666666 -0.4695593333333334
383366782 0.870219 -0.469949
384852661 0.8668423333333334 -0.4701736666666667
386338540 0.8637033333333334 -0.46845866666666663
387824419 0.858939 -0.4677016666666667
389310298 0.8549836666666666 -0.4669563333333333
390796177 0.853241 -0.469836
392282056 0.855378 -0.47442066666666666
393767935 0.8574643333333333 -0.4774123333333334
395253814 0.8588923333333334 -0.4808926666666667
396739693 0.8608403333333333 -0.483485
398225572 0.86095 -0.48704733333333333
399711451 0.8621443333333333 -0.48886266666666667
401197330 0.861424 -0.49213966666666664
402683209 0.8619786666666668 -0.49321366666666666
404169088 0.8620326666666666 -0.493226
405654967 0.861094 -0.4961453333333334
407140846 0.8599266666666666 -0.49640733333333337
408626725 0.8579856666666666 -0.496242
410112604 0.8566833333333334 -0.49796999999999997
411598483 0.8539153333333332 -0.4972106666666667
413084362 0.8506236666666668 -0.497623
414570241 0.8473176666666666 -0.4978283333333334
416056120 0.8432906666666667 -0.4962613333333333
417541999 0.8402506666666666 -0.49612133333333336
419027878 0.8354596666666666 -0.4951556666666666
420513757 0.8330373333333333 -0.49649499999999996
421999636 0.8351216666666667 -0.5014256666666667
423485515 0.8347113333333334 -0.505036
424971394 0.837007 -0.5083416666666666
426457273 0.838038 -0.5102396666666668
427943152 0.8389956666666666 -0.51439
429429031 0.839591 -0.5156196666666667
430914910 0.8392756666666666 -0.518134
432400789 0.8403476666666667 -0.5190426666666667
433886668 0.840075 -0.5217103333333333
435372547 0.8390906666666668 -0.5225353333333334
436858426 0.8373546666666667 -0.524748
438344305 0.8367956666666666 -0.5237866666666666
439830184 0.8336709999999999 -0.5258663333333334
441316063 0.8311860000000001 -0.525219
442801942 0.8284056666666667 -0.5243676666666667
444287821 0.8259073333333333 -0.5254333333333333
445773700 0.8212763333333334 -0.5259326666666666
447259579 0.8176966666666668 -0.5249923333333334
448745458 0.8126843333333333 -0.5245966666666667
450231337 0.808786 -0.5245693333333333
451717216 0.8102606666666667 -0.5296986666666667
453203095 0.8142803333333334 -0.5312123333333333
454688974 0.8154743333333333 -0.534603
456174853 0.8160633333333333 -0.537457
457660732 0.8180053333333334 -0.5404779999999999
459146611 0.8175336666666667 -0.5429823333333333
460632490 0.818651 -0.5442823333333333
462118369 0.8182396666666666 -0.547348
463604248 0.8166700000000001 -0.5470493333333334
465090127 0.8158043333333334 -0.5482983333333333
466576006 0.8141326666666666 -0.5494439999999999
468061885 0.8133050000000001 -0.5501553333333332
469547764 0.7712896666666667 -0.5562723333333334
471033643 0.81293 -0.5453830000000001
472519522 0.8071606666666667 -0.5497323333333334
474005401 0.8037793333333334 -0.549235
475491280 0.800478 -0.5484546666666666
476977159 0.7961396666666666 -0.5478576666666667
478463038 0.7918246666666667 -0.5478366666666666
479948917 0.7841049999999999 -0.551952
481434796 0.7901190000000001 -0.5498323333333334
482920675 0.7908390000000001 -0.5534866666666667
484406554 0.7923383333333333 -0.5577223333333333
485892433 0.7931750000000001 -0.5604983333333333
487378312 0.7943340000000001 -0.563781
488864191 0.7957643333333334 -0.5659839999999999
490350070 0.796011 -0.5671183333333333
491835949 0.7956303333333333 -0.5687013333333333
493321828 0.795293 -0.569836
494807707 0.7952383333333334 -0.5711499999999999
496293586 0.7903560000000001 -0.576563
497779465 0.7926276666666667 -0.572563
499265344 0.7910266666666668 -0.572715
500751223 0.7886016666666666 -0.5737293333333333
502237102 0.785507 -0.573334
503722981 0.78109 -0.5739763333333333
505208860 0.7797926666666667 -0.5723696666666667
506694739 0.7754813333333334 -0.5720379999999999
508180618 0.7710466666666668 -0.5717606666666667
509666497 0.7670943333333334 -0.570572
511152376 0.7672623333333334 -0.5726686666666666
512638255 0.7701463333333334 -0.5759033333333333
514124134 0.7704223333333333 -0.5807220000000001
515610013 0.7725476666666667 -0.5823483333333334
517095892 0.7729713333333333 -0.586345
518581771 0.774139 -0.5883253333333333
520067650 0.7749543333333334 -0.5901313333333333
521553529 0.7740543333333333 -0.5915293333333334
523039408 0.773362 -0.593078
524525287 0.7737936666666667 -0.5943526666666666
526011166 0.7722606666666666 -0.594717
527497045 0.771175 -0.5958549999999999
528982924 0.7692169999999999 -0.5954786666666667
530468803 0.7675770000000001 -0.5965953333333333
531954682 0.7643566666666667 -0.596184
533440561 0.7616243333333333 -0.595152
534926440 0.7571053333333334 -0.5953143333333334
536412319 0.7543136666666665 -0.5942476666666666
537898198 0.7481163333333334 -0.593798
539384077 0.7458396666666666 -0.5918823333333333
540869956 0.7434163333333332 -0.5947953333333333
542355835 0.747229 -0.5967846666666666
543841714 0.747867 -0.6002190000000001
545327593 0.7496993333333334 -0.602
546813472 0.7513529999999999 -0.6029240000000001
548299351 0.7511570000000001 -0.6056473333333333
549785230 0.7525130000000001 -0.6067976666666667
551271109 0.752708 -0.607565
552756988 0.752961 -0.607692
554242867 0.7521316666666666 -0.6069693333333334
555728746 0.7492703333333334 -0.6070056666666667
557214625 0.7498093333333333 -0.6067723333333334
558700504 0.7470119999999999 -0.6053506666666667
560186383 0.7440493333333333 -0.605279
561672262 0.7414593333333332 -0.6050776666666667
563158141 0.73907 -0.6022016666666667
564644020 0.7350983333333333 -0.6008493333333333
566129899 0.732263 -0.5982933333333333
567615778 0.726557 -0.5961923333333333
569101657 0.7220526666666666 -0.5944893333333333
570587536 0.7193303333333333 -0.5957526666666667
572073415 0.7206426666666667 -0.600852
573559294 0.7214710000000001 -0.603762
575045173 0.7212483333333334 -0.6097383333333334
576531052 0.7214283333333333 -0.6138183333333332
578016931 0.7219123333333334 -0.6171493333333333
579502810 0.7223790000000001 -0.6198866666666666
580988689 0.7224173333333334 -0.6223363333333333
582474568 0.720805 -0.6254713333333334
583960447 0.7203446666666666 -0.627378
585446326 0.7189523333333333 -0.629503
586932205 0.7166883333333334 -0.63122
588418084 0.7152606666666665 -0.632409
589903963 0.7117946666666667 -0.6335233333333333
591389842 0.7100006666666667 -0.6347103333333334
592875721 0.7071246666666666 -0.635024
594361600 0.7036463333333334 -0.6357476666666667
595847479 0.6994020000000001 -0.6349870000000001
597333358 0.6957906666666668 -0.63423
598819237 0.691446 -0.6337936666666667
600305116 0.6868783333333334 -0.6346333333333333
601790995 0.6883916666666666 -0.639131
603276874 0.6892283333333333 -0.6424213333333332
604762753 0.6921779999999998 -0.6471110000000001
606248632 0.6918716666666667 -0.6495993333333333
607734511 0.6932293333333334 -0.6534123333333334
609220390 0.6933316666666668 -0.655953
610706269 0.6944140000000001 -0.6577863333333335
612192148 0.6948340000000001 -0.6591003333333334
613678027 0.6934663333333333 -0.6604763333333333
615163906 0.6936806666666667 -0.6615816666666666
616649785 0.691456 -0.6615856666666666
618135664 0.69074 -0.6616163333333334
619621543 0.688392 -0.6621356666666668
621107422 0.6868556666666668 -0.6608999999999999
622593301 0.6838150000000001 -0.6600473333333333
624079180 0.6814863333333333 -0.659251
625565059 0.6788406666666668 -0.6570519999999999
627050938 0.6754033333333332 -0.6565006666666666
628536817 0.6723976666666666 -0.6529516666666666
630022696 0.6679633333333334 -0.6533019999999999
631508575 0.6692796666666666 -0.656567
632994454 0.6710459999999999 -0.6597036666666667
634480333 0.6705896666666668 -0.664582
635966212 0.6725499999999999 -0.6687063333333333
637452091 0.6728633333333334 -0.6711886666666667
638937970 0.6726009999999999 -0.6732673333333334
640423849 0.6737126666666667 -0.6747056666666666
641909728 0.672609 -0.676647
643395607 0.6736883333333332 -0.6784153333333333
644881486 0.6713013333333334 -0.67742
646367365 0.6716963333333333 -0.678096
647853244 0.6710106666666666 -0.6797216666666667
649339123 0.6689983333333333 -0.6801363333333333
650825002 0.6668096666666666 -0.67916
652310881 0.6641376666666666 -0.6780626666666666
653796760 0.6609616666666667 -0.676773
655282639 0.658794 -0.6758456666666667
656768518 0.655539 -0.6731280000000001
658254397 0.6523953333333333 -0.6703256666666667
659740276 0.6471856666666667 -0.669329
661226155 0.647823 -0.6715486666666667
662712034 0.6493046666666668 -0.674775
664197913 0.6508203333333333 -0.679449
665683792 0.6515986666666668 -0.6813123333333334
667169671 0.6529536666666668 -0.6853596666666667
668655550 0.6530243333333333 -0.6882686666666666
670141429 0.6523126666666667 -0.6900563333333333
671627308 0.6551853333333333 -0.688259
673113187 0.652805 -0.6914583333333333
674599066 0.6530436666666667 -0.6915319999999999
676084945 0.652265 -0.6914866666666667
677570824 0.6504863333333334 -0.6928436666666666
679056703 0.6515283333333333 -0.690095
680542582 0.6491523333333333 -0.6910183333333334
682028461 0.6460453333333334 -0.689701
683514340 0.6447836666666666 -0.6877516666666668
685000219 0.6414230000000001 -0.6853380000000001
686486098 0.6382083333333334 -0.6833983333333333
687971977 0.635487 -0.6821020000000001
689457856 0.6336523333333334 -0.6786016666666667
690943735 0.630764 -0.6802343333333333
692429614 0.6300596666666666 -0.6841400000000001
693915493 0.6304253333333333 -0.6886046666666666
695401372 0.6293396666666667 -0.6920763333333332
696887251 0.630023 -0.6953593333333332
698373130 0.6299389999999999 -0.6971123333333334
699859009 0.6292596666666667 -0.6986776666666668
701344888 0.6277473333333333 -0.7008826666666667
702830767 0.626613 -0.7033363333333332
704316646 0.6273073333333333 -0.7040660000000001
705802525 0.6259516666666666 -0.7027726666666667
707288404 0.624656 -0.7043583333333334
708774283 0.6196983333333334 -0.7056013333333334
710260162 0.6181183333333333 -0.7039076666666667
711746041 0.6141663333333334 -0.7052839999999999
713231920 0.6123986666666666 -0.7034323333333333
714717799 0.607735 -0.70348
716203678 0.6051376666666667 -0.7006863333333334
717689557 0.6016456666666666 -0.6998666666666667
719175436 0.597994 -0.698563
720661315 0.5958886666666666 -0.6999503333333333
722147194 0.594942 -0.7041296666666667
723633073 0.5967456666666667 -0.7077156666666667
725118952 0.5974073333333333 -0.7104536666666667
726604831 0.597536 -0.7128573333333333
728090710 0.6032063333333334 -0.7122993333333333
729576589 0.593246 -0.7202496666666667
731062468 0.6017229999999999 -0.7175236666666667
732548347 0.5930570000000001 -0.7237666666666667
734034226 0.6013873333333334 -0.7188366666666667
735520105 0.5892983333333334 -0.7255546666666667
737005984 0.5997526666666667 -0.7202746666666666
738491863 0.589182 -0.7249206666666667
739977742 0.5953963333333334 -0.7185746666666667
741463621 0.5846713333333334 -0.7236456666666666
742949500 0.591402 -0.7177086666666667
744435379 0.5797883333333335 -0.7220543333333334
745921258 0.587017 -0.7149523333333333
747407137 0.573229 -0.7187263333333332
748893016 0.5799449999999999 -0.711204
750378895 0.5727496666666667 -0.7143846666666667
751864774 0.5734853333333334 -0.7179713333333333
753350653 0.5745046666666666 -0.7211599999999999
754836532 0.5744226666666667 -0.724263
756322411 0.5737156666666667 -0.7264703333333333
757808290 0.57456 -0.7281483333333334
759294169 0.5735830000000001 -0.7297236666666667
760780048 0.573125 -0.732218
762265927 0.5728326666666667 -0.7326316666666667
763751806 0.571627 -0.7340373333333333
765237685 0.5704996666666667 -0.734143
766723564 0.5690553333333334 -0.7347003333333334
768209443 0.5679059999999999 -0.734032
769695322 0.565797 -0.7334106666666665
771181201 0.5640183333333334 -0.7330516666666668
772667080 0.5601849999999999 -0.7321736666666667
774152959 0.5580213333333334 -0.7300333333333334
775638838 0.553945 -0.7283673333333334
777124717 0.5510646666666666 -0.7284053333333333
778610596 0.547376 -0.724465
780096475 0.5437763333333333 -0.72289
781582354 0.5443196666666666 -0.7265483333333335
783068233 0.545979 -0.7309973333333333
784554112 0.54577 -0.734217
786039991 0.5483000000000001 -0.7374746666666666
787525870 0.5490796666666666 -0.739087
789011749 0.5466963333333332 -0.742215
790497628 0.5486563333333333 -0.7428313333333333
791983507 0.5473283333333333 -0.7440793333333334
793469386 0.547336 -0.7449453333333333
794955265 0.5465513333333333 -0.7460833333333333
796441144 0.546843 -0.7441513333333334
797927023 0.5463270000000001 -0.7444700000000001
799412902 0.5446460000000001 -0.7441913333333333
800898781 0.5429316666666667 -0.7424826666666666
802384660 0.5408376666666667 -0.7415403333333334
803870539 0.538282 -0.740099
805356418 0.5354766666666667 -0.7377866666666666
806842297 0.534086 -0.7345583333333333
808328176 0.5292796666666667 -0.7325750000000001
809814055 0.5251509999999999 -0.7305256666666667
811299934 0.5255633333333333 -0.733172
812785813 0.5269753333333335 -0.736773
814271692 0.525423 -0.7414350000000001
815757571 0.526214 -0.7439893333333334
817243450 0.5267390000000001 -0.7467626666666667
818729329 0.5253306666666666 -0.750199
820215208 0.5253420000000001 -0.7521956666666666
821701087 0.5251386666666666 -0.7529150000000001
823186966 0.523976 -0.7545546666666668
824672845 0.5226663333333333 -0.7558583333333333
826158724 0.5216383333333333 -0.7554576666666666
827644603 0.5220456666666667 -0.75527
829130482 0.5184843333333333 -0.7554573333333333
830616361 0.5167443333333334 -0.7550993333333332
832102240 0.5130026666666666 -0.7552323333333333
833588119 0.513417 -0.7517489999999999
835073998 0.5111703333333334 -0.7491783333333334
836559877 0.5060286666666666 -0.749648
838045756 0.5032773333333334 -0.747578
839531635 0.49970099999999995 -0.743535
841017514 0.499005 -0.7457033333333333
842503393 0.49769099999999994 -0.7517416666666666
843989272 0.4985446666666667 -0.75446
845475151 0.500996 -0.7576906666666666
846961030 0.5004803333333333 -0.7597263333333334
848446909 0.49997633333333336 -0.7633326666666668
849932788 0.5005620000000001 -0.7645249999999999
851418667 0.49948166666666666 -0.7678503333333334
852904546 0.4982836666666666 -0.7693186666666666
854390425 0.49940266666666666 -0.7682243333333334
855876304 0.499685 -0.7680913333333333
857362183 0.4976716666666667 -0.7687313333333333
858848062 0.49714466666666673 -0.7669456666666666
860333941 0.49506266666666665 -0.7674983333333333
861819820 0.4939613333333333 -0.7657516666666666
863305699 0.4904443333333333 -0.7640856666666668
864791578 0.488162 -0.7626370000000001
866277457 0.48560933333333334 -0.759614
867763336 0.482974 -0.7565263333333333
869249215 0.4794853333333333 -0.7549639999999999
870735094 0.4781393333333333 -0.7543876666666667
872220973 0.4781496666666667 -0.7586446666666667
873706852 0.477665 -0.7635806666666666
875192731 0.47813799999999995 -0.7659676666666666
876678610 0.47870300000000005 -0.7691856666666667
878164489 0.4789493333333334 -0.7721536666666666
879650368 0.47848799999999997 -0.7734536666666667
881136247 0.4789833333333333 -0.7747356666666668
882622126 0.47840733333333335 -0.7761993333333334
884108005 0.4763406666666667 -0.7779263333333333
885593884 0.47596066666666664 -0.7776106666666666
887079763 0.47534566666666667 -0.777078
888565642 0.4740783333333334 -0.7767013333333334
890051521 0.4728653333333333 -0.7768023333333334
891537400 0.47066500000000006 -0.7737213333333334
893023279 0.46769866666666665 -0.7740773333333334
894509158 0.4677773333333333 -0.770775
895995037 0.46448 -0.769447
897480916 0.4605346666666667 -0.76642
898966795 0.4605726666666667 -0.7631116666666666
900452674 0.4552043333333333 -0.762131
901938553 0.45535733333333334 -0.7667136666666666
903424432 0.45642266666666664 -0.7703803333333333
904910311 0.45685233333333336 -0.7725686666666668
906396190 0.45558233333333337 -0.774082
907882069 0.455743 -0.7777396666666667
909367948 0.454567 -0.779203
910853827 0.4539936666666667 -0.781235
912339706 0.45222933333333337 -0.783737
913825585 0.4519936666666666 -0.783097
915311464 0.4492236666666667 -0.7856233333333332
916797343 0.4518503333333333 -0.782593
918283222 0.44939799999999996 -0.7833100000000001
919769101 0.44776799999999994 -0.7841756666666666
921254980 0.448012 -0.7812006666666665
922740859 0.4459423333333333 -0.779673
924226738 0.4432216666666666 -0.7782736666666666
925712617 0.43610699999999997 -0.7782133333333334
927198496 0.4384706666666667 -0.773824
928684375 0.4367916666666667 -0.7710296666666667
930170254 0.43242699999999995 -0.769149
931656133 0.433538 -0.7718593333333333
933142012 0.43096433333333334 -0.7762956666666666
934627891 0.43282633333333337 -0.7784979999999999
936113770 0.43405699999999997 -0.780671
937599649 0.43216966666666673 -0.7848443333333334
939085528 0.433195 -0.7850136666666666
940571407 0.42993533333333334 -0.7893926666666667
942057286 0.4294343333333333 -0.7930873333333334
943543165 0.4326936666666666 -0.7904813333333333
945029044 0.43209933333333334 -0.7897950000000001
946514923 0.431668 -0.7903876666666667
948000802 0.43076866666666663 -0.789948
949486681 0.4294813333333334 -0.7892483333333334
950972560 0.42919666666666667 -0.7883930000000001
952458439 0.4274263333333333 -0.787567
953944318 0.4305293333333333 -0.7829163333333332
955430197 0.4243806666666667 -0.7840619999999999
956916076 0.423292 -0.7814516666666668
958401955 0.42138000000000003 -0.7785426666666666
959887834 0.4196796666666667 -0.77603
961373713 0.41897133333333336 -0.7778679999999999
962859592 0.4184233333333333 -0.7814346666666667
964345471 0.4176883333333334 -0.784873
965831350 0.417702 -0.7876133333333333
967317229 0.41662166666666667 -0.7895493333333333
968803108 0.416977 -0.7918850000000001
970288987 0.41517166666666666 -0.7929643333333333
971774866 0.4147636666666667 -0.793329
973260745 0.4145673333333333 -0.7945660000000001
974746624 0.4135453333333334 -0.7940736666666667
976232503 0.4119836666666667 -0.795171
977718382 0.41112299999999996 -0.7960843333333333
979204261 0.41126233333333334 -0.7942983333333333
980690140 0.409513 -0.794511
982176019 0.406692 -0.793084
983661898 0.403683 -0.7924403333333334
985147777 0.39871733333333337 -0.7921193333333334
986633656 0.40126533333333336 -0.7874166666666667
988119535 0.392877 -0.7875156666666667
989605414 0.39532866666666666 -0.7838546666666666
991091293 0.39102299999999995 -0.7865773333333334
992577172 0.39483633333333334 -0.788065
994063051 0.38966866666666666 -0.7924646666666666
995548930 0.3956903333333333 -0.7925833333333333
997034809 0.38944533333333337 -0.7975850000000001
998520688 0.3943670000000001 -0.7958126666666666
1000006567 0.38939199999999996 -0.7998219999999999
1001492446 0.391198 -0.8002516666666667
1002978325 0.38885966666666666 -0.8006030000000001
1004464204 0.39356299999999994 -0.7988693333333333
1005950083 0.386209 -0.8003056666666666
1007435962 0.3888506666666667 -0.8001109999999999
1008921841 0.385349 -0.7994723333333335
1010407720 0.388185 -0.7971476666666666
1011893599 0.38071699999999997 -0.7980153333333333
1013379478 0.384741 -0.7952643333333334
1014865357 0.377369 -0.7951193333333334
1016351236 0.3789826666666667 -0.7920493333333334
1017837115 0.3719506666666666 -0.7905783333333334
1019322994 0.37626333333333334 -0.785875
1020808873 0.36864300000000005 -0.7881113333333333
1022294752 0.372443 -0.7898256666666668
1023780631 0.3679426666666667 -0.7943709999999999
1025266510 0.37399933333333335 -0.7950779999999998
1026752389 0.36911033333333326 -0.7987609999999999
1028238268 0.37303966666666666 -0.7978923333333333
1029724147 0.3753406666666667 -0.7985936666666668
1031210026 0.3720746666666666 -0.8004673333333333
1032695905 0.3705773333333333 -0.8012950000000001
1034181784 0.36988766666666667 -0.8014096666666667
1035667663 0.36977333333333334 -0.8011893333333333
1037153542 0.3686206666666667 -0.8019236666666667
1038639421 0.36815333333333333 -0.7993736666666665
1040125300 0.365246 -0.7996313333333332
1041611179 0.36493900000000007 -0.7985946666666668
1043097058 0.3610873333333333 -0.7967613333333333
1044582937 0.361393 -0.7942823333333333
1046068816 0.35603999999999997 -0.793163
1047554695 0.3553253333333333 -0.7894043333333335
1049040574 0.35114599999999996 -0.7872326666666667
1050526453 0.35084299999999996 -0.78672
1052012332 0.351509 -0.789847
1053498211 0.34994433333333336 -0.7936473333333334
1054984090 0.3526146666666666 -0.7957866666666668
1056469969 0.35143399999999997 -0.798978
1057955848 0.350451 -0.8004616666666666
1059441727 0.3491123333333333 -0.8024193333333333
1060927606 0.3510533333333334 -0.8029626666666667
1062413485 0.35047066666666665 -0.802782
1063899364 0.34871599999999997 -0.803529
1065385243 0.350339 -0.8030763333333333
1066871122 0.34931633333333334 -0.8034466666666668
1068357001 0.34761033333333335 -0.8018740000000001
1069842880 0.3464203333333334 -0.7998366666666666
1071328759 0.34410499999999994 -0.7999163333333333
1072814638 0.3412203333333333 -0.7988270000000001
1074300517 0.3397573333333333 -0.796626
1075786396 0.33725266666666665 -0.7948179999999999
1077272275 0.33674766666666667 -0.7924566666666667
1078758154 0.3335653333333333 -0.7886883333333333
1080244033 0.33173300000000006 -0.7868666666666667
1081729912 0.3324763333333333 -0.7895690000000001
1083215791 0.331173 -0.793665
1084701670 0.3335996666666667 -0.7955473333333334
1086187549 0.333694 -0.7983056666666667
1087673428 0.3280193333333334 -0.8000973333333333
1089159307 0.33374033333333336 -0.8027053333333334
1090645186 0.33438166666666663 -0.8018983333333334
1092131065 0.33447866666666665 -0.8013256666666666
1093616944 0.33534833333333336 -0.8031176666666666
1095102823 0.33413899999999996 -0.80261
1096588702 0.332539 -0.803432
1098074581 0.334628 -0.8018413333333333
1099560460 0.3331753333333333 -0.7994923333333334
1101046339 0.32995800000000003 -0.7972743333333333
1102532218 0.326943 -0.7966096666666665
1104018097 0.32728666666666667 -0.7947306666666667
1105503976 0.32692666666666664 -0.7932946666666666
1106989855 0.323839 -0.7895196666666667
1108475734 0.3215466666666667 -0.7874339999999999
1109961613 0.31900233333333333 -0.7847696666666666
1111447492 0.31905133333333335 -0.7873623333333333
1112933371 0.318329 -0.7911736666666668
1114419250 0.31789966666666664 -0.795049
1115905129 0.31909266666666664 -0.7982556666666666
1117391008 0.3186123333333333 -0.8006479999999999
1118876887 0.31759966666666667 -0.8035920000000001
1120362766 0.32005100000000003 -0.804175
1121848645 0.3173166666666667 -0.8051073333333334
1123334524 0.3222973333333334 -0.8061516666666666
1124820403 0.317738 -0.8078343333333334
1126306282 0.31659299999999996 -0.8068040000000001
1127792161 0.31797733333333333 -0.8071943333333333
1129278040 0.315428 -0.807711
1130763919 0.313593 -0.8053513333333333
1132249798 0.31347433333333335 -0.8051576666666667
1133735677 0.31027666666666665 -0.8038983333333333
1135221556 0.30989633333333333 -0.8017693333333332
1136707435 0.3067856666666666 -0.800231
1138193314 0.30438133333333334 -0.7977123333333335
1139679193 0.301486 -0.7938486666666668
1141165072 0.302139 -0.7956196666666666
1142650951 0.30214233333333335 -0.8012813333333333
1144136830 0.30060533333333334 -0.8037389999999999
1145622709 0.30094133333333334 -0.8071313333333333
1147108588 0.3016316666666667 -0.8097753333333334
1148594467 0.30206466666666665 -0.809651
1150080346 0.29910200000000003 -0.81225
1151566225 0.29964399999999997 -0.813116
1153052104 0.299831 -0.8142063333333333
1154537983 0.29945066666666664 -0.8139616666666667
1156023862 0.2972453333333333 -0.8156476666666667
1157509741 0.29662666666666665 -0.8141583333333333
1158995620 0.2952966666666667 -0.813314
1160481499 0.29510166666666665 -0.811926
1161967378 0.292001 -0.8108353333333334
1163453257 0.291001 -0.808145
1164939136 0.287719 -0.8055733333333333
1166425015 0.28594733333333333 -0.8032716666666667
1167910894 0.28347266666666665 -0.8002733333333333
1169396773 0.280588 -0.7969419999999999
1170882652 0.27868566666666666 -0.7976173333333333
1172368531 0.27882466666666667 -0.8008063333333334
1173854410 0.280416 -0.8034039999999999
1175340289 0.2768896666666667 -0.8067673333333333
1176826168 0.2774936666666667 -0.8089323333333334
1178312047 0.27583599999999997 -0.8115233333333333
1179797926 0.275662 -0.8121413333333334
1181283805 0.2749256666666667 -0.8142809999999999
1182769684 0.27362200000000003 -0.815381
1184255563 0.27415666666666666 -0.815033
1185741442 0.27384933333333333 -0.814099
1187227321 0.27073966666666666 -0.8134446666666667
1188713200 0.26831666666666665 -0.813122
1190199079 0.26986299999999996 -0.811359
1191684958 0.2681443333333334 -0.808926
1193170837 0.2643936666666667 -0.8071776666666667
1194656716 0.26173433333333335 -0.8054079999999999
1196142595 0.2615746666666667 -0.8020123333333333
1197628474 0.25689466666666666 -0.7995610000000001
1199114353 0.25498366666666666 -0.796331
1200600232 0.25375366666666666 -0.7948113333333334
1202086111 0.25498133333333334 -0.7982573333333334
1203571990 0.25103633333333336 -0.8025046666666666
1205057869 0.2528606666666667 -0.805612
1206543748 0.25038699999999997 -0.8083499999999999
1208029627 0.25112633333333334 -0.8096476666666667
1209515506 0.25029266666666666 -0.8120966666666666
1211001385 0.24988133333333332 -0.8139283333333333
1212487264 0.250293 -0.8130833333333333
1213973143 0.24728933333333333 -0.8161766666666667
1215459022 0.24903299999999998 -0.814758
1216944901 0.24962066666666663 -0.8140726666666667
1218430780 0.24647700000000003 -0.8143863333333332
1219916659 0.24259766666666668 -0.8132693333333334
1221402538 0.24653599999999998 -0.8105396666666667
1222888417 0.24446500000000002 -0.8077779999999999
1224374296 0.24230966666666665 -0.807343
1225860175 0.242896 -0.8031113333333333
1227346054 0.241343 -0.8005793333333333
1228831933 0.21399133333333334 -0.7753256666666667
1230317812 0.23334933333333333 -0.7959693333333333
1231803691 0.23858566666666667 -0.7976503333333334
1233289570 0.23592833333333332 -0.8015323333333333
1234775449 0.23707366666666665 -0.803395
1236261328 0.234312 -0.8052950000000001
1237747207 0.2362483333333333 -0.8066273333333335
1239233086 0.233518 -0.808677
1240718965 0.23519333333333334 -0.8091866666666667
1242204844 0.23670033333333332 -0.8107146666666667
1243690723 0.237329 -0.8095933333333333
1245176602 0.23499666666666666 -0.8103276666666667
1246662481 0.23632066666666665 -0.8085523333333334
1248148360 0.23622066666666663 -0.8063910000000001
1249634239 0.23430566666666666 -0.8067820000000001
1251120118 0.23291966666666666 -0.805771
1252605997 0.23854300000000003 -0.8032266666666668
1254091876 0.23382733333333336 -0.7987433333333334
1255577755 0.232258 -0.7974673333333334
1257063634 0.22812833333333335 -0.7943029999999999
1258549513 0.231885 -0.7880733333333333
1260035392 0.22646233333333332 -0.7869876666666666
1261521271 0.22448866666666667 -0.7899833333333333
1263007150 0.222849 -0.792306
1264493029 0.22295333333333334 -0.7961276666666667
1265978908 0.22171566666666667 -0.7964166666666667
1267464787 0.22215600000000002 -0.799746
1268950666 0.222853 -0.799296
1270436545 0.22129166666666666 -0.801234
1271922424 0.221158 -0.8013366666666667
1273408303 0.22201666666666667 -0.8015206666666667
1274894182 0.2181213333333333 -0.8035066666666667
1276380061 0.220426 -0.8017373333333334
1277865940 0.21761333333333333 -0.8018623333333333
1279351819 0.21394433333333332 -0.8015013333333334
1280837698 0.22383133333333335 -0.79901
1282323577 0.21341666666666667 -0.797981
1283809456 0.2137176666666667 -0.7976446666666667
1285295335 0.21333733333333335 -0.7948036666666667
1286781214 0.21081533333333333 -0.79211
1288267093 0.207995 -0.7911013333333333
1289752972 0.20691533333333334 -0.7864283333333333
1291238851 0.20761266666666667 -0.7898623333333333
1292724730 0.20892066666666667 -0.7950666666666666
1294210609 0.20683666666666667 -0.794879
1295696488 0.20645633333333335 -0.7989576666666666
1297182367 0.203933 -0.8000416666666667
1298668246 0.2078433333333333 -0.8034213333333332
1300154125 0.20776366666666668 -0.8041263333333334
1301640004 0.208178 -0.803998
1303125883 0.20684533333333333 -0.8053529999999999
1304611762 0.20944233333333337 -0.8047283333333333
1306097641 0.20672333333333334 -0.8052663333333333
1307583520 0.20926766666666666 -0.804612
1309069399 0.20952266666666666 -0.8033916666666667
1310555278 0.209143 -0.8007633333333334
1312041157 0.208665 -0.8009033333333333
1313527036 0.20649833333333334 -0.7995663333333333
1315012915 0.20858433333333334 -0.7980486666666667
1316498794 0.20493466666666668 -0.7947613333333333
1317984673 0.20718333333333336 -0.7931626666666666
1319470552 0.2051126666666667 -0.7894503333333334
1320956431 0.20254966666666666 -0.7937213333333334
1322442310 0.20792566666666668 -0.794457
1323928189 0.20421233333333333 -0.7975776666666667
1325414068 0.204554 -0.7999313333333333
1326899947 0.20206100000000002 -0.8020163333333333
1328385826 0.20493466666666668 -0.8048610000000002
1329871705 0.20404433333333336 -0.8054676666666668
1331357584 0.201935 -0.810728
1332843463 0.20102833333333334 -0.8076413333333333
1334329342 0.19946833333333336 -0.8106453333333334
1335815221 0.20170666666666667 -0.809929
1337301100 0.2009723333333333 -0.8110539999999999
1338786979 0.19776866666666668 -0.8112453333333333
1340272858 0.1980063333333333 -0.8107723333333333
1341758737 0.19913066666666668 -0.8086543333333335
1343244616 0.19553033333333333 -0.8085723333333333
1344730495 0.194429 -0.8072456666666666
1346216374 0.19694666666666663 -0.805238
1347702253 0.191615 -0.8050786666666667
1349188132 0.19155533333333333 -0.800532
1350674011 0.190315 -0.8016763333333333
1352159890 0.189674 -0.8027443333333334
1353645769 0.18895933333333334 -0.8064473333333333
1355131648 0.189464 -0.8062170000000001
1356617527 0.1869063333333333 -0.8095849999999999
1358103406 0.18953466666666666 -0.8089146666666668
1359589285 0.18642366666666665 -0.8113196666666668
1361075164 0.18437233333333333 -0.811442
1362561043 0.184331 -0.812237
1364046922 0.18384999999999999 -0.8117773333333332
1365532801 0.18343600000000002 -0.8105733333333333
1367018680 0.18110633333333334 -0.8114583333333334
1368504559 0.17616933333333332 -0.8103066666666666
1369990438 0.17536300000000002 -0.808072
1371476317 0.1754993333333333 -0.8053696666666665
1372962196 0.17434233333333335 -0.8041353333333333
1374448075 0.17103433333333332 -0.802777
1375933954 0.172874 -0.844914
1377419833 0.165695 -0.7979363333333334
1378905712 0.161866 -0.7952956666666667
1380391591 0.16170766666666667 -0.7950096666666666
1381877470 0.16201766666666664 -0.798441
1383363349 0.16272366666666668 -0.8011803333333334
1384849228 0.16041333333333332 -0.8046516666666665
1386335107 0.16251000000000002 -0.8064016666666666
1387820986 0.16437766666666667 -0.8089406666666666
1389306865 0.164936 -0.809622
1390792744 0.16430566666666666 -0.8108566666666667
1392278623 0.167117 -0.8115306666666666
1393764502 0.16839800000000002 -0.8127566666666667
1395250381 0.1680883333333333 -0.8121860000000001
1396736260 0.16859066666666667 -0.8107413333333334
1398222139 0.166671 -0.8124096666666668
1399708018 0.16596666666666668 -0.8092603333333334
1401193897 0.16644033333333333 -0.8082513333333333
1402679776 0.16613999999999998 -0.8075
1404165655 0.16640833333333335 -0.804825
1405651534 0.16489066666666666 -0.8032836666666667
1407137413 0.16405866666666666 -0.8008073333333333
1408623292 0.16089766666666666 -0.7975669999999999
1410109171 0.160961 -0.7962366666666667
1411595050 0.16208199999999998 -0.7998280000000001
1413080929 0.15955866666666665 -0.803759
1414566808 0.16433066666666665 -0.8063193333333333
1416052687 0.164056 -0.8097863333333333
1417538566 0.16462166666666667 -0.8117226666666667
1419024445 0.16210466666666665 -0.8151956666666668
1420510324 0.16636833333333334 -0.8161299999999999
1421996203 0.16421633333333333 -0.818328
1423482082 0.16375666666666666 -0.8186396666666668
1424967961 0.16697366666666666 -0.8183203333333333
1426453840 0.166154 -0.8181590000000001
1427939719 0.162697 -0.8184963333333334
1429425598 0.15995833333333334 -0.8163133333333333
1430911477 0.16728866666666667 -0.8171589999999999
1432397356 0.16443933333333335 -0.8167886666666666
1433883235 0.162323 -0.8127313333333334
1435369114 0.163209 -0.8117463333333333
1436854993 0.16401766666666664 -0.8070373333333333
1438340872 0.156232 -0.8047316666666667
1439826751 0.15704366666666666 -0.8021963333333333
1441312630 0.156855 -0.8056426666666666
1442798509 0.155672 -0.8077016666666667
1444284388 0.15680266666666667 -0.8118263333333333
1445770267 0.15516766666666668 -0.8130130000000001
1447256146 0.15341266666666667 -0.814169
1448742025 0.158255 -0.8154896666666667
1450227904 0.15541366666666664 -0.8162173333333334
1451713783 0.15327333333333334 -0.8173923333333333
1453199662 0.15687966666666664 -0.8171970000000001
1454685541 0.154069 -0.8171493333333334
1456171420 0.15145433333333333 -0.8164396666666667
1457657299 0.15266366666666667 -0.8156903333333334
1459143178 0.15077866666666667 -0.8145020000000001
1460629057 0.14739366666666667 -0.8121309999999999
1462114936 0.14733866666666665 -0.8101470000000001
1463600815 0.14778066666666667 -0.8068046666666667
1465086694 0.14361333333333334 -0.804945
1466572573 0.14064066666666666 -0.8018870000000001
1468058452 0.13985966666666663 -0.7979676666666666
1469544331 0.13732233333333332 -0.7949033333333334
1471030210 0.1372283333333333 -0.79636
1472516089 0.13622166666666666 -0.8002873333333334
1474001968 0.13819733333333334 -0.8037943333333333
1475487847 0.135293 -0.8065206666666667
1476973726 0.13605466666666668 -0.808749
1478459605 0.13824433333333333 -0.811258
1479945484 0.137057 -0.811808
1481431363 0.13684033333333334 -0.8131309999999999
1482917242 0.135549 -0.8142803333333334
1484403121 0.13675466666666666 -0.814292
1485889000 0.134463 -0.8152906666666667
1487374879 0.13534466666666667 -0.8150526666666668
1488860758 0.13568333333333335 -0.8133006666666667
1490346637 0.13429733333333335 -0.8125620000000001
1491832516 0.13466533333333333 -0.810463
1493318395 0.132966 -0.808369
1494804274 0.13047933333333334 -0.8051603333333333
1496290153 0.12978433333333333 -0.802221
1497776032 0.12906866666666666 -0.799236
1499261911 0.127842 -0.7960766666666667
1500747790 0.126408 -0.7965576666666667
1502233669 0.12424900000000001 -0.800558
1503719548 0.12518133333333334 -0.8016446666666667
1505205427 0.122095 -0.8044103333333332
1506691306 0.12174033333333334 -0.8068393333333334
1508177185 0.122099 -0.8085796666666667
1509663064 0.11939733333333334 -0.8085753333333333
1511148943 0.11711433333333332 -0.8098683333333333
1512634822 0.12047966666666667 -0.8116256666666667
1514120701 0.11932999999999999 -0.811942
1515606580 0.121052 -0.8117296666666668
1517092459 0.11729833333333334 -0.8107656666666667
1518578338 0.11643700000000001 -0.8098519999999999
1520064217 0.11720466666666667 -0.8451150000000002
1521550096 0.11454900000000001 -0.8063186666666667
1523035975 0.113974 -0.804509
1524521854 0.11199866666666668 -0.8011096666666666
1526007733 0.11157066666666667 -0.797949
1527493612 0.1301783333333333 -0.8108086666666666
1528979491 0.10674866666666667 -0.791192
1530465370 0.10448366666666668 -0.7912629999999999
1531951249 0.10384733333333333 -0.7942656666666666
1533437128 0.10307466666666669 -0.7959933333333332
1534923007 0.10467 -0.7992530000000001
1536408886 0.10159666666666667 -0.8030883333333333
1537894765 0.10296366666666668 -0.8030746666666667
1539380644 0.10321866666666667 -0.8048690000000001
1540866523 0.10337233333333334 -0.805695
1542352402 0.10353699999999999 -0.8062460000000001
1543838281 0.100854 -0.8050583333333333
1545324160 0.10112766666666667 -0.806777
1546810039 0.10221233333333334 -0.8056353333333334
1548295918 0.10224133333333334 -0.8039926666666667
1549781797 0.10328466666666665 -0.8023666666666666
1551267676 0.10045933333333333 -0.8013516666666667
1552753555 0.10281499999999999 -0.7983486666666666
1554239434 0.09705566666666667 -0.7964043333333334
1555725313 0.09627666666666668 -0.7928713333333333
1557211192 0.09801633333333333 -0.7890100000000001
1558697071 0.09546899999999998 -0.7855650000000001
1560182950 0.09396899999999998 -0.7816879999999999
1561668829 0.09287166666666667 -0.7857443333333333
1563154708 0.091465 -0.7894356666666665
1564640587 0.09166833333333334 -0.7912276666666666
1566126466 0.09175966666666667 -0.7944576666666667
1567612345 0.08968833333333333 -0.796523
1569098224 0.08947299999999998 -0.7984963333333334
1570584103 0.08889333333333334 -0.7999556666666666
1572069982 0.08718766666666666 -0.8003543333333333
1573555861 0.089214 -0.800942
1575041740 0.08722033333333334 -0.8014726666666666
1576527619 0.08650066666666667 -0.8016066666666667
1578013498 0.08618866666666665 -0.8014020000000001
1579499377 0.08576266666666665 -0.8009113333333332
1580985256 0.072552 -0.7964926666666666
1582471135 0.087597 -0.7967956666666667
1583957014 0.08479566666666667 -0.7956056666666665
1585442893 0.08737966666666667 -0.7925546666666667
1586928772 0.08351599999999999 -0.7907326666666666
1588414651 0.08347033333333333 -0.7881286666666667
1589900530 0.08188033333333333 -0.784336
1591386409 0.07982233333333333 -0.7876066666666667
1592872288 0.07890733333333333 -0.7897023333333334
1594358167 0.07581399999999999 -0.7937789999999999
1595844046 0.07648166666666667 -0.7945496666666667
1597329925 0.07650066666666666 -0.7979463333333334
1598815804 0.07606633333333335 -0.7986643333333333
1600301683 0.07624466666666667 -0.8008583333333333
1601787562 0.07757900000000001 -0.800067
1603273441 0.07641833333333332 -0.8015053333333334
1604759320 0.078195 -0.8014276666666666
1606245199 0.07602733333333334 -0.801609
1607731078 0.07588633333333333 -0.801343
1609216957 0.07592033333333333 -0.7993830000000001
1610702836 0.07275133333333333 -0.799319
1612188715 0.07372 -0.7964316666666668
1613674594 0.07434500000000001 -0.7955143333333333
1615160473 0.075894 -0.791934
1616646352 0.073284 -0.7914326666666667
1618132231 0.07066099999999999 -0.7874573333333333
1619618110 0.07233666666666666 -0.7830716666666667
1621103989 0.070531 -0.7851766666666666
1622589868 0.07013933333333333 -0.7882443333333334
1624075747 0.06830166666666666 -0.7909006666666666
1625561626 0.06624266666666667 -0.7938793333333333
1627047505 0.06796666666666666 -0.7941243333333334
1628533384 0.06631666666666668 -0.7960983333333335
1630019263 0.06546466666666667 -0.7976123333333333
1631505142 0.06461 -0.7977426666666667
1632991021 0.06308 -0.7994506666666666
1634476900 0.06266833333333334 -0.7999470000000001
1635962779 0.06263566666666666 -0.7982603333333333
1637448658 0.05867266666666667 -0.7990946666666666
1638934537 0.06100066666666667 -0.7980803333333334
1640420416 0.05870466666666666 -0.7962980000000001
1641906295 0.057583666666666665 -0.7961566666666666
1643392174 0.05766466666666666 -0.7941383333333333
1644878053 0.05491533333333334 -0.7924603333333332
1646363932 0.05719866666666667 -0.7898483333333334
1647849811 0.05258733333333334 -0.7880023333333334
1649335690 0.051201666666666666 -0.7860276666666666
1650821569 0.04945066666666667 -0.78579
1652307448 0.049256999999999995 -0.7876643333333333
1653793327 0.04863 -0.7914423333333334
1655279206 0.051547 -0.7916156666666666
1656765085 0.05103933333333333 -0.7935803333333333
1658250964 0.050872 -0.7948236666666667
1659736843 0.04841433333333334 -0.7959589999999999
1661222722 0.04839366666666667 -0.7967306666666666
1662708601 0.049222999999999996 -0.796847
1664194480 0.04905400000000001 -0.796264
1665680359 0.04809733333333333 -0.7951086666666667
1667166238 0.048201999999999995 -0.794971
1668652117 0.048688 -0.79453
1670137996 0.04723266666666667 -0.7912076666666668
1671623875 0.04773533333333333 -0.7916146666666667
1673109754 0.04591 -0.7900423333333334
1674595633 0.043684333333333325 -0.7879603333333334
1676081512 0.043544 -0.7822346666666666
1677567391 0.04265266666666667 -0.8215663333333333
1679053270 0.04195633333333334 -0.7789606666666667
1680539149 0.04206599999999999 -0.7777873333333334
1682025028 0.03882766666666667 -0.780242
1683510907 0.039774666666666667 -0.7836850000000001
1684996786 0.03810666666666667 -0.7872870000000001
1686482665 0.04362366666666667 -0.7882893333333335
1687968544 0.04204633333333333 -0.7903696666666665
1689454423 0.044625 -0.7926986666666666
1690940302 0.04223433333333334 -0.7928203333333333
1692426181 0.041346 -0.7943826666666668
1693912060 0.043047 -0.7962936666666667
1695397939 0.044947666666666664 -0.7955346666666667
1696883818 0.044522000000000006 -0.7950623333333334
1698369697 0.04234766666666667 -0.7939299999999999
1699855576 0.043380999999999996 -0.7932346666666666
1701341455 0.045811333333333336 -0.791658
1702827334 0.04389333333333333 -0.7912463333333334
1704313213 0.04568466666666667 -0.7878206666666667
1705799092 0.045024 -0.788407
1707284971 0.04032733333333333 -0.783648
1708770850 0.042388666666666665 -0.7798476666666666
1710256729 0.040851 -0.7779523333333334
1711742608 0.04109566666666667 -0.7811443333333333
1713228487 0.040224666666666666 -0.78354
1714714366 0.039230666666666664 -0.7865876666666667
1716200245 0.04191400000000001 -0.78797
1717686124 0.038792 -0.789413
1719172003 0.03495266666666667 -0.7913586666666667
1720657882 0.040528 -0.7927303333333334
1722143761 0.03977566666666667 -0.7937200000000001
1723629640 0.03864633333333334 -0.7938326666666665
1725115519 0.037996999999999996 -0.7936143333333333
1726601398 0.03979133333333333 -0.7907656666666666
1728087277 0.03812566666666666 -0.7930663333333333
1729573156 0.04072 -0.7889339999999999
1731059035 0.03682066666666667 -0.7888036666666666
1732544914 0.03697133333333333 -0.785031
1734030793 0.034566999999999994 -0.783511
1735516672 0.03188333333333333 -0.782164
1737002551 0.034974 -0.7789576666666665
1738488430 0.032403 -0.7742396666666668
1739974309 0.028251333333333333 -0.7731063333333332
1741460188 0.030220666666666663 -0.7772953333333333
1742946067 0.02758266666666667 -0.7791193333333334
1744431946 0.026656 -0.7822013333333334
1745917825 0.028794 -0.784914
1747403704 0.026996333333333334 -0.7856006666666667
1748889583 0.029925333333333335 -0.7887213333333333
1750375462 0.027618666666666666 -0.7881110000000001
1751861341 0.026195999999999997 -0.790349
1753347220 0.029340666666666664 -0.7916003333333334
1754833099 0.02669466666666667 -0.7922863333333333
1756318978 0.024824 -0.7915236666666666
1757804857 0.025648333333333332 -0.7903146666666667
1759290736 0.02790933333333333 -0.7907396666666666
1760776615 0.025695666666666662 -0.7879723333333333
1762262494 0.026173666666666665 -0.7858613333333334
1763748373 0.024704666666666666 -0.7838459999999999
1765234252 0.021433666666666667 -0.7820363333333334
1766720131 0.021847666666666668 -0.780116
1768206010 0.019582 -0.7771806666666666
1769691889 0.022101333333333334 -0.7727913333333333
1771177768 0.019029 -0.7757596666666666
1772663647 0.020318 -0.7794426666666666
1774149526 0.01828266666666667 -0.7823133333333333
1775635405 0.018466666666666666 -0.7847593333333333
1777121284 0.017611666666666668 -0.7878076666666667
1778607163 0.01880066666666667 -0.7889203333333333
1780093042 0.016915333333333334 -0.7903063333333332
1781578921 0.020381 -0.791976
1783064800 0.01971166666666667 -0.792834
1784550679 0.017199666666666665 -0.792191
1786036558 0.017597333333333336 -0.7910149999999999
1787522437 0.019611 -0.792627
1789008316 0.01857666666666667 -0.7914310000000001
1790494195 0.019547 -0.788068
1791980074 0.023884000000000002 -0.7883833333333333
1793465953 0.018511333333333334 -0.7851476666666667
1794951832 0.019562 -0.7830696666666667
1796437711 0.019511333333333332 -0.7803936666666668
1797923590 0.018129 -0.7779336666666667
1799409469 0.016783333333333334 -0.7737576666666667
1800895348 0.017352999999999997 -0.773993
1802381227 0.018152333333333336 -0.7773126666666667
1803867106 0.016062666666666666 -0.778715
1805352985 0.015076 -0.7798136666666666
1806838864 0.018248666666666667 -0.78362
1808324743 0.017246 -0.7838146666666667
1809810622 0.017882666666666668 -0.7841023333333332
1811296501 0.012791000000000002 -0.785842
1812782380 0.016831 -0.7841680000000001
1814268259 0.01824833333333333 -0.78729
1815754138 0.014026333333333333 -0.784497
1817240017 0.017231333333333335 -0.7848173333333334
1818725896 0.016048999999999997 -0.780911
1820211775 0.016046 -0.7832653333333331
1821697654 0.015699666666666667 -0.7793743333333333
1823183533 0.012619666666666668 -0.7762496666666667
1824669412 0.012017333333333333 -0.7735963333333333
1826155291 0.013906 -0.7711146666666666
1827641170 0.012835333333333332 -0.7677853333333333
1829127049 0.009764666666666666 -0.7637200000000001
1830612928 0.009248333333333332 -0.7596786666666667
1832098807 0.010762 -0.765316
1833584686 0.01084 -0.769508
1835070565 0.005062333333333334 -0.7712603333333332
1836556444 0.006181666666666666 -0.77339
1838042323 0.005229999999999999 -0.7751103333333335
1839528202 0.005467666666666667 -0.7780353333333333
1841014081 0.005412 -0.7793106666666666
1842499960 0.008756333333333333 -0.7806836666666667
1843985839 0.003427 -0.78354
1845471718 0.005372999999999999 -0.7810260000000001
1846957597 0.004574666666666667 -0.7801413333333334
1848443476 0.0005853333333333334 -0.7802570000000001
1849929355 0.0038433333333333327 -0.7803809999999999
1851415234 -0.001834 -0.7740810000000001
1852901113 0.0036220000000000002 -0.7766836666666667
1854386992 0.007093666666666667 -0.7745000000000001
1855872871 -0.002794666666666667 -0.7714146666666667
1857358750 -0.002891 -0.7703296666666667
1858844629 -0.001039 -0.76487
1860330508 0.00034100000000000016 -0.7655383333333333
1861816387 -0.0022756666666666667 -0.7688036666666668
1863302266 -0.004273333333333333 -0.7711646666666666
1864788145 -0.004459 -0.775221
1866274024 -0.004268666666666667 -0.7767943333333333
1867759903 -0.004914000000000001 -0.7776336666666667
1869245782 -0.001802 -0.7788103333333334
1870731661 -0.0055839999999999996 -0.7824693333333334
1872217540 -0.004044 -0.7808136666666666
1873703419 -0.002270666666666667 -0.7810483333333332
1875189298 -0.0052770000000000004 -0.7828189999999999
1876675177 -0.008925666666666667 -0.7818060000000001
1878161056 -0.006911666666666667 -0.7807106666666668
1879646935 -0.004748333333333334 -0.780195
1881132814 -0.006955 -0.7794519999999999
1882618693 -0.005189333333333333 -0.7770243333333333
1884104572 0.013393333333333333 -0.7993476666666667
1885590451 -0.006247 -0.7735783333333334
1887076330 -0.008145000000000001 -0.7709830000000001
1888562209 -0.008924666666666666 -0.7670743333333333
1890048088 -0.007947333333333334 -0.7631703333333334
1891533967 -0.008126 -0.7676486666666666
1893019846 -0.006136666666666666 -0.7693896666666666
1894505725 -0.012461 -0.771156
1895991604 -0.008208 -0.7723543333333334
1897477483 -0.008732333333333333 -0.7752853333333333
1898963362 -0.010008 -0.775967
1900449241 -0.013507 -0.7774606666666667
1901935120 -0.010874333333333333 -0.776491
1903420999 -0.012669 -0.7758470000000001
1904906878 -0.013741333333333335 -0.7757043333333332
1906392757 -0.014847666666666667 -0.7736383333333334
1907878636 -0.013964333333333334 -0.773584
1909364515 -0.008053333333333334 -0.7706696666666666
1910850394 -0.010258999999999999 -0.772034
1912336273 -0.013957333333333334 -0.7689243333333332
1913822152 -0.010961666666666666 -0.7659766666666666
1915308031 -0.011778666666666666 -0.7634186666666666
1916793910 -0.017051 -0.7586550000000001
1918279789 -0.015318666666666666 -0.7573663333333333
1919765668 -0.013998666666666666 -0.7499556666666667
1921251547 -0.015673 -0.755064
1922737426 -0.015880333333333333 -0.7564153333333333
1924223305 -0.017801666666666664 -0.7607036666666667
1925709184 -0.018873333333333332 -0.7622466666666666
1927195063 -0.018387 -0.764746
1928680942 -0.022745666666666664 -0.7646103333333333
1930166821 -0.022407333333333335 -0.7682456666666666
1931652700 -0.020723000000000002 -0.7669713333333333
1933138579 -0.021966 -0.768999
1934624458 -0.022161666666666666 -0.7694073333333332
1936110337 -0.025063666666666665 -0.7692756666666667
1937596216 -0.024948666666666664 -0.7695326666666666
1939082095 -0.024618333333333336 -0.7682359999999999
1940567974 -0.022367666666666664 -0.7671646666666666
1942053853 -0.026682666666666664 -0.7668036666666667
1943539732 -0.02752433333333333 -0.7673433333333334
1945025611 -0.025316 -0.7631589999999999
1946511490 -0.028146 -0.7601246666666667
1947997369 -0.02669166666666667 -0.7581543333333333
1949483248 -0.030605333333333335 -0.7554713333333334
1950969127 -0.032057333333333334 -0.7565049999999999
1952455006 -0.031824333333333336 -0.7582006666666666
1953940885 -0.03317866666666666 -0.760799
1955426764 -0.02845 -0.7618143333333333
1956912643 -0.035430333333333335 -0.7640699999999999
1958398522 -0.03159966666666667 -0.7647913333333335
1959884401 -0.03133433333333333 -0.7666156666666666
1961370280 -0.038175 -0.7680746666666667
1962856159 -0.03438566666666667 -0.7683946666666667
1964342038 -0.03875166666666666 -0.7672233333333333
1965827917 -0.031661666666666664 -0.7666400000000001
1967313796 -0.03625066666666667 -0.7671556666666667
1968799675 -0.037081333333333334 -0.7669883333333334
1970285554 -0.035382 -0.762645
1971771433 -0.03549433333333333 -0.7618843333333333
1973257312 -0.03764533333333333 -0.7605356666666667
1974743191 -0.034274 -0.757211
1976229070 -0.03814066666666666 -0.7547596666666667
1977714949 -0.036288666666666664 -0.7521296666666668
1979200828 -0.03578766666666667 -0.7471346666666667
1980686707 -0.036874 -0.745663
1982172586 -0.03866433333333333 -0.7513456666666666
1983658465 -0.039875 -0.7524923333333334
1985144344 -0.04264300000000001 -0.755023
1986630223 -0.039376 -0.7578156666666667
1988116102 -0.03728733333333333 -0.7583303333333333
1989601981 -0.04541766666666667 -0.7571196666666666
1991087860 -0.04016633333333334 -0.7601723333333332
1992573739 -0.03914599999999999 -0.759743
1994059618 -0.042472 -0.7592913333333332
1995545497 -0.04257933333333334 -0.759569
1997031376 -0.044282666666666665 -0.7599256666666667
1998517255 -0.04293633333333333 -0.7588666666666667
2000003134 -0.044089333333333335 -0.7555813333333333
2001489013 -0.044979333333333336 -0.7563373333333333
2002974892 -0.04102600000000001 -0.7534649999999999
2004460771 -0.043347000000000004 -0.7514783333333334
2005946650 -0.041926333333333336 -0.7479313333333333
2007432529 -0.04346033333333333 -0.745075
2008918408 -0.04480133333333333 -0.7422603333333333
2010404287 -0.044533666666666666 -0.740329
2011890166 -0.05107033333333333 -0.7446609999999999
2013376045 -0.05009633333333333 -0.7472796666666667
2014861924 -0.05105333333333333 -0.7485963333333333
2016347803 -0.04974066666666666 -0.7507126666666667
2017833682 -0.0519 -0.7526833333333333
2019319561 -0.05193333333333333 -0.7548533333333333
2020805440 -0.05232233333333333 -0.7553226666666667
2022291319 -0.05412433333333333 -0.7573313333333332
2023777198 -0.04649 -0.7555973333333332
2025263077 -0.053204333333333326 -0.7579116666666667
2026748956 -0.054007000000000006 -0.7562426666666667
2028234835 -0.049482666666666675 -0.7600806666666666
2029720714 -0.054356666666666664 -0.7569403333333332
2031206593 -0.05466633333333334 -0.7540686666666666
2032692472 -0.05518633333333334 -0.7517823333333333
2034178351 -0.053544666666666664 -0.7502793333333333
2035664230 -0.056649000000000005 -0.750004
2037150109 -0.056359 -0.7479153333333333
2038635988 -0.05438133333333334 -0.743957
2040121867 -0.054768333333333336 -0.740207
2041607746 -0.05741933333333333 -0.7431826666666667
2043093625 -0.05932866666666667 -0.7460663333333333
2044579504 -0.05895 -0.746963
2046065383 -0.05944833333333333 -0.7481766666666667
2047551262 -0.061595000000000004 -0.7508926666666667
2049037141 -0.06180066666666667 -0.7510043333333334
2050523020 -0.061804666666666674 -0.7506050000000001
2052008899 -0.06039566666666666 -0.7514683333333334
2053494778 -0.062049 -0.7525729999999999
2054980657 -0.061996666666666665 -0.7533713333333334
2056466536 -0.06157933333333334 -0.7519826666666667
2057952415 -0.06437433333333334 -0.749691
2059438294 -0.061351333333333334 -0.7493413333333333
2060924173 -0.06334866666666666 -0.74607
2062410052 -0.06440533333333333 -0.7438379999999999
2063895931 -0.063704 -0.7438116666666666
2065381810 -0.065233 -0.739656
2066867689 -0.06457533333333333 -0.73813
2068353568 -0.067097 -0.7334740000000001
2069839447 -0.06685733333333334 -0.73149
2071325326 -0.06832333333333333 -0.7329523333333333
2072811205 -0.07019433333333334 -0.7353526666666667
2074297084 -0.06872666666666667 -0.7387436666666667
2075782963 -0.06909900000000001 -0.7424339999999999
2077268842 -0.07156433333333334 -0.7425563333333333
2078754721 -0.06850400000000001 -0.7465653333333333
2080240600 -0.07094933333333332 -0.7450579999999999
2081726479 -0.06877933333333333 -0.7483400000000001
2083212358 -0.07180533333333333 -0.7482773333333333
2084698237 -0.06940066666666667 -0.7496776666666666
2086184116 -0.07058633333333332 -0.7489080000000001
2087669995 -0.06739033333333333 -0.7479773333333334
2089155874 -0.06755233333333333 -0.7463606666666666
2090641753 -0.068078 -0.7475443333333334
2092127632 -0.06929566666666666 -0.7463006666666666
2093613511 -0.068915 -0.7430859999999999
2095099390 -0.068657 -0.7419159999999999
2096585269 -0.06864166666666666 -0.7381276666666667
2098071148 -0.069274 -0.7354426666666667
2099557027 -0.06878533333333332 -0.733082
2101042906 -0.06997833333333335 -0.733876
2102528785 -0.06865233333333333 -0.7378786666666667
2104014664 -0.07051299999999999 -0.7402783333333334
2105500543 -0.072801 -0.7427946666666667
2106986422 -0.07146666666666666 -0.7437466666666667
2108472301 -0.07416866666666667 -0.7454143333333333
2109958180 -0.07227666666666667 -0.7479453333333334
2111444059 -0.075447 -0.7491676666666667
2112929938 -0.07422033333333333 -0.749224
2114415817 -0.07385966666666666 -0.7503196666666666
2115901696 -0.07381766666666667 -0.748853
2117387575 -0.07307200000000001 -0.750079
2118873454 -0.07418266666666667 -0.7465616666666666
2120359333 -0.07484066666666667 -0.7463246666666666
2121845212 -0.07270599999999999 -0.7478613333333334
2123331091 -0.075255 -0.7455809999999999
2124816970 -0.07525866666666667 -0.7425943333333334
2126302849 -0.082801 -0.7358383333333333
2127788728 -0.07565366666666666 -0.736881
2129274607 -0.08287833333333333 -0.7691529999999999
2130760486 -0.07664133333333333 -0.734482
2132246365 -0.07416433333333333 -0.7381856666666665
2133732244 -0.07502966666666668 -0.7407386666666667
2135218123 -0.07427133333333333 -0.7420943333333333
2136704002 -0.077641 -0.7442179999999999
2138189881 -0.07758933333333333 -0.7453120000000001
2139675760 -0.07750733333333333 -0.7470683333333333
2141161639 -0.08199733333333332 -0.7468136666666667
2142647518 -0.08261266666666667 -0.750159
2144133397 -0.08230866666666667 -0.7477776666666666
2145619276 -0.08668133333333333 -0.7482426666666666
2147105155 -0.08856199999999999 -0.7451343333333332
2148591034 -0.08568033333333332 -0.7473783333333334
2150076913 -0.08322633333333333 -0.745259
2151562792 -0.08064433333333333 -0.7457653333333334
2153048671 -0.08259533333333334 -0.7431896666666667
2154534550 -0.08319133333333334 -0.741069
2156020429 -0.08911766666666666 -0.7383296666666667
2157506308 -0.08636866666666666 -0.7365510000000001
2158992187 -0.09020566666666667 -0.7331123333333333
2160478066 -0.08982433333333334 -0.7321576666666667
2161963945 -0.09099600000000001 -0.7354846666666667
2163449824 -0.08857733333333333 -0.736352
2164935703 -0.091932 -0.739362
2166421582 -0.09374566666666666 -0.7423346666666667
2167907461 -0.093263 -0.743728
2169393340 -0.09004466666666666 -0.7453923333333333
2170879219 -0.09285766666666666 -0.7453029999999999
2172365098 -0.09059133333333332 -0.7464146666666668
2173850977 -0.08933633333333334 -0.7475006666666667
2175336856 -0.08632533333333332 -0.7480383333333332
2176822735 -0.09111466666666666 -0.7449843333333334
2178308614 -0.08605133333333333 -0.7475956666666667
2179794493 -0.09031733333333332 -0.7480826666666668
2181280372 -0.08630633333333333 -0.7429286666666668
2182766251 -0.08603933333333334 -0.743739
2184252130 -0.08453533333333334 -0.7408030000000001
2185738009 -0.08641766666666667 -0.7375423333333333
2187223888 -0.08611333333333333 -0.7347013333333333
2188709767 -0.08343533333333335 -0.732045
2190195646 -0.08613466666666665 -0.728777
2191681525 -0.08371866666666668 -0.731415
2193167404 -0.08665633333333334 -0.7330019999999999
2194653283 -0.08499633333333334 -0.735433
2196139162 -0.08439866666666666 -0.7384970000000001
2197625041 -0.08208933333333333 -0.7402349999999999
2199110920 -0.081194 -0.739086
2200596799 -0.084127 -0.7375813333333333
2202082678 -0.078216 -0.7422046666666665
2203568557 -0.08235666666666668 -0.7429976666666667
2205054436 -0.08278633333333334 -0.7403529999999999
2206540315 -0.07870566666666667 -0.7430096666666666
2208026194 -0.06828666666666668 -0.738271
2209512073 -0.08161366666666665 -0.7399076666666667
2210997952 -0.08087899999999999 -0.7365353333333333
2212483831 -0.081214 -0.735967
2213969710 -0.07817533333333333 -0.7309456666666666
2215455589 -0.07637566666666666 -0.7305436666666667
2216941468 -0.07893033333333334 -0.7259093333333334
2218427347 -0.07515066666666666 -0.724205
2219913226 -0.08046966666666668 -0.7208920000000001
2221399105 -0.07768433333333334 -0.723971
2222884984 -0.08276933333333335 -0.7263130000000001
2224370863 -0.08141933333333333 -0.7280406666666667
2225856742 -0.081772 -0.7296676666666667
2227342621 -0.07817366666666667 -0.7338376666666667
2228828500 -0.08082466666666667 -0.7357746666666666
2230314379 -0.08824599999999999 -0.7344293333333333
2231800258 -0.082733 -0.7373236666666667
2233286137 -0.08436233333333333 -0.7360509999999999
2234772016 -0.08576399999999999 -0.7356416666666666
2236257895 -0.08306233333333334 -0.7380206666666665
2237743774 -0.08502100000000001 -0.7365153333333333
2239229653 -0.08898166666666667 -0.737872
2240715532 -0.08397466666666666 -0.7358333333333333
2242201411 -0.08556866666666667 -0.7333470000000001
2243687290 -0.08553866666666667 -0.732961
2245173169 -0.08168533333333333 -0.731607
2246659048 -0.08155133333333332 -0.731442
2248144927 -0.08451966666666666 -0.7295333333333334
2249630806 -0.08850999999999999 -0.7249566666666666
2251116685 -0.08604200000000001 -0.7261536666666667
2252602564 -0.08808866666666666 -0.7279450000000001
2254088443 -0.08806333333333334 -0.7278546666666666
2255574322 -0.089513 -0.7311323333333334
2257060201 -0.08900433333333334 -0.7356199999999999
2258546080 -0.09207133333333334 -0.7340923333333332
2260031959 -0.09040633333333332 -0.7361006666666666
2261517838 -0.09216066666666667 -0.737488
2263003717 -0.091642 -0.737
2264489596 -0.09046866666666668 -0.7354116666666667
2265975475 -0.094541 -0.7370093333333333
2267461354 -0.09148733333333332 -0.7349026666666667
2268947233 -0.09660566666666666 -0.7744099999999999
2270433112 -0.10402499999999999 -0.72593
2271918991 -0.09874233333333333 -0.731033
2273404870 -0.09351866666666665 -0.7293966666666666
2274890749 -0.09469466666666666 -0.7263873333333333
2276376628 -0.09856533333333334 -0.7222063333333334
2277862507 -0.09532066666666666 -0.7214520000000001
2279348386 -0.098518 -0.7198293333333333
2280834265 -0.087794 -0.7214536666666667
2282320144 -0.10081766666666665 -0.7195146666666666
2283806023 -0.09935233333333333 -0.7231993333333334
2285291902 -0.09915533333333333 -0.7256323333333334
2286777781 -0.10038200000000001 -0.7283893333333333
2288263660 -0.09810133333333333 -0.7276543333333333
2289749539 -0.09485633333333333 -0.731045
2291235418 -0.09853 -0.7285756666666666
2292721297 -0.10156666666666665 -0.7290063333333333
2294207176 -0.09769066666666666 -0.7285216666666666
2295693055 -0.095615 -0.7299563333333334
2297178934 -0.09755366666666666 -0.7295116666666667
2298664813 -0.10273566666666667 -0.7281543333333333
2300150692 -0.09485199999999999 -0.725168
2301636571 -0.10092666666666666 -0.7254056666666667
2303122450 -0.09833666666666667 -0.7226306666666668
2304608329 -0.100622 -0.7223669999999999
2306094208 -0.09936 -0.7184316666666667
2307580087 -0.09597800000000001 -0.7201913333333333
2309065966 -0.09677999999999999 -0.715681
2310551845 -0.103139 -0.7137313333333332
2312037724 -0.10056666666666668 -0.7170113333333333
2313523603 -0.10242666666666667 -0.719633
2315009482 -0.10440966666666666 -0.7203783333333332
2316495361 -0.10030833333333333 -0.7250646666666668
2317981240 -0.10346166666666667 -0.726994
2319467119 -0.10018166666666667 -0.7303959999999999
2320952998 -0.10745299999999998 -0.7301876666666667
2322438877 -0.11339233333333333 -0.7282386666666666
2323924756 -0.09867233333333335 -0.7300873333333334
2325410635 -0.10638166666666667 -0.7287206666666667
2326896514 -0.102453 -0.729571
2328382393 -0.10406599999999999 -0.7325413333333334
2329868272 -0.10864166666666668 -0.7290800000000001
2331354151 -0.10396466666666666 -0.728797
2332840030 -0.105051 -0.7265433333333333
2334325909 -0.10383066666666667 -0.7285106666666668
2335811788 -0.10371799999999999 -0.7257913333333333
2337297667 -0.108834 -0.7235840000000001
2338783546 -0.10601533333333334 -0.7189673333333334
2340269425 -0.10953933333333334 -0.7189323333333334
2341755304 -0.10204233333333335 -0.7228946666666666
2343241183 -0.108558 -0.722066
2344727062 -0.112452 -0.726271
2346212941 -0.10975966666666666 -0.7269966666666666
2347698820 -0.11551033333333333 -0.7313826666666666
2349184699 -0.11201933333333332 -0.729766
2350670578 -0.11750533333333334 -0.7309523333333333
2352156457 -0.11569933333333333 -0.7310356666666666
2353642336 -0.11141966666666665 -0.729215
2355128215 -0.11353633333333334 -0.7327576666666666
2356614094 -0.10903800000000001 -0.7308326666666667
2358099973 -0.11832433333333332 -0.7262966666666667
2359585852 -0.118489 -0.7286156666666667
2361071731 -0.11317533333333334 -0.7259026666666667
2362557610 -0.11990466666666666 -0.7255250000000001
2364043489 -0.11665733333333334 -0.7201046666666665
2365529368 -0.12084333333333334 -0.7199803333333333
2367015247 -0.11905933333333334 -0.714482
2368501126 -0.12082833333333333 -0.713621
2369987005 -0.123888 -0.7075243333333333
2371472884 -0.12381066666666667 -0.7119896666666666
2372958763 -0.123262 -0.7155753333333333
2374444642 -0.123749 -0.7187526666666667
2375930521 -0.12092033333333334 -0.7201759999999999
2377416400 -0.12448566666666668 -0.7197593333333332
2378902279 -0.12736066666666668 -0.7253
2380388158 -0.12433 -0.724142
2381874037 -0.12527333333333335 -0.7246216666666667
2383359916 -0.11959633333333332 -0.7260393333333334
2384845795 -0.12156633333333333 -0.7243943333333333
2386331674 -0.11864966666666665 -0.72256
2387817553 -0.12120333333333333 -0.7210740000000001
2389303432 -0.120769 -0.7218133333333334
2390789311 -0.12038033333333335 -0.7197906666666668
2392275190 -0.116358 -0.7193903333333332
2393761069 -0.12059199999999999 -0.7151676666666665
2395246948 -0.11597266666666667 -0.7112413333333333
2396732827 -0.11892333333333333 -0.7105043333333333
2398218706 -0.11749 -0.7052003333333333
2399704585 -0.11826566666666666 -0.700986
2401190464 -0.12131566666666667 -0.7051016666666666
2402676343 -0.11983466666666666 -0.7061183333333334
2404162222 -0.12063466666666667 -0.7096103333333333
2405648101 -0.12811066666666668 -0.7109563333333334
2407133980 -0.12223466666666667 -0.712609
2408619859 -0.12091166666666665 -0.716185
2410105738 -0.12704800000000002 -0.7149313333333334
2411591617 -0.12700533333333333 -0.7183073333333333
2413077496 -0.127279 -0.7178393333333334
2414563375 -0.127011 -0.7172516666666667
2416049254 -0.127129 -0.7159239999999999
2417535133 -0.13215366666666664 -0.716312
2419021012 -0.12759800000000002 -0.7172346666666667
2420506891 -0.12903699999999999 -0.7173989999999999
2421992770 -0.13190166666666667 -0.7131076666666667
2423478649 -0.13334066666666666 -0.7116370000000001
2424964528 -0.130149 -0.7113019999999999
2426450407 -0.13482433333333335 -0.7099746666666666
2427936286 -0.134945 -0.7065383333333334
2429422165 -0.13244999999999998 -0.7027163333333334
2430908044 -0.13904066666666667 -0.7023896666666666
2432393923 -0.134066 -0.7076286666666668
2433879802 -0.13687200000000002 -0.7110006666666667
2435365681 -0.13586666666666666 -0.7095030000000001
2436851560 -0.135897 -0.715217
2438337439 -0.135616 -0.712578
2439823318 -0.13635733333333333 -0.7132526666666666
2441309197 -0.14075666666666667 -0.7153846666666667
2442795076 -0.138132 -0.712405
2444280955 -0.136344 -0.7159260000000001
2445766834 -0.13923066666666664 -0.7133943333333334
2447252713 -0.13660766666666666 -0.7140486666666667
2448738592 -0.13760666666666665 -0.7132373333333334
2450224471 -0.13682866666666665 -0.71091
2451710350 -0.13443633333333335 -0.7094526666666668
2453196229 -0.136188 -0.7059163333333333
2454682108 -0.13763066666666668 -0.7041543333333333
2456167987 -0.13669633333333334 -0.7011136666666666
2457653866 -0.13409033333333334 -0.6992653333333333
2459139745 -0.13800333333333334 -0.6929596666666665
2460625624 -0.13884766666666667 -0.6923236666666668
2462111503 -0.13658066666666666 -0.6940276666666666
2463597382 -0.14190499999999998 -0.6946879999999999
2465083261 -0.14233333333333334 -0.698948
2466569140 -0.13930333333333333 -0.70158
2468055019 -0.14204533333333333 -0.7020093333333334
2469540898 -0.141348 -0.7029436666666667
2471026777 -0.15179933333333331 -0.6935436666666668
2472512656 -0.14146866666666666 -0.703649
2473998535 -0.14404066666666668 -0.704771
2475484414 -0.14253966666666665 -0.7030533333333334
2476970293 -0.14203933333333332 -0.7035446666666667
2478456172 -0.144199 -0.7019923333333334
2479942051 -0.14349800000000001 -0.7024186666666666
2481427930 -0.144316 -0.6996496666666667
2482913809 -0.1448866666666667 -0.699325
2484399688 -0.144132 -0.6953143333333333
2485885567 -0.14561966666666668 -0.69259
2487371446 -0.14541633333333334 -0.6892763333333333
2488857325 -0.14139133333333334 -0.6876349999999999
2490343204 -0.14192600000000002 -0.6859006666666666
2491829083 -0.14467466666666665 -0.6892913333333333
2493314962 -0.147826 -0.6889686666666668
2494800841 -0.14709666666666668 -0.6940393333333333
2496286720 -0.14522433333333332 -0.6972693333333333
2497772599 -0.147941 -0.6997236666666667
2499258478 -0.14553033333333332 -0.7012
2500744357 -0.145373 -0.7039403333333333
2502230236 -0.15001833333333334 -0.7030193333333333
2503716115 -0.1462473333333333 -0.7086920000000001
2505201994 -0.14655700000000002 -0.7041143333333334
2506687873 -0.14039966666666667 -0.7054856666666667
2508173752 -0.145157 -0.7026849999999999
2509659631 -0.14589433333333332 -0.703783
2511145510 -0.14241099999999998 -0.704686
2512631389 -0.14112533333333332 -0.7027286666666667
2514117268 -0.14348033333333335 -0.6993783333333333
2515603147 -0.13857166666666668 -0.6985416666666667
2517089026 -0.14144500000000002 -0.6965073333333334
2518574905 -0.13744900000000002 -0.6949113333333333
2520060784 -0.13702533333333333 -0.6912343333333334
2521546663 -0.14116066666666666 -0.6946763333333332
2523032542 -0.14274299999999998 -0.6957576666666666
2524518421 -0.1418 -0.700503
2526004300 -0.14332333333333333 -0.6997046666666668
2527490179 -0.144363 -0.7020416666666666
2528976058 -0.14409933333333333 -0.7022499999999999
2530461937 -0.14443133333333333 -0.705728
2531947816 -0.14701866666666666 -0.7037126666666668
2533433695 -0.143966 -0.7079910000000001
2534919574 -0.14992666666666665 -0.7025896666666668
2536405453 -0.14873833333333333 -0.7068846666666667
2537891332 -0.14919766666666667 -0.7068850000000001
2539377211 -0.147405 -0.7058603333333333
2540863090 -0.14679833333333334 -0.7046293333333334
2542348969 -0.14742366666666665 -0.704419
2543834848 -0.1473796666666667 -0.703544
2545320727 -0.1491356666666667 -0.7012403333333332
2546806606 -0.14923533333333333 -0.6990773333333333
2548292485 -0.14839733333333333 -0.6947476666666667
2549778364 -0.14965499999999998 -0.6940396666666667
2551264243 -0.1472 -0.6986083333333334
2552750122 -0.15215866666666666 -0.6986680000000001
2554236001 -0.1549326666666667 -0.7005509999999999
2555721880 -0.154786 -0.7050613333333334
2557207759 -0.15355966666666665 -0.7077289999999999
2558693638 -0.15640400000000002 -0.7058143333333332
2560179517 -0.15335266666666666 -0.707916
2561665396 -0.15431733333333333 -0.7094653333333333
2563151275 -0.15798833333333331 -0.7069443333333334
2564637154 -0.158353 -0.7096133333333334
2566123033 -0.15706466666666666 -0.7072366666666666
2567608912 -0.15184666666666666 -0.711556
2569094791 -0.172229 -0.7067173333333333
2570580670 -0.15668966666666667 -0.7089846666666667
2572066549 -0.15641133333333335 -0.7048086666666666
2573552428 -0.15552233333333335 -0.709155
2575038307 -0.15289733333333333 -0.7048746666666666
2576524186 -0.16225166666666668 -0.7045886666666666
2578010065 -0.16016033333333332 -0.6981386666666666
2579495944 -0.1616133333333333 -0.698351
2580981823 -0.15898900000000002 -0.6970743333333332
2582467702 -0.155919 -0.699061
2583953581 -0.15813200000000002 -0.702232
2585439460 -0.16157766666666665 -0.6988916666666666
2586925339 -0.16030533333333333 -0.6989766666666667
2588411218 -0.15905833333333333 -0.6988150000000001
2589897097 -0.15558366666666668 -0.7012923333333334
2591382976 -0.15365066666666669 -0.6992756666666667
2592868855 -0.15805999999999998 -0.700676
2594354734 -0.15349533333333332 -0.6985043333333333
2595840613 -0.1570446666666667 -0.6955673333333333
2597326492 -0.15426533333333334 -0.6955863333333333
2598812371 -0.154498 -0.6959573333333333
2600298250 -0.15315066666666666 -0.6907139999999999
2601784129 -0.15193233333333334 -0.6999230000000001
2603270008 -0.15892399999999998 -0.6829580000000001
2604755887 -0.15780066666666667 -0.684432
2606241766 -0.15542466666666668 -0.6805503333333333
2607727645 -0.15858633333333336 -0.675774
2609213524 -0.160484 -0.6758303333333333
2610699403 -0.15636233333333335 -0.6717970000000001
2612185282 -0.15518700000000002 -0.672326
2613671161 -0.161401 -0.6764536666666666
2615157040 -0.16013433333333335 -0.6756986666666666
2616642919 -0.15494433333333332 -0.6807196666666667
2618128798 -0.157404 -0.6849270000000001
2619614677 -0.158078 -0.682785
2621100556 -0.15674833333333335 -0.6839230000000001
2622586435 -0.14826133333333333 -0.6914753333333333
2624072314 -0.15653966666666666 -0.683712
2625558193 -0.15786566666666665 -0.683823
2627044072 -0.15843 -0.6854763333333334
2628529951 -0.17621066666666665 -0.6649613333333334
2630015830 -0.15295433333333333 -0.6886116666666666
2631501709 -0.16026100000000001 -0.6807113333333333
2632987588 -0.15655233333333332 -0.680008
2634473467 -0.15839266666666665 -0.6761783333333332
2635959346 -0.157752 -0.6788896666666666
2637445225 -0.157057 -0.67631
2638931104 -0.15748533333333334 -0.671622
2640416983 -0.16241000000000003 -0.669445
2641902862 -0.16100133333333333 -0.6770316666666667
2643388741 -0.15903633333333334 -0.6794866666666666
2644874620 -0.15753266666666668 -0.6831666666666667
2646360499 -0.16589833333333334 -0.683164
2647846378 -0.16208866666666666 -0.6881546666666667
2649332257 -0.159779 -0.6882026666666666
2650818136 -0.16007066666666667 -0.6917776666666665
2652304015 -0.16008633333333333 -0.695351
2653789894 -0.16381666666666664 -0.6943906666666666
2655275773 -0.16335233333333335 -0.695339
2656761652 -0.16632133333333332 -0.6956356666666667
2658247531 -0.159434 -0.6958476666666668
2659733410 -0.15612266666666666 -0.6985826666666667
2661219289 -0.16683099999999998 -0.6956943333333334
2662705168 -0.16070399999999999 -0.6945713333333333
2664191047 -0.16425466666666666 -0.6925616666666666
2665676926 -0.16515566666666667 -0.6930256666666667
2667162805 -0.16213666666666665 -0.6898263333333333
2668648684 -0.16772299999999998 -0.6876656666666667
2670134563 -0.16798 -0.6864013333333334
2671620442 -0.165105 -0.6919976666666666
2673106321 -0.16304 -0.6943416666666667
2674592200 -0.162006 -0.696152
2676078079 -0.153328 -0.697152
2677563958 -0.16096366666666664 -0.6977566666666667
2679049837 -0.161887 -0.6990363333333333
2680535716 -0.15618766666666664 -0.7024416666666667
2682021595 -0.16325266666666668 -0.7015506666666665
2683507474 -0.14829766666666666 -0.706232
2684993353 -0.1615076666666667 -0.6971133333333334
2686479232 -0.15167466666666665 -0.7019953333333334
2687965111 -0.151222 -0.6817453333333333
2689450990 -0.153246 -0.6967789999999999
2690936869 -0.15770933333333334 -0.6962039999999999
2692422748 -0.149644 -0.692784
2693908627 -0.16476933333333332 -0.6894703333333333
2695394506 -0.14620366666666665 -0.6892339999999999
2696880385 -0.15636533333333333 -0.6838926666666666
2698366264 -0.14943733333333334 -0.6811023333333334
2699852143 -0.15971966666666668 -0.6764193333333334
2701338022 -0.16004633333333332 -0.6803486666666667
2702823901 -0.15599633333333332 -0.6838829999999999
2704309780 -0.15113066666666666 -0.6861556666666666
2705795659 -0.15719466666666668 -0.6865996666666666
2707281538 -0.15031133333333332 -0.690629
2708767417 -0.14621366666666666 -0.6888993333333334
2710253296 -0.147165 -0.6919903333333334
2711739175 -0.14512 -0.6938916666666666
2713225054 -0.15178666666666665 -0.690732
2714710933 -0.14727466666666666 -0.690394
2716196812 -0.14749199999999998 -0.6908806666666667
2717682691 -0.14200333333333334 -0.6904816666666665
2719168570 -0.14585533333333334 -0.6868756666666666
2720654449 -0.139208 -0.686319
2722140328 -0.143473 -0.6813296666666666
2723626207 -0.14573066666666668 -0.6801473333333333
2725112086 -0.14625133333333332 -0.6750003333333333
2726597965 -0.14096233333333333 -0.675335
2728083844 -0.147482 -0.6717606666666667
2729569723 -0.14545866666666665 -0.670468
2731055602 -0.140026 -0.670087
2732541481 -0.15036433333333332 -0.6709426666666668
2734027360 -0.1478303333333333 -0.6777176666666667
2735513239 -0.15623533333333334 -0.675652
2736999118 -0.15623766666666666 -0.6806803333333334
2738484997 -0.15947 -0.680491
2739970876 -0.15409833333333334 -0.6853803333333334
2741456755 -0.15782566666666667 -0.6866660000000001
2742942634 -0.16453633333333334 -0.6913563333333332
2744428513 -0.15871433333333332 -0.686271
2745914392 -0.15804366666666667 -0.6897570000000001
2747400271 -0.15841166666666667 -0.6909376666666667
2748886150 -0.16404 -0.6921096666666667
2750372029 -0.16960966666666666 -0.6900566666666667
2751857908 -0.174323 -0.6904883333333333
2753343787 -0.171848 -0.6905786666666667
2754829666 -0.16915933333333333 -0.6904116666666665
2756315545 -0.16839366666666666 -0.6853873333333333
2757801424 -0.16386399999999998 -0.6838483333333333
2759287303 -0.16992766666666667 -0.6886213333333333
2760773182 -0.1703583333333333 -0.686281
2762259061 -0.17145766666666665 -0.6908963333333334
2763744940 -0.16988899999999998 -0.6868363333333333
2765230819 -0.1723766666666667 -0.6945803333333332
2766716698 -0.168439 -0.6996423333333333
2768202577 -0.16857633333333336 -0.6937146666666667
2769688456 -0.16959900000000003 -0.6941376666666667
2771174335 -0.16347233333333333 -0.6973946666666667
2772660214 -0.170077 -0.6991519999999999
2774146093 -0.159756 -0.6925033333333332
2775631972 -0.16682833333333336 -0.6961586666666667
2777117851 -0.16065733333333332 -0.6950073333333333
2778603730 -0.16319400000000003 -0.6918556666666666
2780089609 -0.157799 -0.6908660000000001
2781575488 -0.159933 -0.6936036666666667
2783061367 -0.16368233333333335 -0.6882206666666666
2784547246 -0.161254 -0.6848633333333334
2786033125 -0.15602533333333335 -0.6827946666666667
2787519004 -0.15727766666666668 -0.674226
2789004883 -0.15577166666666667 -0.674191
2790490762 -0.157495 -0.6710553333333333
2791976641 -0.15807733333333332 -0.6736369999999999
2793462520 -0.16200099999999998 -0.6769806666666667
2794948399 -0.161631 -0.6761560000000001
2796434278 -0.16282433333333332 -0.6784086666666665
2797920157 -0.16005866666666668 -0.6804939999999999
2799406036 -0.16549366666666668 -0.6840006666666666
2800891915 -0.16867966666666667 -0.6861153333333333
2802377794 -0.16714033333333334 -0.6826313333333333
2803863673 -0.166681 -0.6856773333333331
2805349552 -0.16134600000000002 -0.6831079999999999
2806835431 -0.16813266666666668 -0.6824669999999999
2808321310 -0.16987966666666668 -0.688754
2809807189 -0.162284 -0.6837573333333333
2811293068 -0.172243 -0.6790873333333334
2812778947 -0.16859100000000002 -0.6830240000000001
2814264826 -0.17107233333333335 -0.683583
2815750705 -0.169619 -0.6779109999999999
2817236584 -0.17169266666666663 -0.6751429999999999
2818722463 -0.17029433333333333 -0.6739873333333333
2820208342 -0.17106033333333334 -0.670616
2821694221 -0.17328333333333334 -0.6775313333333334
2823180100 -0.173239 -0.6761840000000001
2824665979 -0.170947 -0.683509
2826151858 -0.17002766666666666 -0.6818543333333333
2827637737 -0.172404 -0.6817566666666667
2829123616 -0.17309833333333333 -0.6833476666666667
2830609495 -0.16935266666666668 -0.6808503333333333
2832095374 -0.16896266666666668 -0.6814826666666667
2833581253 -0.17278866666666667 -0.682366
2835067132 -0.17381533333333335 -0.681131
2836553011 -0.16922566666666664 -0.6775423333333332
2838038890 -0.16720366666666667 -0.6753936666666668
2839524769 -0.177777 -0.6744593333333334
2841010648 -0.16907033333333335 -0.6733410000000001
2842496527 -0.167758 -0.6700486666666666
2843982406 -0.17238466666666666 -0.6661183333333334
2845468285 -0.16661833333333334 -0.6635273333333334
2846954164 -0.16602099999999997 -0.6604833333333333
2848440043 -0.16668033333333332 -0.6556316666666667
2849925922 -0.1695686666666667 -0.6540773333333333
2851411801 -0.17197966666666664 -0.6483713333333333
2852897680 -0.169202 -0.6597543333333333
2854383559 -0.16900199999999999 -0.663786
2855869438 -0.171453 -0.6600403333333333
2857355317 -0.17012633333333335 -0.6640283333333333
2858841196 -0.17162699999999997 -0.6655443333333334
2860327075 -0.16948433333333335 -0.6655823333333334
2861812954 -0.171045 -0.6685293333333333
2863298833 -0.16578400000000001 -0.668427
2864784712 -0.167884 -0.667553
2866270591 -0.16918866666666665 -0.6687956666666667
2867756470 -0.16859533333333332 -0.665234
2869242349 -0.15933433333333333 -0.6698003333333333
2870728228 -0.15982866666666665 -0.6663383333333334
2872214107 -0.160203 -0.6678756666666666
2873699986 -0.16740066666666667 -0.6641153333333333
2875185865 -0.16106833333333334 -0.6623039999999999
2876671744 -0.161209 -0.661359
2878157623 -0.16209166666666666 -0.6615456666666667
2879643502 -0.15944066666666667 -0.6560846666666666
2881129381 -0.16086999999999999 -0.6559753333333332
2882615260 -0.164255 -0.6591713333333334
2884101139 -0.16375599999999998 -0.661697
2885587018 -0.16295266666666666 -0.6632733333333333
2887072897 -0.16222466666666666 -0.6686073333333334
2888558776 -0.165049 -0.66657
2890044655 -0.16253766666666666 -0.6691693333333334
2891530534 -0.16785866666666668 -0.6685659999999999
2893016413 -0.1684996666666667 -0.6694279999999999
2894502292 -0.166465 -0.6696356666666666
2895988171 -0.16936266666666666 -0.668883
2897474050 -0.16495166666666666 -0.6705466666666666
2898959929 -0.1660343333333333 -0.6692446666666667
2900445808 -0.16491933333333333 -0.6689266666666667
2901931687 -0.171428 -0.666027
2903417566 -0.16327100000000003 -0.6650316666666667
2904903445 -0.16573066666666667 -0.6635156666666666
2906389324 -0.16712633333333335 -0.662107
2907875203 -0.16826466666666665 -0.657833
2909361082 -0.16938399999999998 -0.6559193333333334
2910846961 -0.16978833333333332 -0.6571729999999999
2912332840 -0.16797666666666666 -0.6602333333333333
2913818719 -0.169813 -0.6603766666666667
2915304598 -0.172947 -0.660663
2916790477 -0.172212 -0.6640586666666667
2918276356 -0.173752 -0.6633813333333334
2919762235 -0.17295666666666665 -0.6642336666666667
2921248114 -0.17425766666666667 -0.6638386666666666
2922733993 -0.17452233333333333 -0.66708
2924219872 -0.17474900000000002 -0.663589
2925705751 -0.17597533333333334 -0.664612
2927191630 -0.17782699999999999 -0.662213
2928677509 -0.1804 -0.6623646666666666
2930163388 -0.1792406666666667 -0.661326
2931649267 -0.17896033333333336 -0.658043
2933135146 -0.17985933333333334 -0.6592476666666667
2934621025 -0.18050433333333335 -0.6595326666666667
2936106904 -0.18110166666666663 -0.6522959999999999
2937592783 -0.18034433333333333 -0.6517466666666667
2939078662 -0.18214566666666668 -0.6473516666666667
2940564541 -0.184764 -0.6452886666666667
2942050420 -0.186183 -0.65219
2943536299 -0.18473666666666666 -0.6512506666666666
2945022178 -0.187025 -0.6550076666666667
2946508057 -0.18662233333333333 -0.6567823333333335
2947993936 -0.18359099999999998 -0.6577933333333333
2949479815 -0.18249300000000002 -0.6598896666666666
2950965694 -0.18761333333333333 -0.6603496666666667
2952451573 -0.1851223333333333 -0.6617346666666667
2953937452 -0.18952333333333335 -0.6584776666666666
2955423331 -0.18301200000000004 -0.660996
2956909210 -0.183864 -0.658391
2958395089 -0.18370366666666668 -0.6588256666666666
2959880968 -0.18695933333333334 -0.6563503333333333
2961366847 -0.18367366666666665 -0.6573443333333332
2962852726 -0.18385166666666666 -0.6541076666666666
2964338605 -0.183061 -0.6527416666666667
2965824484 -0.17979699999999998 -0.650675
2967310363 -0.18195033333333333 -0.6469216666666666
2968796242 -0.18360933333333332 -0.643173
2970282121 -0.181941 -0.6445216666666667
2971768000 -0.18260866666666667 -0.6436343333333333
2973253879 -0.17968966666666666 -0.6465526666666667
2974739758 -0.18141766666666667 -0.6514246666666667
2976225637 -0.18398899999999999 -0.6501493333333334
2977711516 -0.17937100000000003 -0.65119
2979197395 -0.18210466666666666 -0.6514076666666667
2980683274 -0.17790766666666666 -0.6558860000000001
2982169153 -0.17808166666666667 -0.6575853333333334
2983655032 -0.17630266666666664 -0.656988
2985140911 -0.180698 -0.6483720000000001
2986626790 -0.17971033333333333 -0.6549643333333334
2988112669 -0.17827066666666666 -0.6519203333333333
2989598548 -0.17929933333333334 -0.6523483333333333
2991084427 -0.17353866666666665 -0.6482366666666667
2992570306 -0.17211400000000002 -0.6492616666666667
2994056185 -0.17074766666666666 -0.6436943333333333
2995542064 -0.170258 -0.6453986666666666
2997027943 -0.16935466666666668 -0.6437596666666666
2998513822 -0.16791433333333336 -0.6385523333333333
2999999701 -0.1696776666666667 -0.6348229999999999
