# HZ S RI R 50
10000 1.094353 -0.08569866666666666
1495879 0.7173053333333334 1.2709000000000001
2981758 0.5777019999999999 0.6893996666666666
4467637 0.5811913333333334 0.32682866666666666
5953516 0.6509136666666667 0.137459
7439395 0.743402 0.012119
8925274 1.0578626666666666 -0.06147266666666667
10411153 1.0969366666666664 0.03737033333333333
11897032 1.0848833333333332 0.16860766666666668
13382911 1.0170886666666668 0.29189766666666667
14868790 0.9141976666666668 0.379002
16354669 0.8018136666666665 0.42539299999999997
17840548 0.6978313333333332 0.4399406666666667
19326427 0.6087876666666667 0.4329416666666666
20812306 0.5152253333333333 0.40299033333333334
22298185 0.476955 0.390446
23784064 0.42877766666666667 0.364542
25269943 0.39086766666666667 0.338871
26755822 0.35966366666666666 0.3137813333333333
28241701 0.3332833333333333 0.29011933333333334
29727580 0.31168900000000005 0.26816100000000004
31213459 0.3219786666666667 0.2530563333333333
32699338 0.3383076666666667 0.23824533333333334
34185217 0.353991 0.22485599999999997
35671096 0.3692573333333333 0.20889333333333335
37156975 0.38430133333333333 0.189716
38642854 0.398266 0.17298099999999997
40128733 0.41231799999999996 0.150027
41614612 0.42485733333333336 0.13850033333333334
43100491 0.438213 0.11620699999999999
44586370 0.45151699999999995 0.09797533333333334
46072249 0.46523133333333333 0.07453
47558128 0.47948033333333334 0.057317666666666676
49044007 0.4959576666666667 0.040183
50529886 0.5149016666666667 0.025466
52015765 0.536342 -0.004031333333333334
53501644 0.564864 -0.022922333333333333
54987523 0.6028576666666666 -0.048245666666666666
56473402 0.6557366666666666 -0.08682800000000002
57959281 0.7431876666666666 -0.103555
59445160 0.9010980000000001 -0.08517999999999999
60931039 0.997043 -0.05582433333333333
62416918 1.001345 -0.06565066666666666
63902797 1.0040596666666668 -0.075222
65388676 1.0058263333333333 -0.08410766666666668
66874555 1.0085956666666667 -0.08117366666666666
68360434 1.0023826666666666 -0.16554766666666665
69846313 1.0132253333333334 -0.05932199999999999
71332192 1.0152646666666667 -0.054188999999999994
72818071 1.0141723333333335 -0.09869466666666667
74303950 1.0142793333333335 -0.09034133333333333
75789829 1.0167993333333334 -0.022797
77275708 1.0173976666666666 -0.031937
78761587 1.016452 -0.025361333333333333
80247466 1.0070146666666666 -0.14307466666666666
81733345 1.0089886666666665 -0.09572966666666666
83219224 1.0067799999999998 -0.10627566666666666
84705103 1.001961 -0.13227366666666665
86190982 1.0058203333333335 0.004040333333333334
87676861 0.9952133333333334 -0.12492066666666667
89162740 0.9939906666666668 -0.09891566666666667
90648619 0.9917170000000001 -0.11811100000000001
92134498 0.9955326666666666 -0.11639633333333332
93620377 1.0011613333333333 -0.08431166666666667
95106256 1.0011373333333333 -0.111842
96592135 1.0041653333333331 -0.11254000000000002
98078014 1.0067603333333335 -0.10723633333333334
99563893 1.0084153333333334 -0.104169
101049772 1.009121333333333 -0.11936366666666666
102535651 1.0094196666666668 -0.119794
104021530 1.0092663333333334 -0.121626
105507409 1.008762 -0.12232133333333332
106993288 1.0092203333333334 -0.12405933333333334
108479167 1.0082343333333335 -0.124767
109965046 1.0060233333333335 -0.12517633333333333
111450925 1.004985 -0.126783
112936804 1.002756 -0.127399
114422683 0.999996 -0.12846633333333335
115908562 0.9968413333333334 -0.129293
117394441 0.9933896666666667 -0.13011533333333333
118880320 0.989777 -0.12981966666666667
120366199 0.9874756666666666 -0.13271166666666664
121852078 0.9926530000000001 -0.134238
123337957 0.9951736666666666 -0.13643366666666665
124823836 0.9981126666666666 -0.1391456666666667
126309715 1.0017073333333333 -0.14180533333333334
127795594 1.0041836666666668 -0.14246266666666665
129281473 1.0074046666666667 -0.144371
130767352 1.0089473333333334 -0.14621266666666666
132253231 1.0108953333333333 -0.147486
133739110 1.012265 -0.14809333333333333
135224989 0.996245 -0.15980333333333333
136710868 0.9964736666666667 -0.161015
138196747 0.995826 -0.16091766666666665
139682626 0.9957846666666667 -0.16253533333333334
141168505 0.9943396666666667 -0.16362600000000002
142654384 0.9929953333333333 -0.16370666666666667
144140263 0.991664 -0.16464466666666666
145626142 0.9894836666666667 -0.16464233333333333
147112021 0.9867223333333334 -0.165519
148597900 0.983699 -0.16538366666666668
150083779 0.9801196666666666 -0.16672166666666666
151569658 0.9839163333333333 -0.1693716666666667
153055537 0.9866253333333334 -0.170446
154541416 0.9887303333333333 -0.17301933333333333
156027295 0.9913970000000001 -0.17490333333333333
157513174 0.9934203333333333 -0.176818
158999053 0.9934 -0.17961266666666667
160484932 0.9953183333333332 -0.18044366666666667
161970811 0.9958716666666666 -0.181983
163456690 0.996844 -0.18224633333333332
164942569 0.996407 -0.18439400000000003
166428448 0.995854 -0.18496066666666666
167914327 0.9946860000000001 -0.187029
169400206 0.9946006666666666 -0.18728166666666665
170886085 0.9922913333333333 -0.18804533333333331
172371964 0.990237 -0.190527
173857843 0.9920893333333334 -0.179096
175343722 0.999517 -0.1628913333333333
176829601 0.9859063333333333 -0.18151533333333333
178315480 0.9826336666666666 -0.183424
179801359 0.979175 -0.18443066666666666
181287238 0.9811753333333334 -0.18667833333333336
182773117 0.983714 -0.18888433333333335
184258996 0.9872873333333333 -0.19084566666666666
185744875 0.9894183333333334 -0.19286966666666663
187230754 0.9916166666666667 -0.19408166666666668
188716633 0.9928133333333333 -0.19585433333333335
190202512 0.9951023333333334 -0.19754233333333335
191688391 0.9954613333333334 -0.20048433333333335
193174270 0.9961156666666665 -0.20067066666666666
194660149 0.9958283333333333 -0.201925
196146028 0.9901986666666667 -0.2150173333333333
197631907 0.989089 -0.217162
199117786 0.987685 -0.21794366666666665
200603665 0.986084 -0.21956366666666668
202089544 0.9834549999999999 -0.22069799999999998
203575423 0.9807446666666667 -0.222647
205061302 0.9778416666666666 -0.22339566666666666
206547181 0.9739503333333334 -0.22564633333333337
208033060 0.9705443333333333 -0.22712066666666667
209518939 0.9664649999999999 -0.22900333333333334
211004818 0.9673056666666667 -0.23125633333333337
212490697 0.9707383333333334 -0.2330283333333333
213976576 0.9740896666666666 -0.2349753333333333
215462455 0.9771323333333334 -0.23730133333333334
216948334 0.978892 -0.23916266666666666
218434213 0.9808656666666667 -0.240923
219920092 0.9820713333333333 -0.24270966666666668
221405971 0.9829393333333334 -0.2434293333333333
222891850 0.9854306666666667 -0.23956299999999997
224377729 0.9828066666666667 -0.246251
225863608 0.9839410000000001 -0.24803633333333333
227349487 0.9813183333333333 -0.24853033333333333
228835366 0.980213 -0.25062199999999996
230321245 0.9785596666666666 -0.2523593333333333
231807124 0.9761993333333333 -0.25307166666666664
233293003 0.9726133333333333 -0.25460166666666667
234778882 0.968824 -0.25601833333333335
236264761 0.9653693333333333 -0.25736133333333333
237750640 0.961287 -0.25861666666666666
239236519 0.956646 -0.26038866666666666
240722398 0.956192 -0.2624903333333333
242208277 0.9594999999999999 -0.26586133333333334
243694156 0.9625433333333334 -0.2673083333333333
245180035 0.9662166666666666 -0.26931266666666664
246665914 0.9687033333333334 -0.271824
248151793 0.9704630000000001 -0.2738566666666667
249637672 0.9721543333333332 -0.2754106666666667
251123551 0.9730106666666667 -0.2767406666666667
252609430 0.9735393333333334 -0.277837
254095309 0.9738116666666667 -0.27970066666666665
255581188 0.9731169999999999 -0.2809413333333333
257067067 0.9719693333333334 -0.28185233333333337
258552946 0.9695833333333334 -0.28341
260038825 0.968619 -0.283266
261524704 0.9658426666666667 -0.2849713333333333
263010583 0.9626403333333334 -0.28538933333333333
264496462 0.9590893333333333 -0.2868726666666666
265982341 0.9547506666666666 -0.2878593333333333
267468220 0.9504266666666666 -0.28875133333333336
268954099 0.9451666666666667 -0.29056066666666663
270439978 0.9426403333333333 -0.2922613333333333
271925857 0.9469479999999999 -0.29545266666666664
273411736 0.9497613333333333 -0.298251
274897615 0.9527096666666667 -0.30188333333333334
276383494 0.9556493333333332 -0.303717
277869373 0.9576556666666667 -0.3066176666666667
279355252 0.9590643333333334 -0.30835799999999997
280841131 0.9608526666666667 -0.30945733333333336
282327010 0.9627 -0.311992
283812889 0.9621406666666666 -0.31223333333333336
285298768 0.9614856666666668 -0.31271033333333337
286784647 0.960781 -0.31399266666666664
288270526 0.9582366666666666 -0.31559333333333334
289756405 0.957236 -0.31593699999999997
291242284 0.954434 -0.317444
292728163 0.951887 -0.31803433333333336
294214042 0.9476166666666667 -0.318943
295699921 0.9440936666666667 -0.3192296666666667
297185800 0.9392916666666666 -0.32019200000000003
298671679 0.9339566666666667 -0.32109566666666667
300157558 0.9300736666666666 -0.32258000000000003
301643437 0.9335583333333334 -0.325614
303129316 0.9377176666666666 -0.3291633333333333
304615195 0.9404186666666666 -0.33201033333333335
306101074 0.943278 -0.334628
307586953 0.9453783333333332 -0.33679599999999993
309072832 0.9474646666666667 -0.33868133333333333
310558711 0.947543 -0.3414026666666667
312044590 0.949699 -0.3422086666666666
313530469 0.949056 -0.34400800000000004
315016348 0.948973 -0.344487
316502227 0.9484073333333334 -0.346163
317988106 0.9461463333333334 -0.34681633333333334
319473985 0.9453303333333333 -0.34765533333333337
320959864 0.9396123333333333 -0.352504
322445743 0.9405209999999999 -0.34774733333333335
323931622 0.9322119999999999 -0.35308633333333334
325417501 0.9317796666666668 -0.3494536666666666
326903380 0.8832176666666666 -0.34697833333333333
328389259 0.9203306666666666 -0.3549963333333333
329875138 0.9172423333333333 -0.3502753333333333
331361017 0.9197733333333332 -0.35390533333333335
332846896 0.9228566666666667 -0.3568233333333333
334332775 0.925234 -0.3597436666666667
335818654 0.9270906666666666 -0.36454133333333333
337304533 0.9281070000000001 -0.36686233333333335
338790412 0.9300363333333334 -0.36894933333333335
340276291 0.9313786666666667 -0.37006300000000003
341762170 0.9305103333333333 -0.3720083333333333
343248049 0.9321160000000001 -0.3728643333333333
344733928 0.9307630000000001 -0.37545633333333334
346219807 0.9237116666666667 -0.38481499999999996
347705686 0.9284353333333334 -0.3768413333333333
349191565 0.9267606666666667 -0.377623
350677444 0.9240986666666667 -0.37845199999999996
352163323 0.920621 -0.378704
353649202 0.9176493333333333 -0.37792099999999995
355135081 0.9133393333333334 -0.3776513333333333
356620960 0.909376 -0.37816199999999994
358106839 0.905587 -0.37906199999999995
359592718 0.8984426666666666 -0.3771630000000001
361078597 0.8988793333333334 -0.381256
362564476 0.9021406666666666 -0.38539866666666667
364050355 0.9042986666666667 -0.38947466666666664
365536234 0.9061819999999999 -0.3927753333333333
367022113 0.9085143333333333 -0.3938086666666667
368507992 0.9105786666666668 -0.3977136666666667
369993871 0.9117799999999999 -0.3995093333333333
371479750 0.911721 -0.40201400000000004
372965629 0.9125066666666667 -0.4024746666666667
374451508 0.9106633333333333 -0.4034716666666667
375937387 0.9115866666666667 -0.40583833333333336
377423266 0.9101243333333334 -0.405893
378909145 0.908179 -0.407175
380395024 0.9314583333333334 -0.39199
381880903 0.9038806666666667 -0.40631766666666663
383366782 0.901066 -0.40698433333333334
384852661 0.8980563333333333 -0.40678400000000003
386338540 0.8940423333333333 -0.40644600000000003
387824419 0.8894023333333334 -0.40667133333333333
389310298 0.884334 -0.405121
390796177 0.883395 -0.40779366666666667
392282056 0.8866233333333332 -0.4112799999999999
393767935 0.8887616666666668 -0.4143493333333333
395253814 0.890523 -0.41777933333333334
396739693 0.8914036666666667 -0.42140200000000005
398225572 0.8931696666666666 -0.422061
399711451 0.8948523333333332 -0.4259213333333333
401197330 0.8944823333333334 -0.4275526666666667
402683209 0.8949023333333334 -0.4287293333333333
404169088 0.8949813333333333 -0.4299123333333333
405654967 0.8943416666666667 -0.43091966666666665
407140846 0.8930023333333333 -0.43154266666666663
408626725 0.8921063333333333 -0.4321123333333334
410112604 0.8892396666666667 -0.43285366666666664
411598483 0.8878320000000001 -0.4324136666666667
413084362 0.8851796666666667 -0.43258366666666664
414570241 0.8813196666666666 -0.43187133333333333
416056120 0.8778493333333334 -0.43164833333333336
417541999 0.873892 -0.4303893333333333
419027878 0.8695676666666667 -0.4296663333333333
420513757 0.8661796666666667 -0.4317803333333334
421999636 0.868882 -0.43529666666666667
423485515 0.8709463333333334 -0.4382443333333333
424971394 0.8728133333333333 -0.4426566666666667
426457273 0.8735236666666667 -0.44491299999999995
427943152 0.8750503333333334 -0.44773799999999997
429429031 0.8767233333333334 -0.44946633333333336
430914910 0.8760673333333333 -0.45191200000000004
432400789 0.87665 -0.45281600000000005
433886668 0.8780753333333333 -0.4545243333333333
435372547 0.8765130000000001 -0.45538833333333334
436858426 0.8748809999999999 -0.4565336666666666
438344305 0.8741233333333334 -0.457322
439830184 0.871626 -0.4575883333333333
441316063 0.8697586666666668 -0.4574
442801942 0.8668429999999999 -0.457641
444287821 0.863279 -0.45717266666666667
445773700 0.860255 -0.45865
447259579 0.8550556666666668 -0.45825033333333337
448745458 0.8486463333333334 -0.46157033333333336
450231337 0.8487286666666667 -0.45667366666666664
451717216 0.8503436666666667 -0.4611516666666667
453203095 0.8523126666666667 -0.4638406666666666
454688974 0.8543636666666666 -0.4676903333333333
456174853 0.8558843333333334 -0.4693063333333334
457660732 0.857039 -0.4721936666666666
459146611 0.8569183333333333 -0.4741303333333333
460632490 0.85848 -0.47623366666666667
462118369 0.8591286666666665 -0.4774986666666667
463604248 0.8582776666666666 -0.479765
465090127 0.8573043333333334 -0.4796296666666667
466576006 0.856401 -0.480178
468061885 0.8551903333333333 -0.4793813333333334
469547764 0.8530236666666666 -0.479663
471033643 0.8590516666666667 -0.4710823333333333
472519522 0.848359 -0.4803496666666667
474005401 0.8447263333333334 -0.48031666666666667
475491280 0.842801 -0.47926833333333335
476977159 0.838651 -0.4802136666666667
478463038 0.833956 -0.4791643333333333
479948917 0.829238 -0.47747866666666666
481434796 0.8314180000000001 -0.48164466666666667
482920675 0.8339946666666666 -0.48429966666666663
484406554 0.8351613333333333 -0.48714966666666665
485892433 0.8369596666666667 -0.49030033333333334
487378312 0.8378586666666666 -0.492537
488864191 0.8389506666666667 -0.4944353333333333
490350070 0.8398996666666667 -0.49682466666666664
491835949 0.8404193333333333 -0.4976623333333334
493321828 0.8413223333333333 -0.4988143333333333
494807707 0.8394786666666668 -0.49953166666666665
496293586 0.8384956666666668 -0.500363
497779465 0.838337 -0.49997433333333335
499265344 0.8365670000000001 -0.5005563333333333
500751223 0.8337783333333334 -0.5013716666666667
502237102 0.8307423333333334 -0.5003540000000001
503722981 0.8294023333333334 -0.5010976666666668
505208860 0.8259773333333333 -0.5002243333333333
506694739 0.8212346666666667 -0.500256
508180618 0.8171256666666666 -0.500254
509666497 0.8126653333333334 -0.4994693333333333
511152376 0.8136806666666668 -0.5012983333333333
512638255 0.816323 -0.5057943333333333
514124134 0.8175416666666667 -0.5088309999999999
515610013 0.8191613333333333 -0.5099733333333333
517095892 0.8205293333333333 -0.5128349999999999
518581771 0.8223573333333333 -0.5147946666666666
520067650 0.8226423333333334 -0.5179933333333333
521553529 0.8223256666666666 -0.5190263333333334
523039408 0.8228146666666666 -0.5205133333333333
524525287 0.822923 -0.5202196666666667
526011166 0.8221323333333332 -0.5224796666666667
527497045 0.8199413333333334 -0.5213363333333333
528982924 0.8185953333333332 -0.521853
530468803 0.8170053333333334 -0.5213886666666667
531954682 0.8143246666666667 -0.5216813333333333
533440561 0.811639 -0.521703
534926440 0.806765 -0.521061
536412319 0.8030503333333333 -0.52204
537898198 0.7989563333333334 -0.5210703333333334
539384077 0.7933393333333333 -0.520982
540869956 0.7940763333333334 -0.521691
542355835 0.7968203333333332 -0.5235660000000001
543841714 0.7985756666666667 -0.5260969999999999
545327593 0.8010950000000001 -0.5283463333333334
546813472 0.8014276666666666 -0.5299056666666666
548299351 0.8032936666666667 -0.5312326666666668
549785230 0.8026623333333333 -0.5314296666666667
551271109 0.8039936666666666 -0.5323033333333332
552756988 0.8038643333333333 -0.531891
554242867 0.8027716666666667 -0.53135
555728746 0.8038893333333333 -0.5310826666666667
557214625 0.800925 -0.531349
558700504 0.7990619999999998 -0.5306916666666667
560186383 0.794698 -0.5308033333333334
561672262 0.794793 -0.5290963333333333
563158141 0.7899203333333333 -0.5270526666666667
564644020 0.7865193333333335 -0.5262076666666667
566129899 0.7825403333333334 -0.524746
567615778 0.7780913333333334 -0.5220373333333334
569101657 0.7734163333333334 -0.520508
570587536 0.7695176666666667 -0.522532
572073415 0.7719576666666667 -0.5274453333333334
573559294 0.7737256666666666 -0.5311216666666667
575045173 0.7745903333333333 -0.5355506666666666
576531052 0.775591 -0.538221
578016931 0.7756886666666668 -0.5423713333333334
579502810 0.7763586666666668 -0.5459336666666667
580988689 0.7758676666666666 -0.5478183333333334
582474568 0.7760386666666667 -0.5504693333333334
583960447 0.775569 -0.5531883333333333
585446326 0.7738193333333334 -0.5544633333333334
586932205 0.773326 -0.5558960000000001
588418084 0.771788 -0.5564413333333333
589903963 0.770199 -0.5584706666666667
591389842 0.7676503333333334 -0.5587543333333334
592875721 0.7648446666666667 -0.5589286666666666
594361600 0.7607743333333333 -0.5602123333333333
595847479 0.757319 -0.5607406666666667
597333358 0.7544619999999999 -0.5598086666666667
598819237 0.7495189999999999 -0.5595903333333333
600305116 0.746339 -0.561137
601790995 0.7478536666666667 -0.5646536666666666
603276874 0.7510166666666667 -0.567335
604762753 0.7516773333333333 -0.5711086666666666
606248632 0.7532813333333334 -0.5750226666666666
607734511 0.7539826666666668 -0.5777056666666667
609220390 0.7554693333333334 -0.5805246666666667
610706269 0.7559056666666667 -0.5825943333333333
612192148 0.7564953333333334 -0.5843573333333333
613678027 0.7560413333333335 -0.5845786666666667
615163906 0.7549516666666666 -0.5847206666666667
616649785 0.7550213333333332 -0.587135
618135664 0.7529703333333333 -0.5866243333333334
619621543 0.7524099999999999 -0.586464
621107422 0.7495976666666667 -0.5853043333333333
622593301 0.7477436666666666 -0.5844113333333333
624079180 0.7444310000000001 -0.5845793333333332
625565059 0.7419466666666666 -0.5821120000000001
627050938 0.7373843333333334 -0.580469
628536817 0.733764 -0.5786523333333333
630022696 0.7292363333333333 -0.577471
631508575 0.730843 -0.583058
632994454 0.733562 -0.5855213333333333
634480333 0.73509 -0.588124
635966212 0.7357906666666666 -0.592453
637452091 0.7360533333333333 -0.5952696666666667
638937970 0.7379626666666667 -0.597219
640423849 0.7384003333333333 -0.5991323333333334
641909728 0.7376336666666669 -0.6016343333333333
643395607 0.7379836666666666 -0.601619
644881486 0.7376046666666666 -0.6016986666666667
646367365 0.7371346666666666 -0.6023106666666668
647853244 0.736508 -0.6024386666666667
649339123 0.735147 -0.6017686666666667
650825002 0.732042 -0.601665
652310881 0.7300556666666665 -0.6007686666666666
653796760 0.7265646666666666 -0.6000923333333333
655282639 0.725051 -0.598366
656768518 0.7205093333333332 -0.5960703333333334
658254397 0.7172583333333334 -0.594786
659740276 0.713079 -0.5936133333333333
661226155 0.7145866666666666 -0.5947563333333333
662712034 0.7162466666666667 -0.5984226666666667
664197913 0.7157816666666666 -0.6026133333333333
665683792 0.7196206666666667 -0.6059876666666667
667169671 0.7199693333333332 -0.6074936666666666
668655550 0.7202313333333334 -0.6098606666666666
670141429 0.7215596666666667 -0.6111780000000001
671627308 0.7184763333333333 -0.6181363333333333
673113187 0.7216413333333334 -0.6123866666666666
674599066 0.7168193333333334 -0.619042
676084945 0.720622 -0.6132873333333334
677570824 0.7198350000000001 -0.6144780000000001
679056703 0.718857 -0.6129376666666667
680542582 0.7164913333333334 -0.612462
682028461 0.7140756666666667 -0.6111393333333334
683514340 0.7131210000000001 -0.608945
685000219 0.710839 -0.6071893333333334
686486098 0.7072946666666667 -0.6054536666666667
687971977 0.703199 -0.6041016666666666
689457856 0.701194 -0.6029973333333333
690943735 0.698403 -0.6034953333333334
692429614 0.6995563333333333 -0.605687
693915493 0.7007033333333333 -0.6104853333333333
695401372 0.700215 -0.6142503333333335
696887251 0.6993460000000001 -0.6163489999999999
698373130 0.6984816666666666 -0.6206636666666667
699859009 0.7006960000000001 -0.621969
701344888 0.6999303333333332 -0.6229116666666666
702830767 0.6999333333333334 -0.6245850000000001
704316646 0.6962383333333334 -0.6266733333333333
705802525 0.6962203333333333 -0.6257696666666667
707288404 0.694708 -0.6274693333333333
708774283 0.6940926666666667 -0.6281713333333333
710260162 0.6896223333333333 -0.626892
711746041 0.6873243333333333 -0.627297
713231920 0.6853826666666668 -0.6267010000000001
714717799 0.6814436666666667 -0.627598
716203678 0.6779673333333335 -0.6255933333333333
717689557 0.6666953333333333 -0.6319103333333334
719175436 0.6690156666666667 -0.6242606666666667
720661315 0.6641116666666668 -0.626713
722147194 0.6691906666666666 -0.6282766666666667
723633073 0.6671186666666666 -0.6353436666666666
725118952 0.6716146666666667 -0.6342979999999999
726604831 0.668016 -0.640028
728090710 0.6734056666666666 -0.638226
729576589 0.6680816666666667 -0.6447493333333333
731062468 0.6729966666666667 -0.642113
732548347 0.6678216666666668 -0.6465596666666666
734034226 0.6718353333333335 -0.6441913333333334
735520105 0.6677363333333334 -0.6481686666666667
737005984 0.6716436666666666 -0.6453426666666667
738491863 0.6659486666666666 -0.648463
739977742 0.6708016666666667 -0.6455646666666667
741463621 0.662162 -0.6478293333333333
742949500 0.6631859999999999 -0.6440316666666667
744435379 0.6570969999999999 -0.645311
745921258 0.6575433333333334 -0.6419210000000001
747407137 0.650275 -0.6434259999999999
748893016 0.6516163333333335 -0.6387076666666666
750378895 0.6490556666666666 -0.6381420000000001
751864774 0.6499223333333334 -0.6415716666666667
753350653 0.6514143333333334 -0.6458543333333333
754836532 0.652079 -0.6479213333333333
756322411 0.653284 -0.6501786666666667
757808290 0.6525 -0.6518693333333333
759294169 0.6513369999999999 -0.6537413333333333
760780048 0.6536373333333334 -0.6553123333333334
762265927 0.6523016666666667 -0.655958
763751806 0.6509986666666667 -0.6574046666666666
765237685 0.6504586666666666 -0.6580866666666667
766723564 0.6488006666666667 -0.659204
768209443 0.647104 -0.6585213333333333
769695322 0.6452433333333333 -0.657582
771181201 0.6396146666666667 -0.6597793333333333
772667080 0.64174 -0.654991
774152959 0.636486 -0.65735
775638838 0.6337873333333334 -0.6540476666666667
777124717 0.6674203333333333 -0.6620646666666666
778610596 0.6266073333333333 -0.6510926666666667
780096475 0.6228396666666667 -0.6487976666666667
781582354 0.6246433333333333 -0.6530596666666667
783068233 0.6255733333333333 -0.6559653333333334
784554112 0.6286790000000001 -0.658189
786039991 0.627404 -0.6632543333333333
787525870 0.6293486666666667 -0.664685
789011749 0.6298306666666666 -0.6660126666666667
790497628 0.6304253333333333 -0.6679686666666665
791983507 0.630223 -0.6694026666666666
793469386 0.631652 -0.6686943333333334
794955265 0.628712 -0.671585
796441144 0.6289523333333333 -0.6703276666666667
797927023 0.6285786666666667 -0.6695916666666667
799412902 0.628675 -0.6681303333333334
800898781 0.6246416666666667 -0.6681596666666666
802384660 0.6244580000000001 -0.6667363333333333
803870539 0.6204526666666667 -0.6655099999999999
805356418 0.6197776666666667 -0.663064
806842297 0.6146393333333334 -0.661909
808328176 0.6128736666666666 -0.658725
809814055 0.6078886666666666 -0.6571516666666667
811299934 0.6080566666666667 -0.6597016666666667
812785813 0.60881 -0.665101
814271692 0.610154 -0.6666476666666666
815757571 0.6115383333333333 -0.6700906666666667
817243450 0.611377 -0.6734756666666667
818729329 0.6092133333333334 -0.6767346666666668
820215208 0.611744 -0.6774946666666667
821701087 0.609137 -0.6798473333333334
823186966 0.6488396666666667 -0.6969803333333333
824672845 0.6100536666666666 -0.6812806666666665
826158724 0.606563 -0.6836840000000001
827644603 0.6083233333333333 -0.6810346666666667
829130482 0.6040070000000001 -0.6816796666666667
830616361 0.6043286666666666 -0.6814193333333333
832102240 0.6001723333333332 -0.6808390000000001
833588119 0.5972463333333334 -0.6794293333333333
835073998 0.5940716666666667 -0.6792379999999999
836559877 0.5916373333333333 -0.6764086666666667
838045756 0.5877500000000001 -0.6757533333333333
839531635 0.5831126666666667 -0.6744043333333334
841017514 0.5821496666666667 -0.6762873333333334
842503393 0.5851723333333334 -0.6782340000000001
843989272 0.5848663333333334 -0.6828016666666666
845475151 0.5861713333333333 -0.6852213333333333
846961030 0.587633 -0.6891893333333333
848446909 0.5881463333333333 -0.6909139999999999
849932788 0.5888633333333333 -0.6915800000000001
851418667 0.5878530000000001 -0.6928749999999999
852904546 0.5861636666666666 -0.6963216666666666
854390425 0.5884726666666666 -0.6943006666666666
855876304 0.587275 -0.694277
857362183 0.5860953333333333 -0.6945969999999999
858848062 0.5844936666666666 -0.6951173333333333
860333941 0.582678 -0.6940729999999999
861819820 0.5817183333333333 -0.6918496666666667
863305699 0.5782286666666667 -0.691605
864791578 0.5759353333333332 -0.6891123333333334
866277457 0.573229 -0.6870186666666666
867763336 0.570437 -0.6848700000000001
869249215 0.5655749999999999 -0.6834153333333334
870735094 0.565713 -0.6818663333333334
872220973 0.5655193333333334 -0.6877813333333332
873706852 0.565996 -0.6906573333333332
875192731 0.5665363333333332 -0.6936
876678610 0.5680243333333334 -0.6959786666666666
878164489 0.568234 -0.6990943333333334
879650368 0.5689533333333333 -0.6993523333333335
881136247 0.5681436666666667 -0.7023126666666667
882622126 0.5683506666666668 -0.7038236666666666
884108005 0.5681033333333333 -0.7030266666666666
885593884 0.5673313333333333 -0.703989
887079763 0.5668033333333334 -0.7041276666666666
888565642 0.5654866666666667 -0.70336
890051521 0.5644043333333334 -0.7026560000000001
891537400 0.5621106666666668 -0.701296
893023279 0.5592673333333333 -0.7012643333333334
894509158 0.556886 -0.6974226666666667
895995037 0.555074 -0.697086
897480916 0.5517116666666667 -0.6936186666666667
898966795 0.549289 -0.6926336666666666
900452674 0.545875 -0.690728
901938553 0.5462193333333333 -0.6947720000000001
903424432 0.5480783333333333 -0.6973796666666666
904910311 0.54594 -0.7015193333333333
906396190 0.5492366666666666 -0.7025116666666668
907882069 0.5489566666666668 -0.705098
909367948 0.546119 -0.709744
910853827 0.5472123333333333 -0.7097883333333334
912339706 0.545966 -0.7119943333333333
913825585 0.5469036666666667 -0.7102513333333333
915311464 0.5452516666666667 -0.709235
916797343 0.5469486666666666 -0.7113656666666667
918283222 0.5433560000000001 -0.712562
919769101 0.5387926666666666 -0.714343
921254980 0.5404220000000001 -0.708457
922740859 0.5386150000000001 -0.7073870000000001
924226738 0.5369286666666667 -0.706855
925712617 0.535592 -0.7057986666666668
927198496 0.5310706666666666 -0.7041550000000001
928684375 0.5248893333333334 -0.7019303333333333
930170254 0.5255283333333334 -0.698627
931656133 0.525576 -0.7015663333333334
933142012 0.5273356666666668 -0.7053459999999999
934627891 0.5284226666666666 -0.7090226666666667
936113770 0.530123 -0.7109869999999999
937599649 0.5296763333333333 -0.7136053333333333
939085528 0.5287423333333333 -0.7153516666666667
940571407 0.5298823333333333 -0.7177343333333334
942057286 0.5281753333333333 -0.7184733333333333
943543165 0.5281976666666667 -0.7200263333333333
945029044 0.5295179999999999 -0.719576
946514923 0.5276010000000001 -0.721279
948000802 0.5276803333333332 -0.719932
949486681 0.5272393333333334 -0.7186176666666667
950972560 0.5263096666666667 -0.7195136666666667
952458439 0.5245843333333333 -0.7164470000000001
953944318 0.5247856666666667 -0.7137876666666667
955430197 0.5220980000000001 -0.7115323333333334
956916076 0.5191726666666666 -0.7097130000000001
958401955 0.5178159999999999 -0.7090873333333333
959887834 0.5147873333333334 -0.7055576666666666
961373713 0.514776 -0.7092849999999999
962859592 0.5149013333333333 -0.7120700000000001
964345471 0.5161513333333333 -0.7135213333333333
965831350 0.5140196666666667 -0.7160786666666666
967317229 0.5151576666666666 -0.7187826666666667
968803108 0.5143439999999999 -0.7219433333333334
970288987 0.5148723333333333 -0.7218393333333334
971774866 0.5127533333333333 -0.7246746666666667
973260745 0.518621 -0.7212113333333333
974746624 0.5137093333333334 -0.7249923333333333
976232503 0.5119496666666666 -0.7251033333333333
977718382 0.5102263333333333 -0.7249699999999999
979204261 0.50793 -0.7250953333333333
980690140 0.5018423333333334 -0.7248890000000001
982176019 0.5056326666666666 -0.7228753333333332
983661898 0.5053653333333333 -0.721559
985147777 0.5016903333333333 -0.7204123333333333
986633656 0.5001803333333332 -0.7184589999999998
988119535 0.49709899999999996 -0.7166506666666667
989605414 0.4940173333333333 -0.715278
991091293 0.49422000000000005 -0.7160693333333333
992577172 0.49511900000000003 -0.7192643333333333
994063051 0.4946706666666667 -0.7221563333333334
995548930 0.49586099999999994 -0.722889
997034809 0.4957546666666666 -0.7260096666666667
998520688 0.49553033333333335 -0.726286
1000006567 0.494648 -0.728425
1001492446 0.49465833333333337 -0.7296283333333333
1002978325 0.4947916666666667 -0.7299756666666667
1004464204 0.4930126666666666 -0.7311686666666667
1005950083 0.492321 -0.7311513333333334
1007435962 0.49105400000000005 -0.7308756666666666
1008921841 0.4891886666666667 -0.7299206666666667
1010407720 0.48979066666666665 -0.7296336666666666
1011893599 0.487803 -0.7272643333333333
1013379478 0.4856263333333333 -0.7247876666666665
1014865357 0.483403 -0.7246039999999999
1016351236 0.4832973333333333 -0.7218446666666667
1017837115 0.4793433333333333 -0.7203213333333333
1019322994 0.47560399999999997 -0.7185263333333333
1020808873 0.4734933333333333 -0.7210583333333332
1022294752 0.47558266666666665 -0.7222966666666667
1023780631 0.4760233333333333 -0.7257583333333333
1025266510 0.47803700000000005 -0.7267446666666667
1026752389 0.47492633333333334 -0.730196
1028238268 0.47613700000000003 -0.7303343333333333
1029724147 0.4748243333333333 -0.7328663333333333
1031210026 0.4747886666666667 -0.734136
1032695905 0.47504300000000005 -0.734287
1034181784 0.4743016666666667 -0.7344563333333333
1035667663 0.473782 -0.73453
1037153542 0.47459266666666666 -0.7339043333333333
1038639421 0.47128 -0.7337886666666668
1040125300 0.47139833333333336 -0.7332960000000001
1041611179 0.46946166666666667 -0.7314386666666666
1043097058 0.46685766666666667 -0.7311983333333334
1044582937 0.4636153333333333 -0.7310023333333332
1046068816 0.46328966666666666 -0.7278730000000001
1047554695 0.4584743333333334 -0.7274466666666667
1049040574 0.45556100000000005 -0.7246229999999999
1050526453 0.45446666666666663 -0.7249726666666666
1052012332 0.45416133333333336 -0.7281816666666666
1053498211 0.455953 -0.7308153333333333
1054984090 0.45593866666666666 -0.733161
1056469969 0.45671066666666665 -0.7352893333333334
1057955848 0.4571533333333333 -0.7378633333333333
1059441727 0.45710999999999996 -0.7382993333333333
1060927606 0.45883133333333337 -0.7397753333333333
1062413485 0.45768533333333333 -0.7401036666666667
1063899364 0.4553673333333333 -0.7413966666666667
1065385243 0.45473566666666665 -0.7415213333333334
1066871122 0.454455 -0.741532
1068357001 0.4370686666666667 -0.7395376666666666
1069842880 0.4526136666666667 -0.7401559999999999
1071328759 0.44974933333333333 -0.7403776666666667
1072814638 0.45059933333333335 -0.737694
1074300517 0.44898499999999997 -0.7364106666666667
1075786396 0.443849 -0.7372326666666668
1077272275 0.4422086666666667 -0.7324093333333334
1078758154 0.43749766666666673 -0.7311963333333334
1080244033 0.436904 -0.7292966666666666
1081729912 0.4374263333333333 -0.7325039999999999
1083215791 0.43779066666666666 -0.7350533333333334
1084701670 0.43883 -0.7381623333333334
1086187549 0.44025933333333334 -0.7399586666666668
1087673428 0.4490996666666667 -0.7398136666666666
1089159307 0.4406203333333334 -0.7432413333333333
1090645186 0.4416686666666667 -0.7446486666666666
1092131065 0.440583 -0.744865
1093616944 0.43893766666666667 -0.7460589999999999
1095102823 0.43704866666666664 -0.7464616666666667
1096588702 0.4356793333333333 -0.7462859999999999
1098074581 0.435921 -0.7438916666666667
1099560460 0.44357833333333335 -0.7418049999999999
1101046339 0.43377266666666664 -0.7431150000000001
1102532218 0.43115166666666666 -0.7408583333333333
1104018097 0.4275893333333333 -0.7388026666666668
1105503976 0.42496466666666666 -0.7369403333333334
1106989855 0.42496 -0.7335093333333332
1108475734 0.42155533333333334 -0.7318406666666667
1109961613 0.4176946666666667 -0.7301030000000001
1111447492 0.41916833333333336 -0.7324719999999999
1112933371 0.41914633333333334 -0.7360733333333332
1114419250 0.42006699999999997 -0.7383850000000001
1115905129 0.42098199999999997 -0.7407393333333334
1117391008 0.418931 -0.7432563333333334
1118876887 0.41935300000000003 -0.7459573333333333
1120362766 0.4208016666666667 -0.747289
1121848645 0.4205216666666667 -0.7473329999999999
1123334524 0.4213113333333333 -0.7482159999999999
1124820403 0.41984899999999997 -0.750862
1126306282 0.41588633333333336 -0.751617
1127792161 0.44783066666666665 -0.7640416666666666
1129278040 0.4174083333333333 -0.7479286666666667
1130763919 0.4170256666666667 -0.7468473333333333
1132249798 0.4122506666666667 -0.7454756666666666
1133735677 0.4105926666666666 -0.744401
1135221556 0.4091343333333333 -0.7420079999999999
1136707435 0.4064703333333333 -0.7405326666666667
1138193314 0.40311366666666665 -0.738226
1139679193 0.4009829999999999 -0.7352966666666667
1141165072 0.3993056666666666 -0.7354336666666667
1142650951 0.40253 -0.7401610000000001
1144136830 0.40159100000000003 -0.7425086666666667
1145622709 0.4007616666666667 -0.7465366666666666
1147108588 0.40199566666666664 -0.7487336666666667
1148594467 0.40203866666666666 -0.7512836666666667
1150080346 0.4006876666666666 -0.7535430000000001
1151566225 0.4022293333333333 -0.7527726666666666
1153052104 0.40010900000000005 -0.7535293333333334
1154537983 0.401855 -0.7544620000000001
1156023862 0.40069499999999997 -0.7528963333333333
1157509741 0.39999499999999993 -0.7528579999999999
1158995620 0.39824600000000004 -0.7509936666666667
1160481499 0.395926 -0.7505453333333333
1161967378 0.397227 -0.7489346666666666
1163453257 0.39316100000000004 -0.7472173333333334
1164939136 0.391145 -0.7451276666666667
1166425015 0.3880516666666667 -0.7431826666666667
1167910894 0.386995 -0.7403256666666667
1169396773 0.38379066666666667 -0.7359246666666667
1170882652 0.3817163333333333 -0.7384053333333332
1172368531 0.38246800000000003 -0.7404753333333334
1173854410 0.3820316666666667 -0.744822
1175340289 0.38104166666666667 -0.7473956666666667
1176826168 0.38072466666666666 -0.7504583333333334
1178312047 0.3797523333333333 -0.752503
1179797926 0.38344533333333336 -0.751163
1181283805 0.3804513333333333 -0.7541296666666666
1182769684 0.380843 -0.7540236666666665
1184255563 0.37852066666666667 -0.7547470000000001
1185741442 0.3802856666666667 -0.7541463333333334
1187227321 0.37818666666666667 -0.7538373333333334
1188713200 0.37536600000000003 -0.7529313333333333
1190199079 0.372606 -0.7520693333333334
1191684958 0.3730576666666667 -0.7514759999999999
1193170837 0.3722446666666666 -0.7481756666666667
1194656716 0.37012566666666674 -0.746356
1196142595 0.36499566666666666 -0.7437376666666667
1197628474 0.36463133333333336 -0.7411836666666667
1199114353 0.36058233333333334 -0.7383959999999999
1200600232 0.358219 -0.7375266666666667
1202086111 0.35978666666666664 -0.7416486666666667
1203571990 0.35814100000000004 -0.7453976666666667
1205057869 0.35916333333333333 -0.7476106666666666
1206543748 0.35850033333333337 -0.751601
1208029627 0.359186 -0.753829
1209515506 0.35910033333333335 -0.7544620000000001
1211001385 0.35907599999999995 -0.7557546666666667
1212487264 0.3606673333333334 -0.7567686666666668
1213973143 0.35728033333333337 -0.7586676666666666
1215459022 0.35557666666666665 -0.7588710000000001
1216944901 0.35921766666666666 -0.7579093333333334
1218430780 0.360079 -0.7549646666666666
1219916659 0.36017800000000005 -0.7575430000000001
1221402538 0.35680333333333336 -0.7537836666666666
1222888417 0.35428 -0.7529213333333334
1224374296 0.35066933333333333 -0.7513383333333333
1225860175 0.3516506666666667 -0.7460716666666666
1227346054 0.34911866666666663 -0.7447893333333333
1228831933 0.347769 -0.7423283333333334
1230317812 0.34649833333333335 -0.7403486666666667
1231803691 0.34590000000000004 -0.7438573333333333
1233289570 0.34547799999999995 -0.7468159999999999
1234775449 0.3444993333333333 -0.7497626666666667
1236261328 0.345934 -0.7513216666666667
1237747207 0.3445106666666667 -0.7540386666666667
1239233086 0.34459333333333336 -0.7535463333333333
1240718965 0.34496566666666667 -0.7559816666666667
1242204844 0.3450473333333333 -0.7556483333333334
1243690723 0.34462533333333334 -0.754824
1245176602 0.34669966666666663 -0.7552989999999999
1246662481 0.34424000000000005 -0.7548296666666667
1248148360 0.343076 -0.7538839999999999
1249634239 0.34151599999999993 -0.7538773333333334
1251120118 0.342466 -0.750975
1252605997 0.34127033333333334 -0.7494183333333333
1254091876 0.3388436666666667 -0.747456
1255577755 0.3381113333333334 -0.7454066666666667
1257063634 0.336929 -0.741981
1258549513 0.335002 -0.7394503333333334
1260035392 0.33103 -0.7349833333333332
1261521271 0.3309853333333333 -0.7382839999999998
1263007150 0.3308546666666667 -0.741351
1264493029 0.332628 -0.7414713333333333
1265978908 0.33024 -0.7457483333333332
1267464787 0.3284376666666667 -0.7475833333333334
1268950666 0.3307543333333333 -0.7478473333333334
1270436545 0.3273276666666667 -0.7490419999999999
1271922424 0.325532 -0.7504306666666666
1273408303 0.35261799999999993 -0.760269
1274894182 0.3245903333333333 -0.75223
1276380061 0.32347 -0.7528756666666667
1277865940 0.3249773333333333 -0.751021
1279351819 0.32134599999999997 -0.7513573333333333
1280837698 0.318874 -0.7512493333333333
1282323577 0.318868 -0.7503693333333333
1283809456 0.32013933333333333 -0.7487186666666666
1285295335 0.31702400000000003 -0.74595
1286781214 0.31506233333333333 -0.7435173333333333
1288267093 0.3111336666666667 -0.7413440000000001
1289752972 0.3116043333333333 -0.7386073333333334
1291238851 0.309266 -0.7422013333333334
1292724730 0.30970366666666665 -0.7460109999999999
1294210609 0.30962833333333334 -0.7464116666666666
1295696488 0.30940433333333334 -0.7479653333333335
1297182367 0.3093166666666667 -0.7501053333333333
1298668246 0.31107266666666666 -0.7529233333333334
1300154125 0.3118573333333334 -0.7543833333333333
1301640004 0.3120826666666667 -0.754954
1303125883 0.31130066666666667 -0.7540783333333335
1304611762 0.31126133333333333 -0.7546149999999999
1306097641 0.311904 -0.7535576666666666
1307583520 0.31200500000000003 -0.7537523333333334
1309069399 0.3128296666666666 -0.7528686666666666
1310555278 0.30941100000000005 -0.753356
1312041157 0.3111203333333333 -0.7500976666666667
1313527036 0.3079416666666667 -0.7483786666666666
1315012915 0.3111986666666666 -0.74478
1316498794 0.308398 -0.7445529999999999
1317984673 0.30567866666666665 -0.7412353333333334
1319470552 0.302537 -0.7382826666666666
1320956431 0.3034566666666667 -0.737478
1322442310 0.305101 -0.7410386666666667
1323928189 0.30466766666666667 -0.7468236666666668
1325414068 0.3040466666666667 -0.7485713333333334
1326899947 0.303747 -0.7507696666666667
1328385826 0.30513266666666666 -0.7523786666666666
1329871705 0.30401433333333333 -0.7546339999999999
1331357584 0.30465000000000003 -0.7550103333333333
1332843463 0.30619900000000005 -0.7533196666666667
1334329342 0.30420966666666666 -0.7567163333333333
1335815221 0.30341766666666664 -0.756422
1337301100 0.3042493333333333 -0.7559053333333333
1338786979 0.3019386666666667 -0.7562236666666666
1340272858 0.3018766666666666 -0.7555043333333332
1341758737 0.30074133333333336 -0.7561473333333334
1343244616 0.29919666666666667 -0.7546596666666666
1344730495 0.2985003333333333 -0.7538206666666666
1346216374 0.29866866666666664 -0.7498023333333332
1347702253 0.298414 -0.7478276666666667
1349188132 0.2928083333333333 -0.7477226666666666
1350674011 0.2920163333333333 -0.7469676666666666
1352159890 0.2930163333333333 -0.748065
1353645769 0.2895923333333333 -0.7517476666666667
1355131648 0.2929933333333334 -0.751824
1356617527 0.29217466666666664 -0.7529443333333333
1358103406 0.2900523333333333 -0.7553003333333334
1359589285 0.290046 -0.75699
1361075164 0.287902 -0.7562496666666666
1362561043 0.286603 -0.7563716666666668
1364046922 0.2873673333333333 -0.7560926666666666
1365532801 0.28715700000000005 -0.7556513333333332
1367018680 0.2852793333333334 -0.7559613333333334
1368504559 0.2825763333333333 -0.7534676666666668
1369990438 0.2818076666666667 -0.7529626666666668
1371476317 0.2812826666666667 -0.7516383333333333
1372962196 0.2773313333333334 -0.7503753333333334
1374448075 0.2748136666666667 -0.7486753333333334
1375933954 0.24951466666666666 -0.723753
1377419833 0.26727266666666666 -0.7458640000000001
1378905712 0.267025 -0.7421786666666668
1380391591 0.26555833333333334 -0.7427259999999999
1381877470 0.26545366666666664 -0.7459433333333334
1383363349 0.26604333333333335 -0.746433
1384849228 0.269206 -0.7493953333333333
1386335107 0.26277100000000003 -0.7553293333333334
1387820986 0.271557 -0.7547643333333333
1389306865 0.27030533333333334 -0.7557116666666666
1390792744 0.2709333333333333 -0.7559476666666667
1392278623 0.274295 -0.7568663333333333
1393764502 0.270297 -0.7590343333333333
1395250381 0.27243866666666666 -0.7582810000000001
1396736260 0.27079566666666666 -0.758057
1398222139 0.2781276666666667 -0.7545756666666666
1399708018 0.272226 -0.7554636666666666
1401193897 0.27113899999999996 -0.7543369999999999
1402679776 0.27238666666666667 -0.7520640000000002
1404165655 0.272616 -0.7509483333333332
1405651534 0.27042933333333335 -0.748344
1407137413 0.268171 -0.7471816666666667
1408623292 0.26713966666666666 -0.7439429999999999
1410109171 0.2654106666666667 -0.7411279999999999
1411595050 0.266438 -0.7451926666666666
1413080929 0.26573166666666664 -0.7482176666666667
1414566808 0.2691966666666667 -0.7513083333333332
1416052687 0.268322 -0.7546743333333333
1417538566 0.26910433333333333 -0.7575073333333333
1419024445 0.2709443333333333 -0.759162
1420510324 0.27069666666666664 -0.761943
1421996203 0.273205 -0.7602890000000001
1423482082 0.2707016666666666 -0.7593420000000001
1424967961 0.2732396666666667 -0.7622153333333334
1426453840 0.2730996666666667 -0.762169
1427939719 0.27399866666666667 -0.7630863333333333
1429425598 0.275313 -0.759953
1430911477 0.2715993333333333 -0.7604946666666667
1432397356 0.27004633333333333 -0.7583343333333333
1433883235 0.2728386666666667 -0.7569346666666666
1435369114 0.2656876666666667 -0.7571696666666666
1436854993 0.2688103333333334 -0.7520256666666668
1438340872 0.26821133333333336 -0.7499633333333334
1439826751 0.2655903333333333 -0.7473360000000001
1441312630 0.26469766666666666 -0.7484983333333334
1442798509 0.267975 -0.7527236666666667
1444284388 0.263884 -0.7561100000000001
1445770267 0.26479400000000003 -0.7568316666666667
1447256146 0.26373266666666667 -0.7585173333333333
1448742025 0.26458600000000004 -0.759992
1450227904 0.2651596666666667 -0.7605149999999999
1451713783 0.2656936666666667 -0.7613303333333334
1453199662 0.2627913333333333 -0.762467
1454685541 0.26345266666666667 -0.762041
1456171420 0.2623006666666667 -0.760927
1457657299 0.2612316666666667 -0.7601610000000001
1459143178 0.2612926666666667 -0.7586240000000001
1460629057 0.2579306666666667 -0.7576753333333334
1462114936 0.25691099999999994 -0.7557413333333334
1463600815 0.25588666666666665 -0.7521546666666667
1465086694 0.2530483333333334 -0.7507046666666666
1466572573 0.2520036666666667 -0.7471346666666667
1468058452 0.24615033333333333 -0.7450366666666666
1469544331 0.24516666666666667 -0.7416953333333334
1471030210 0.24282666666666666 -0.7445783333333335
1472516089 0.24538400000000002 -0.748361
1474001968 0.24528466666666668 -0.7503350000000001
1475487847 0.24733333333333332 -0.7524263333333333
1476973726 0.24542766666666668 -0.7557976666666667
1478459605 0.24509533333333333 -0.7582806666666668
1479945484 0.2458556666666667 -0.7583326666666667
1481431363 0.24329766666666666 -0.7609523333333333
1482917242 0.24641933333333332 -0.7608253333333334
1484403121 0.24565933333333334 -0.7605369999999999
1485889000 0.244623 -0.7609396666666667
1487374879 0.24530366666666667 -0.760656
1488860758 0.24418166666666666 -0.7600543333333333
1490346637 0.24353100000000003 -0.758573
1491832516 0.24234733333333333 -0.756663
1493318395 0.24453066666666667 -0.7552173333333334
1494804274 0.23966466666666664 -0.7530113333333333
1496290153 0.23802466666666666 -0.750341
1497776032 0.2372776666666667 -0.7468113333333332
1499261911 0.23375133333333334 -0.744463
1500747790 0.23505033333333336 -0.7433203333333332
1502233669 0.23143000000000002 -0.7491593333333334
1503719548 0.23377933333333334 -0.7506196666666667
1505205427 0.233042 -0.7530749999999999
1506691306 0.23280066666666666 -0.754893
1508177185 0.23233800000000002 -0.7567133333333333
1509663064 0.23244733333333334 -0.7581129999999999
1511148943 0.2290553333333333 -0.7590563333333332
1512634822 0.227243 -0.7618226666666668
1514120701 0.22958599999999998 -0.7599706666666667
1515606580 0.23003866666666664 -0.76001
1517092459 0.22953966666666667 -0.7588123333333333
1518578338 0.20720833333333333 -0.753696
1520064217 0.22664933333333334 -0.7579496666666667
1521550096 0.22506733333333337 -0.7552433333333334
1523035975 0.223315 -0.7533846666666667
1524521854 0.22269099999999997 -0.7502916666666666
1526007733 0.21944466666666665 -0.7490186666666666
1527493612 0.21014866666666665 -0.710807
1528979491 0.21533866666666665 -0.741577
1530465370 0.216923 -0.739551
1531951249 0.21895133333333336 -0.742881
1533437128 0.21917366666666668 -0.7463730000000001
1534923007 0.21559433333333333 -0.7492683333333333
1536408886 0.21772666666666665 -0.751508
1537894765 0.217198 -0.752946
1539380644 0.21845166666666668 -0.752908
1540866523 0.216616 -0.754629
1542352402 0.21783433333333332 -0.7553610000000001
1543838281 0.216658 -0.7562353333333333
1545324160 0.21519866666666668 -0.7557326666666667
1546810039 0.21553933333333333 -0.7550663333333333
1548295918 0.216656 -0.7529616666666668
1549781797 0.21636166666666665 -0.7508360000000001
1551267676 0.209894 -0.7505646666666665
1552753555 0.21367000000000003 -0.7478073333333333
1554239434 0.2093803333333333 -0.745194
1555725313 0.20723833333333333 -0.7424496666666668
1557211192 0.20222733333333334 -0.7398116666666666
1558697071 0.2016663333333333 -0.7363113333333334
1560182950 0.20337799999999998 -0.7329893333333333
1561668829 0.20117366666666667 -0.736841
1563154708 0.19857866666666668 -0.7402090000000001
1564640587 0.2022533333333333 -0.741168
1566126466 0.20045433333333332 -0.7446693333333334
1567612345 0.2023533333333333 -0.7456966666666668
1569098224 0.19696266666666665 -0.7489336666666667
1570584103 0.19907666666666668 -0.7498543333333334
1572069982 0.19815300000000002 -0.7507843333333333
1573555861 0.198577 -0.7515723333333333
1575041740 0.19683833333333334 -0.7525590000000001
1576527619 0.198149 -0.750746
1578013498 0.19813899999999998 -0.7501063333333332
1579499377 0.19349266666666667 -0.7511296666666668
1580985256 0.199447 -0.7526510000000001
1582471135 0.19485699999999997 -0.7481586666666667
1583957014 0.19215366666666667 -0.7463573333333334
1585442893 0.19232133333333334 -0.7441146666666666
1586928772 0.19208766666666666 -0.7414776666666668
1588414651 0.19074099999999997 -0.7385156666666667
1589900530 0.18930366666666668 -0.7361116666666666
1591386409 0.18852133333333335 -0.7382556666666665
1592872288 0.18708833333333333 -0.7430123333333333
1594358167 0.18651133333333333 -0.7442150000000001
1595844046 0.18836533333333336 -0.7456299999999999
1597329925 0.185647 -0.7479376666666666
1598815804 0.1861373333333333 -0.7493503333333335
1600301683 0.186721 -0.7503346666666667
1601787562 0.18804433333333334 -0.7509866666666668
1603273441 0.18797300000000003 -0.7513406666666667
1604759320 0.186752 -0.7513489999999999
1606245199 0.18749866666666667 -0.751541
1607731078 0.185814 -0.7523179999999999
1609216957 0.18760566666666667 -0.7500873333333332
1610702836 0.18609433333333333 -0.7488573333333334
1612188715 0.18376066666666668 -0.7484213333333334
1613674594 0.18606933333333334 -0.7450136666666666
1615160473 0.182771 -0.7445953333333334
1616646352 0.17955733333333335 -0.7426879999999999
1618132231 0.183284 -0.7386583333333334
1619618110 0.18011966666666668 -0.7359513333333333
1621103989 0.18051233333333336 -0.7365236666666667
1622589868 0.1810786666666667 -0.7383299999999999
1624075747 0.17740233333333336 -0.7424146666666666
1625561626 0.1784646666666667 -0.743239
1627047505 0.17614 -0.7457133333333333
1628533384 0.175527 -0.7474896666666666
1630019263 0.17485833333333334 -0.7488746666666666
1631505142 0.17485766666666666 -0.7494203333333332
1632991021 0.17477233333333334 -0.7490736666666667
1634476900 0.17866266666666666 -0.7488373333333334
1635962779 0.17360866666666666 -0.7495029999999999
1637448658 0.1733893333333333 -0.7504503333333333
1638934537 0.17213733333333334 -0.7495006666666667
1640420416 0.16844666666666663 -0.748916
1641906295 0.16680566666666666 -0.7490266666666666
1643392174 0.16974366666666665 -0.7464856666666666
1644878053 0.16773233333333334 -0.743925
1646363932 0.16700100000000004 -0.7422443333333333
1647849811 0.16521033333333332 -0.7409293333333333
1649335690 0.163411 -0.738255
1650821569 0.16186066666666665 -0.7395766666666667
1652307448 0.161801 -0.7411790000000001
1653793327 0.16148566666666667 -0.7419163333333333
1655279206 0.16203766666666666 -0.744656
1656765085 0.16032766666666667 -0.7463773333333333
1658250964 0.15797133333333332 -0.7485149999999999
1659736843 0.16204866666666665 -0.7481053333333333
1661222722 0.162135 -0.7491880000000001
1662708601 0.16072833333333333 -0.7473416666666667
1664194480 0.16131033333333333 -0.7491666666666666
1665680359 0.16030133333333332 -0.7483
1667166238 0.16145833333333334 -0.7475256666666666
1668652117 0.161367 -0.7466953333333333
1670137996 0.16828933333333332 -0.7472576666666667
1671623875 0.16435366666666665 -0.7449433333333334
1673109754 0.161624 -0.7426076666666667
1674595633 0.16606666666666667 -0.7412493333333332
1676081512 0.16714866666666664 -0.7413993333333333
1677567391 0.16856266666666667 -0.733475
1679053270 0.16409933333333335 -0.7349096666666667
1680539149 0.162836 -0.7349999999999999
1682025028 0.16439366666666666 -0.737825
1683510907 0.16480033333333333 -0.7405823333333332
1684996786 0.165955 -0.7411469999999999
1686482665 0.16449466666666668 -0.74517
1687968544 0.16710166666666668 -0.7475913333333333
1689454423 0.16475399999999998 -0.7479756666666667
1690940302 0.16625166666666666 -0.7488016666666667
1692426181 0.16556300000000002 -0.7495506666666666
1693912060 0.16780666666666666 -0.7512666666666666
1695397939 0.155752 -0.7468046666666667
1696883818 0.15227566666666667 -0.7485940000000001
1698369697 0.155522 -0.7474763333333333
1699855576 0.15525533333333333 -0.74663
1701341455 0.15648700000000001 -0.7459343333333334
1702827334 0.15777266666666667 -0.742824
1704313213 0.15774833333333335 -0.7414273333333333
1705799092 0.15430566666666667 -0.7394026666666668
1707284971 0.15336166666666667 -0.7377546666666667
1708770850 0.15315233333333333 -0.7342503333333333
1710256729 0.152707 -0.7309416666666667
1711742608 0.1517436666666667 -0.7359073333333334
1713228487 0.151534 -0.737641
1714714366 0.15080200000000002 -0.7401426666666667
1716200245 0.15112133333333333 -0.7411473333333333
1717686124 0.15284466666666666 -0.7437296666666667
1719172003 0.14740033333333333 -0.7422706666666666
1720657882 0.151759 -0.7460733333333334
1722143761 0.15109333333333333 -0.747979
1723629640 0.15164533333333333 -0.7458056666666666
1725115519 0.15182733333333334 -0.7467546666666666
1726601398 0.15180966666666668 -0.7471186666666667
1728087277 0.1488786666666667 -0.744345
1729573156 0.15039 -0.7448426666666667
1731059035 0.14978133333333335 -0.7422719999999999
1732544914 0.14876 -0.7409073333333334
1734030793 0.14539466666666667 -0.7394069999999999
1735516672 0.14282933333333334 -0.735713
1737002551 0.14148433333333332 -0.7319223333333333
1738488430 0.13880466666666666 -0.7291316666666666
1739974309 0.13840633333333333 -0.7273126666666667
1741460188 0.13809833333333335 -0.730865
1742946067 0.13722166666666666 -0.734215
1744431946 0.13380633333333333 -0.735783
1745917825 0.13899 -0.7388703333333333
1747403704 0.13939333333333334 -0.7403846666666668
1748889583 0.13521933333333333 -0.7433649999999999
1750375462 0.14096533333333336 -0.7437429999999999
1751861341 0.13929366666666668 -0.7445483333333334
1753347220 0.13778466666666667 -0.7463233333333333
1754833099 0.139724 -0.745206
1756318978 0.13569666666666666 -0.746914
1757804857 0.13553 -0.7456286666666667
1759290736 0.137096 -0.744546
1760776615 0.13486733333333334 -0.7410793333333334
1762262494 0.13613866666666666 -0.7409880000000001
1763748373 0.13814266666666666 -0.7392569999999999
1765234252 0.13444933333333334 -0.7369713333333333
1766720131 0.13386 -0.7353459999999999
1768206010 0.13227599999999998 -0.7322353333333335
1769691889 0.13153266666666666 -0.7295433333333333
1771177768 0.130548 -0.7309513333333334
1772663647 0.12797633333333333 -0.7361866666666667
1774149526 0.128736 -0.7373463333333333
1775635405 0.13055066666666668 -0.7412896666666667
1777121284 0.130267 -0.7427956666666667
1778607163 0.130177 -0.7449136666666667
1780093042 0.13182133333333332 -0.7461293333333333
1781578921 0.131062 -0.7466379999999999
1783064800 0.132329 -0.7479523333333334
1784550679 0.132436 -0.7474740000000001
1786036558 0.133133 -0.7478993333333334
1787522437 0.13162433333333334 -0.7457713333333333
1789008316 0.133462 -0.7459413333333332
1790494195 0.13301533333333335 -0.7442920000000001
1791980074 0.12968966666666668 -0.7431593333333333
1793465953 0.1300946666666667 -0.7394210000000001
1794951832 0.129395 -0.7382586666666667
1796437711 0.1297263333333333 -0.7349583333333333
1797923590 0.128168 -0.7324906666666667
1799409469 0.12922633333333333 -0.7287566666666668
1800895348 0.12552766666666668 -0.72905
1802381227 0.126692 -0.7320569999999998
1803867106 0.128162 -0.7350886666666666
1805352985 0.12665133333333334 -0.7359703333333334
1806838864 0.12587199999999998 -0.737101
1808324743 0.12848733333333331 -0.7412900000000001
1809810622 0.12751733333333334 -0.7420893333333334
1811296501 0.12707466666666667 -0.7423176666666667
1812782380 0.126351 -0.7433326666666668
1814268259 0.130404 -0.7422156666666666
1815754138 0.128471 -0.7417876666666666
1817240017 0.12552566666666667 -0.7390453333333333
1818725896 0.12556466666666666 -0.7387670000000001
1820211775 0.12539566666666668 -0.7377123333333332
1821697654 0.12363866666666666 -0.7341863333333333
1823183533 0.12304999999999999 -0.7334963333333334
1824669412 0.12405366666666667 -0.7294513333333333
1826155291 0.13994133333333333 -0.7394703333333332
1827641170 0.12192933333333333 -0.7236596666666667
1829127049 0.12345366666666664 -0.721331
1830612928 0.115889 -0.7176786666666667
1832098807 0.12286033333333334 -0.7227793333333333
1833584686 0.12217866666666666 -0.7252766666666668
1835070565 0.107998 -0.7268753333333334
1836556444 0.11364266666666667 -0.7279490000000001
1838042323 0.11142533333333333 -0.7280596666666667
1839528202 0.11081600000000001 -0.7314233333333333
1841014081 0.113585 -0.7331333333333333
1842499960 0.111748 -0.7355226666666667
1843985839 0.114232 -0.7328523333333333
1845471718 0.12489499999999999 -0.7389733333333334
1846957597 0.11995233333333333 -0.7397226666666666
1848443476 0.111214 -0.732084
1849929355 0.11294 -0.7347400000000001
1851415234 0.11074133333333334 -0.7345296666666666
1852901113 0.12216 -0.7317003333333334
1854386992 0.10806866666666666 -0.7268173333333333
1855872871 0.12049566666666667 -0.7328893333333332
1857358750 0.10724666666666667 -0.7272086666666667
1858844629 0.109441 -0.7229760000000001
1860330508 0.11006233333333333 -0.7219206666666667
1861816387 0.11025366666666665 -0.725409
1863302266 0.10735033333333333 -0.728926
1864788145 0.10743200000000001 -0.7323923333333333
1866274024 0.10580800000000001 -0.7344726666666667
1867759903 0.106954 -0.735707
1869245782 0.10812166666666667 -0.736993
1870731661 0.10720566666666666 -0.739809
1872217540 0.10523366666666667 -0.7381890000000001
1873703419 0.105971 -0.7382423333333333
1875189298 0.10434333333333333 -0.7396006666666667
1876675177 0.10462033333333333 -0.7404816666666667
1878161056 0.100394 -0.7367413333333334
1879646935 0.10472233333333335 -0.7381693333333333
1881132814 0.10435433333333333 -0.737785
1882618693 0.10546499999999999 -0.734858
1884104572 0.10073633333333333 -0.7313706666666667
1885590451 0.103032 -0.730787
1887076330 0.10509299999999999 -0.7275926666666667
1888562209 0.10242433333333334 -0.7256806666666668
1890048088 0.09952666666666667 -0.7229113333333332
1891533967 0.10282899999999999 -0.725132
1893019846 0.10043799999999999 -0.727636
1894505725 0.09877533333333334 -0.7283063333333333
1895991604 0.10244033333333334 -0.7311016666666666
1897477483 0.09854733333333332 -0.7324893333333334
1898963362 0.09852733333333334 -0.7338163333333333
1900449241 0.09815233333333333 -0.7341686666666667
1901935120 0.10106266666666668 -0.7325166666666666
1903420999 0.10139233333333332 -0.7341956666666666
1904906878 0.09896866666666666 -0.7327806666666667
1906392757 0.09663700000000001 -0.7310043333333334
1907878636 0.09901133333333334 -0.7328913333333333
1909364515 0.09914933333333335 -0.730174
1910850394 0.09845966666666667 -0.7292096666666668
1912336273 0.09764533333333332 -0.7280823333333334
1913822152 0.097848 -0.7249913333333332
1915308031 0.097325 -0.7220059999999999
1916793910 0.09650733333333333 -0.7178576666666667
1918279789 0.09458433333333334 -0.7156953333333332
1919765668 0.09164266666666666 -0.7127003333333334
1921251547 0.089382 -0.7141573333333332
1922737426 0.09449933333333334 -0.7172473333333333
1924223305 0.09156066666666667 -0.7196393333333333
1925709184 0.08894733333333332 -0.7207446666666666
1927195063 0.09299066666666667 -0.7238743333333333
1928680942 0.08761233333333333 -0.7261066666666666
1930166821 0.08936999999999999 -0.7279476666666667
1931652700 0.09062100000000001 -0.7283719999999999
1933138579 0.08801433333333332 -0.7281296666666668
1934624458 0.08820866666666667 -0.7287916666666666
1936110337 0.08645033333333334 -0.7282786666666667
1937596216 0.090439 -0.7276926666666667
1939082095 0.08489166666666666 -0.7278276666666667
1940567974 0.085944 -0.727372
1942053853 0.08586733333333334 -0.7256203333333332
1943539732 0.08351900000000001 -0.7249756666666666
1945025611 0.08191533333333334 -0.721743
1946511490 0.08263933333333333 -0.7191173333333333
1947997369 0.079876 -0.7174936666666668
1949483248 0.07891666666666666 -0.7149706666666665
1950969127 0.078442 -0.7163986666666666
1952455006 0.08044666666666667 -0.7183143333333333
1953940885 0.07942299999999998 -0.720813
1955426764 0.08333633333333333 -0.7211583333333333
1956912643 0.07962066666666667 -0.7235703333333333
1958398522 0.075654 -0.724347
1959884401 0.07749033333333334 -0.7263556666666666
1961370280 0.076682 -0.7265963333333333
1962856159 0.07788366666666667 -0.7260523333333332
1964342038 0.07640033333333333 -0.7279653333333332
1965827917 0.07646 -0.7278903333333333
1967313796 0.074831 -0.7265676666666666
1968799675 0.088548 -0.7279119999999999
1970285554 0.055417 -0.7237746666666666
1971771433 0.07467666666666666 -0.721566
1973257312 0.07440566666666666 -0.7197063333333333
1974743191 0.073705 -0.7186833333333333
1976229070 0.06867366666666667 -0.7170376666666667
1977714949 0.06790366666666665 -0.7112463333333333
1979200828 0.06925633333333334 -0.7114313333333332
1980686707 0.071761 -0.7083863333333333
1982172586 0.069382 -0.7110960000000001
1983658465 0.07014033333333335 -0.7130063333333333
1985144344 0.06922400000000001 -0.71672
1986630223 0.06724933333333333 -0.7199939999999999
1988116102 0.06982700000000001 -0.718391
1989601981 0.061755333333333336 -0.7185640000000001
1991087860 0.06676166666666666 -0.7225213333333333
1992573739 0.06694233333333333 -0.7210986666666667
1994059618 0.07440266666666667 -0.7191173333333333
1995545497 0.07240766666666666 -0.7195353333333334
1997031376 0.065481 -0.7212693333333333
1998517255 0.069309 -0.72067
2000003134 0.068039 -0.7191246666666666
2001489013 0.06718166666666665 -0.7164013333333333
2002974892 0.06161533333333333 -0.7172026666666668
2004460771 0.06612033333333334 -0.7137933333333333
2005946650 0.06359233333333332 -0.7115536666666666
2007432529 0.062471666666666675 -0.707668
2008918408 0.061654999999999995 -0.704904
2010404287 0.060689 -0.7042523333333334
2011890166 0.06029533333333333 -0.7064499999999999
2013376045 0.05552033333333333 -0.7104909999999999
2014861924 0.054018000000000004 -0.712946
2016347803 0.055328999999999996 -0.7143793333333334
2017833682 0.05776833333333333 -0.7151706666666667
2019319561 0.057661 -0.716733
2020805440 0.057772 -0.7182326666666666
2022291319 0.051556333333333336 -0.7207460000000001
2023777198 0.056546000000000006 -0.7190219999999999
2025263077 0.05695066666666667 -0.7191763333333334
2026748956 0.05601266666666666 -0.7197666666666667
2028234835 0.05703866666666666 -0.7187903333333333
2029720714 0.054831 -0.7186806666666666
2031206593 0.05446666666666667 -0.7169823333333333
2032692472 0.053968666666666665 -0.7159476666666666
2034178351 0.057615 -0.7128696666666666
2035664230 0.05357266666666666 -0.7123666666666667
2037150109 0.052895 -0.70847
2038635988 0.05275833333333333 -0.7064363333333333
2040121867 0.050421333333333325 -0.7049383333333333
2041607746 0.05336533333333333 -0.7072456666666667
2043093625 0.052609666666666666 -0.7092166666666667
2044579504 0.04972066666666667 -0.7099953333333334
2046065383 0.049352 -0.711294
2047551262 0.051437000000000004 -0.7129193333333333
2049037141 0.048882 -0.713507
2050523020 0.05030433333333333 -0.7157786666666667
2052008899 0.04828766666666667 -0.7142010000000001
2053494778 0.04959333333333333 -0.7149976666666666
2054980657 0.04756133333333334 -0.7147763333333333
2056466536 0.04779366666666666 -0.7129906666666667
2057952415 0.045783 -0.7134936666666668
2059438294 0.04502133333333334 -0.7134736666666667
2060924173 0.04782733333333333 -0.7094726666666666
2062410052 0.04589733333333334 -0.7078323333333333
2063895931 0.04402866666666667 -0.7058556666666668
2065381810 0.04278766666666667 -0.703191
2066867689 0.043493000000000004 -0.7020883333333333
2068353568 0.040204333333333335 -0.6990656666666667
2069839447 0.036586 -0.6949746666666666
2071325326 0.03893066666666667 -0.6964466666666667
2072811205 0.036897000000000006 -0.7007273333333334
2074297084 0.03660833333333333 -0.703045
2075782963 0.03858266666666666 -0.7042396666666667
2077268842 0.03734200000000001 -0.7068850000000001
2078754721 0.03819533333333333 -0.7092823333333333
2080240600 0.03984533333333333 -0.7118116666666667
2081726479 0.04080333333333334 -0.710318
2083212358 0.03842 -0.7138186666666666
2084698237 0.03971533333333333 -0.7133790000000001
2086184116 0.039149333333333335 -0.7154699999999999
2087669995 0.041278666666666665 -0.7104776666666668
2089155874 0.04007733333333333 -0.711
2090641753 0.038642666666666665 -0.7098676666666668
2092127632 0.04151033333333334 -0.7089420000000001
2093613511 0.03995166666666667 -0.706303
2095099390 0.03771033333333334 -0.705889
2096585269 0.039197666666666665 -0.702892
2098071148 0.03958966666666667 -0.7002596666666667
2099557027 0.03804466666666667 -0.6979260000000002
2101042906 0.03666866666666667 -0.69868
2102528785 0.036949666666666665 -0.70113
2104014664 0.036555 -0.7049513333333334
2105500543 0.033500666666666665 -0.7071393333333335
2106986422 0.033096999999999994 -0.707706
2108472301 0.03537933333333333 -0.7101796666666665
2109958180 0.03731399999999999 -0.7121426666666667
2111444059 0.03872266666666667 -0.713113
2112929938 0.035346 -0.7120799999999999
2114415817 0.036255666666666665 -0.7131696666666666
2115901696 0.035084 -0.7126959999999999
2117387575 0.03675266666666666 -0.712539
2118873454 0.03614233333333333 -0.7113093333333333
2120359333 0.029688000000000003 -0.70094
2121845212 0.03580566666666666 -0.7104076666666668
2123331091 0.03675433333333333 -0.7078446666666668
2124816970 0.033445 -0.7057306666666667
2126302849 0.03282966666666667 -0.7035683333333332
2127788728 0.034026 -0.702109
2129274607 0.03481599999999999 -0.6979479999999999
2130760486 0.031789333333333336 -0.6995963333333334
2132246365 0.028358333333333336 -0.7001693333333333
2133732244 0.03184033333333333 -0.7049483333333333
2135218123 0.029836 -0.7052309999999999
2136704002 0.030367 -0.7063419999999999
2138189881 0.027877666666666665 -0.7083596666666666
2139675760 0.024828666666666666 -0.7095113333333334
2141161639 0.024987 -0.7103426666666666
2142647518 0.028186 -0.710284
2144133397 0.025495666666666666 -0.7126483333333334
2145619276 0.02167233333333333 -0.7110193333333333
2147105155 0.022975333333333334 -0.7087850000000001
2148591034 0.023241333333333336 -0.7099873333333333
2150076913 0.02074233333333333 -0.7090086666666666
2151562792 0.021575333333333335 -0.7088996666666666
2153048671 0.020299333333333332 -0.705406
2154534550 0.019833 -0.7051630000000001
2156020429 0.020340999999999998 -0.7027313333333334
2157506308 0.021209333333333334 -0.6972130000000001
2158992187 0.018246 -0.6978369999999999
2160478066 0.01726866666666667 -0.696611
2161963945 0.016084666666666667 -0.6999573333333333
2163449824 0.015054333333333334 -0.7031510000000001
2164935703 0.016055333333333335 -0.7043006666666667
2166421582 0.018235 -0.7070593333333334
2167907461 0.015880000000000002 -0.7079693333333333
2169393340 0.020115000000000004 -0.7113656666666667
2170879219 0.015322666666666667 -0.7107426666666666
2172365098 0.018937 -0.7118263333333333
2173850977 0.01962866666666667 -0.7120656666666667
2175336856 0.017306 -0.7113649999999999
2176822735 0.019676 -0.711359
2178308614 0.016554000000000003 -0.7120866666666666
2179794493 0.021906333333333333 -0.7096633333333333
2181280372 0.022877666666666668 -0.70952
2182766251 0.021361333333333333 -0.7062966666666667
2184252130 0.017697333333333332 -0.7052200000000001
2185738009 0.020511333333333336 -0.7027493333333332
2187223888 0.019766666666666665 -0.6988463333333333
2188709767 0.020363999999999997 -0.6969896666666666
2190195646 0.021209000000000002 -0.6943833333333332
2191681525 0.020857 -0.696186
2193167404 0.021639333333333333 -0.6985489999999999
2194653283 0.020615666666666668 -0.7001713333333334
2196139162 0.024204666666666666 -0.702943
2197625041 0.02522266666666667 -0.7048276666666666
2199110920 0.023092 -0.7052023333333333
2200596799 0.02166766666666667 -0.7050899999999999
2202082678 0.02234833333333333 -0.7055416666666666
2203568557 0.024068000000000003 -0.7048696666666667
2205054436 0.024892333333333336 -0.7052033333333334
2206540315 0.025408666666666666 -0.705331
2208026194 0.038124 -0.695347
2209512073 0.02751566666666667 -0.7016680000000001
2210997952 0.027472666666666663 -0.700218
2212483831 0.022724333333333332 -0.6991900000000001
2213969710 0.025518666666666665 -0.697455
2215455589 0.024681333333333333 -0.6929123333333332
2216941468 0.026861999999999997 -0.6903843333333333
2218427347 0.023414666666666667 -0.6880306666666667
2219913226 0.023970333333333333 -0.683255
2221399105 0.02219866666666667 -0.6884253333333333
2222884984 0.02588 -0.6915053333333333
2224370863 0.026975 -0.6933606666666666
2225856742 0.022935 -0.693885
2227342621 0.022611000000000003 -0.6952073333333333
2228828500 0.021699333333333334 -0.6984163333333333
2230314379 0.021617333333333332 -0.699442
2231800258 0.02226233333333333 -0.7000593333333334
2233286137 0.019185333333333332 -0.7000066666666668
2234772016 0.017128666666666667 -0.6996556666666667
2236257895 0.022991333333333336 -0.7008190000000001
2237743774 0.02188066666666667 -0.7000983333333334
2239229653 0.02065466666666667 -0.6989166666666667
2240715532 0.022709666666666666 -0.70155
2242201411 0.021776 -0.6973286666666668
2243687290 0.020517333333333332 -0.6974480000000001
2245173169 0.022661999999999998 -0.6968286666666667
2246659048 0.01650333333333333 -0.6926513333333334
2248144927 0.01703333333333333 -0.6917913333333333
2249630806 0.021760666666666664 -0.689263
2251116685 0.01942033333333333 -0.6913983333333333
2252602564 0.014335333333333334 -0.6916333333333333
2254088443 0.014701999999999998 -0.6930116666666667
2255574322 0.022367666666666664 -0.695966
2257060201 0.017507666666666668 -0.6974616666666668
2258546080 0.015614333333333332 -0.6976446666666667
2260031959 0.014692000000000002 -0.6990850000000001
2261517838 0.015309666666666666 -0.6989869999999999
2263003717 0.014400999999999999 -0.698087
2264489596 0.017646333333333333 -0.7008749999999999
2265975475 0.008079333333333332 -0.6952463333333334
2267461354 0.014467333333333334 -0.6979493333333333
2268947233 0.013927333333333333 -0.653645
2270433112 0.011757333333333333 -0.6971266666666667
2271918991 0.011263666666666667 -0.6938266666666667
2273404870 0.011951666666666666 -0.6931189999999999
2274890749 0.008287666666666667 -0.6913496666666666
2276376628 0.007503999999999999 -0.690543
2277862507 0.008934666666666667 -0.6880243333333333
2279348386 0.006181333333333333 -0.6852076666666668
2280834265 0.0027083333333333334 -0.684155
2282320144 0.00604 -0.6848223333333333
2283806023 0.009302999999999999 -0.6877476666666666
2285291902 0.0045583333333333335 -0.6892493333333333
2286777781 0.006065 -0.6912056666666667
2288263660 0.007081 -0.6923103333333334
2289749539 0.004747 -0.6936113333333335
2291235418 0.007247000000000001 -0.6910440000000001
2292721297 0.005996666666666667 -0.6925533333333332
2294207176 0.008368666666666668 -0.6924593333333333
2295693055 0.005005 -0.6926220000000001
2297178934 0.003845 -0.6913846666666666
2298664813 0.010578333333333334 -0.6926476666666668
2300150692 0.006892333333333334 -0.6894896666666667
2301636571 0.002336666666666667 -0.6907116666666667
2303122450 0.006884333333333333 -0.686838
2304608329 0.005916 -0.6857763333333334
2306094208 0.006023000000000001 -0.6839723333333333
2307580087 -0.0007850000000000001 -0.6879323333333334
2309065966 -4.800000000000001e-05 -0.6776956666666667
2310551845 0.007866333333333335 -0.679897
2312037724 0.0005653333333333332 -0.6814686666666666
2313523603 -8.433333333333354e-05 -0.6847726666666668
2315009482 0.005615666666666667 -0.6868553333333333
2316495361 8.066666666666667e-05 -0.688851
2317981240 0.0014243333333333332 -0.6907486666666666
2319467119 0.003022 -0.690858
2320952998 -0.002708 -0.6938270000000001
2322438877 0.00048400000000000006 -0.6908843333333333
2323924756 0.006721 -0.6951803333333334
2325410635 0.0003550000000000001 -0.6930563333333334
2326896514 0.0030713333333333335 -0.6958763333333334
2328382393 0.004102000000000001 -0.694227
2329868272 0.0012113333333333331 -0.693461
2331354151 0.003018 -0.693215
2332840030 0.0042243333333333325 -0.6919866666666667
2334325909 0.0016740000000000001 -0.691065
2335811788 0.0034523333333333333 -0.6906896666666666
2337297667 0.0009926666666666669 -0.6886556666666667
2338783546 -0.0018250000000000002 -0.686048
2340269425 -0.004005666666666667 -0.6851203333333332
2341755304 -0.001287 -0.6883813333333334
2343241183 -0.0030843333333333335 -0.687767
2344727062 -0.004621 -0.6937596666666667
2346212941 -0.0018063333333333334 -0.6922259999999999
2347698820 -0.0069366666666666665 -0.692546
2349184699 -0.005723666666666666 -0.6935043333333333
2350670578 -0.008238666666666667 -0.6972856666666667
2352156457 -0.009967666666666666 -0.69339
2353642336 -0.007280666666666667 -0.694243
2355128215 -0.008861666666666665 -0.6946293333333333
2356614094 -0.0029809999999999997 -0.6927996666666667
2358099973 -0.0034386666666666667 -0.6949770000000001
2359585852 -0.008654 -0.6945933333333333
2361071731 -0.009536666666666667 -0.692491
2362557610 -0.010137333333333333 -0.6908843333333333
2364043489 -0.010752666666666666 -0.6859416666666666
2365529368 -0.013625333333333331 -0.684323
2367015247 -0.012300333333333335 -0.6825893333333334
2368501126 -0.020332 -0.6832266666666668
2369987005 -0.022329333333333336 -0.6794743333333333
2371472884 -0.020160333333333336 -0.6783876666666666
2372958763 -0.01646066666666667 -0.6823353333333334
2374444642 -0.017027666666666667 -0.6850726666666667
2375930521 -0.01946266666666667 -0.689704
2377416400 -0.009350333333333334 -0.6862783333333334
2378902279 -0.016154 -0.6901160000000001
2380388158 -0.019848333333333332 -0.6920169999999999
2381874037 -0.016849 -0.6929970000000001
2383359916 -0.012576666666666667 -0.6861466666666667
2384845795 -0.016085333333333333 -0.690498
2386331674 -0.016417 -0.6904896666666667
2387817553 -0.013116666666666665 -0.6883266666666668
2389303432 -0.009961333333333334 -0.6878806666666666
2390789311 -0.015050000000000001 -0.6856140000000001
2392275190 -0.012350333333333333 -0.6819863333333333
2393761069 -0.012026666666666666 -0.6807256666666666
2395246948 -0.011642666666666667 -0.677928
2396732827 -0.013719 -0.676129
2398218706 -0.016861333333333336 -0.6734596666666667
2399704585 -0.015307666666666666 -0.6686453333333334
2401190464 -0.017202 -0.6713603333333333
2402676343 -0.017274 -0.6767296666666667
2404162222 -0.0205 -0.6746906666666667
2405648101 -0.018543 -0.6790606666666666
2407133980 -0.020328666666666665 -0.681444
2408619859 -0.020196333333333333 -0.682677
2410105738 -0.022882999999999997 -0.6843906666666667
2411591617 -0.020075 -0.6850196666666667
2413077496 -0.020065666666666666 -0.684847
2414563375 -0.023249000000000002 -0.6839186666666667
2416049254 -0.024241000000000002 -0.6858116666666666
2417535133 -0.022397666666666666 -0.6850890000000001
2419021012 -0.02334433333333333 -0.686769
2420506891 -0.02624433333333333 -0.6829366666666666
2421992770 -0.029325666666666667 -0.6847436666666665
2423478649 -0.027822666666666666 -0.6821959999999999
2424964528 -0.026576 -0.6850569999999999
2426450407 -0.02980333333333333 -0.6762126666666667
2427936286 -0.02812566666666667 -0.6766913333333333
2429422165 -0.027448 -0.6730726666666667
2430908044 -0.029085333333333335 -0.673578
2432393923 -0.03264 -0.6748219999999999
2433879802 -0.03403366666666666 -0.68061
2435365681 -0.031809333333333335 -0.6792699999999999
2436851560 -0.032211 -0.680106
2438337439 -0.032947000000000004 -0.6813796666666666
2439823318 -0.030648333333333333 -0.6840386666666668
2441309197 -0.03367866666666667 -0.684433
2442795076 -0.03123733333333333 -0.6828453333333333
2444280955 -0.030334 -0.6852643333333334
2445766834 -0.03164333333333333 -0.684773
2447252713 -0.029923000000000005 -0.6812429999999999
2448738592 -0.029629666666666665 -0.6801936666666667
2450224471 -0.029999333333333333 -0.6798703333333332
2451710350 -0.032718 -0.6773729999999999
2453196229 -0.027959 -0.6765736666666666
2454682108 -0.03470499999999999 -0.6715533333333333
2456167987 -0.032135333333333335 -0.6694406666666666
2457653866 -0.03588666666666667 -0.667644
2459139745 -0.030606333333333333 -0.6629306666666667
2460625624 -0.039486 -0.6623186666666666
2462111503 -0.029777333333333333 -0.6643916666666666
2463597382 -0.03935966666666667 -0.6673993333333333
2465083261 -0.03424133333333333 -0.6690316666666667
2466569140 -0.040577 -0.6689620000000001
2468055019 -0.033505 -0.6707976666666667
2469540898 -0.04386533333333333 -0.6744493333333333
2471026777 -0.036074 -0.6736236666666667
2472512656 -0.05139966666666667 -0.6732513333333333
2473998535 -0.033794 -0.6755653333333335
2475484414 -0.04055433333333333 -0.6727863333333334
2476970293 -0.03776366666666667 -0.6724706666666668
2478456172 -0.039244 -0.6737573333333332
2479942051 -0.03664733333333333 -0.673807
2481427930 -0.04633400000000001 -0.6696399999999999
2482913809 -0.036689 -0.6689766666666667
2484399688 -0.044381000000000004 -0.6670066666666666
2485885567 -0.03534466666666667 -0.6647333333333334
2487371446 -0.04651933333333333 -0.6599409999999999
2488857325 -0.041562999999999996 -0.6582916666666666
2490343204 -0.04829233333333333 -0.657955
2491829083 -0.03940233333333334 -0.6586416666666667
2493314962 -0.04912566666666667 -0.6626773333333333
2494800841 -0.037777 -0.6655093333333334
2496286720 -0.041730666666666666 -0.6656933333333334
2497772599 -0.041588999999999994 -0.6694673333333333
2499258478 -0.043979333333333336 -0.6708236666666666
2500744357 -0.042008666666666666 -0.671573
2502230236 -0.042550333333333336 -0.67238
2503716115 -0.039945666666666664 -0.6701943333333333
2505201994 -0.04164533333333333 -0.6739463333333333
2506687873 -0.039575 -0.6737496666666667
2508173752 -0.04212733333333333 -0.6726823333333334
2509659631 -0.036145 -0.6742856666666666
2511145510 -0.03744366666666666 -0.6738576666666667
2512631389 -0.040025333333333336 -0.671663
2514117268 -0.03671433333333333 -0.6680683333333333
2515603147 -0.038349666666666664 -0.666148
2517089026 -0.03661166666666666 -0.6661523333333333
2518574905 -0.03759833333333333 -0.6602236666666667
2520060784 -0.036224 -0.6605033333333333
2521546663 -0.038350999999999996 -0.6626373333333334
2523032542 -0.03550166666666667 -0.666239
2524518421 -0.040691000000000005 -0.666648
2526004300 -0.039470333333333336 -0.6694
2527490179 -0.038834 -0.6691410000000001
2528976058 -0.041589999999999995 -0.6714836666666666
2530461937 -0.04177266666666667 -0.6717503333333333
2531947816 -0.04423533333333333 -0.674713
2533433695 -0.042388 -0.6695023333333333
2534919574 -0.04505566666666667 -0.6735213333333334
2536405453 -0.044357 -0.6741826666666667
2537891332 -0.04170100000000001 -0.6719956666666667
2539377211 -0.043085000000000005 -0.6750763333333333
2540863090 -0.04721066666666667 -0.6748346666666668
2542348969 -0.04303133333333334 -0.6690149999999999
2543834848 -0.04503133333333333 -0.6695033333333332
2545320727 -0.042663 -0.6671716666666666
2546806606 -0.04610533333333333 -0.667462
2548292485 -0.048258999999999996 -0.6669013333333332
2549778364 -0.04881266666666667 -0.6617136666666666
2551264243 -0.05292533333333333 -0.661778
2552750122 -0.05022666666666667 -0.6673616666666667
2554236001 -0.05118266666666666 -0.6701580000000001
2555721880 -0.051125 -0.6741233333333333
2557207759 -0.05253866666666667 -0.6709636666666667
2558693638 -0.04984166666666667 -0.6768103333333334
2560179517 -0.050424666666666666 -0.6748286666666666
2561665396 -0.054537333333333333 -0.6744976666666668
2563151275 -0.05077533333333334 -0.6762563333333333
2564637154 -0.053854000000000006 -0.6755436666666667
2566123033 -0.05533233333333334 -0.6731510000000002
2567608912 -0.0542 -0.675236
2569094791 -0.05822666666666667 -0.6668280000000001
2570580670 -0.05145233333333333 -0.6702003333333334
2572066549 -0.05665133333333333 -0.6753290000000001
2573552428 -0.063929 -0.669965
2575038307 -0.06078633333333333 -0.6717096666666666
2576524186 -0.059817666666666665 -0.6711756666666666
2578010065 -0.06464400000000001 -0.6641323333333333
2579495944 -0.060436666666666666 -0.665734
2580981823 -0.06492133333333333 -0.6686346666666667
2582467702 -0.05885133333333333 -0.6632033333333333
2583953581 -0.063651 -0.665777
2585439460 -0.06457033333333333 -0.6670013333333333
2586925339 -0.06587766666666667 -0.6674913333333333
2588411218 -0.060951333333333337 -0.6691379999999999
2589897097 -0.064362 -0.6656106666666667
2591382976 -0.06196066666666667 -0.6640316666666667
2592868855 -0.06006333333333334 -0.6676529999999999
2594354734 -0.057207 -0.6645986666666667
2595840613 -0.05119566666666667 -0.6745763333333334
2597326492 -0.057515333333333335 -0.6646793333333334
2598812371 -0.05806133333333333 -0.6640656666666667
2600298250 -0.05648533333333333 -0.662131
2601784129 -0.05259166666666667 -0.6583543333333334
2603270008 -0.05096033333333333 -0.6590523333333334
2604755887 -0.054804 -0.6508336666666666
2606241766 -0.058080333333333324 -0.6502056666666666
2607727645 -0.051058 -0.6479316666666666
2609213524 -0.05251633333333333 -0.64512
2610699403 -0.05733833333333333 -0.6448753333333334
2612185282 -0.05971233333333334 -0.6438473333333333
2613671161 -0.056983000000000006 -0.6481016666666667
2615157040 -0.055081 -0.6491410000000001
2616642919 -0.05941366666666666 -0.6507333333333333
2618128798 -0.056987666666666666 -0.6540360000000001
2619614677 -0.05812333333333333 -0.655201
2621100556 -0.060995333333333325 -0.6466663333333333
2622586435 -0.060240666666666665 -0.6497233333333333
2624072314 -0.05503766666666667 -0.6581323333333333
2625558193 -0.057351000000000006 -0.6553273333333333
2627044072 -0.06132233333333333 -0.6523150000000001
2628529951 -0.057249 -0.653709
2630015830 -0.059783 -0.6511626666666667
2631501709 -0.057536333333333335 -0.6511943333333333
2632987588 -0.05830933333333333 -0.6521186666666666
2634473467 -0.06269833333333333 -0.6476233333333333
2635959346 -0.055134999999999997 -0.6471226666666666
2637445225 -0.058582 -0.6459883333333333
2638931104 -0.060647 -0.6446903333333333
2640416983 -0.06094733333333333 -0.6401359999999999
2641902862 -0.06204333333333333 -0.6465420000000001
2643388741 -0.059059 -0.6489973333333333
2644874620 -0.061732666666666665 -0.6527736666666667
2646360499 -0.06759266666666666 -0.650354
2647846378 -0.06298866666666667 -0.6578673333333334
2649332257 -0.063042 -0.6601486666666666
2650818136 -0.059065 -0.6601826666666666
2652304015 -0.061773 -0.659072
2653789894 -0.060732 -0.6612353333333333
2655275773 -0.060436 -0.6648
2656761652 -0.05994433333333333 -0.6649076666666667
2658247531 -0.060132333333333336 -0.664643
2659733410 -0.061874000000000005 -0.6652100000000001
2661219289 -0.064397 -0.664079
2662705168 -0.05907366666666667 -0.666476
2664191047 -0.060887000000000004 -0.6637460000000001
2665676926 -0.05880833333333333 -0.6632733333333333
2667162805 -0.061184666666666665 -0.6621993333333333
2668648684 -0.061866000000000004 -0.6592586666666667
2670134563 -0.05935766666666667 -0.6571033333333333
2671620442 -0.06597666666666667 -0.65868
2673106321 -0.06360566666666667 -0.665251
2674592200 -0.06507766666666666 -0.6623346666666667
2676078079 -0.06304933333333333 -0.670292
2677563958 -0.06257766666666666 -0.6686196666666667
2679049837 -0.054677333333333335 -0.6654463333333333
2680535716 -0.06381666666666667 -0.6668786666666667
2682021595 -0.05030133333333334 -0.6713316666666667
2683507474 -0.05294533333333332 -0.6650623333333333
2684993353 -0.05768966666666667 -0.66825
2686479232 -0.056143 -0.6689213333333334
2687965111 -0.05906800000000001 -0.6598543333333334
2689450990 -0.057115 -0.6670933333333333
2690936869 -0.05155866666666667 -0.661971
2692422748 -0.05055166666666667 -0.6570376666666666
2693908627 -0.059249666666666666 -0.6601843333333334
2695394506 -0.0546 -0.6544486666666667
2696880385 -0.05931266666666666 -0.6527323333333334
2698366264 -0.05917833333333333 -0.6507556666666666
2699852143 -0.05418666666666667 -0.6481833333333333
2701338022 -0.059312333333333335 -0.6488309999999999
2702823901 -0.05747733333333333 -0.652126
2704309780 -0.06266066666666667 -0.6520659999999999
2705795659 -0.048590333333333326 -0.6549896666666667
2707281538 -0.049197333333333336 -0.6548756666666667
2708767417 -0.04959766666666666 -0.65807
2710253296 -0.057880999999999995 -0.6602743333333334
2711739175 -0.043466333333333336 -0.659154
2713225054 -0.051864 -0.6598700000000001
2714710933 -0.049222666666666665 -0.6580993333333334
2716196812 -0.050714333333333333 -0.6588686666666667
2717682691 -0.049525999999999994 -0.6550123333333334
2719168570 -0.07496399999999999 -0.6398926666666667
2720654449 -0.03856433333333333 -0.6653473333333334
2722140328 -0.04853966666666667 -0.6512566666666667
2723626207 -0.044140000000000006 -0.6487520000000001
2725112086 -0.045853 -0.646883
2726597965 -0.04869300000000001 -0.6411176666666667
2728083844 -0.04958333333333333 -0.6397953333333333
2729569723 -0.048216666666666665 -0.635799
2731055602 -0.04339133333333334 -0.6371946666666667
2732541481 -0.051699 -0.640485
2734027360 -0.05161433333333334 -0.6452756666666667
2735513239 -0.04462433333333334 -0.6441693333333333
2736999118 -0.06669633333333333 -0.6481703333333334
2738484997 -0.06049433333333334 -0.651294
2739970876 -0.061068333333333336 -0.6536633333333334
2741456755 -0.05949833333333333 -0.6542006666666667
2742942634 -0.06631833333333333 -0.6570103333333334
2744428513 -0.06159333333333333 -0.6571986666666666
2745914392 -0.063863 -0.6601303333333334
2747400271 -0.06846033333333333 -0.657482
2748886150 -0.068736 -0.6624086666666666
2750372029 -0.07140033333333334 -0.6600916666666666
2751857908 -0.06682500000000001 -0.659107
2753343787 -0.07485833333333333 -0.6592983333333332
2754829666 -0.07993333333333333 -0.660859
2756315545 -0.069682 -0.6527956666666667
2757801424 -0.077578 -0.657443
2759287303 -0.07531466666666667 -0.6577693333333333
2760773182 -0.07182466666666666 -0.6538606666666666
2762259061 -0.07315333333333333 -0.6581876666666667
2763744940 -0.07234600000000001 -0.658394
2765230819 -0.07268000000000001 -0.6636746666666667
2766716698 -0.07252566666666667 -0.6619463333333333
2768202577 -0.07036933333333334 -0.662282
2769688456 -0.06448533333333333 -0.6622006666666667
2771174335 -0.06807666666666667 -0.665016
2772660214 -0.062527 -0.6674890000000001
2774146093 -0.068685 -0.6669436666666666
2775631972 -0.065091 -0.663323
2777117851 -0.06774066666666666 -0.6651636666666667
2778603730 -0.065183 -0.6630546666666667
2780089609 -0.06878766666666668 -0.6630616666666667
2781575488 -0.06860033333333333 -0.658659
2783061367 -0.058836 -0.6562133333333333
2784547246 -0.06341799999999999 -0.6559769999999999
2786033125 -0.06086933333333333 -0.6521560000000001
2787519004 -0.05957333333333333 -0.6495216666666668
2789004883 -0.05870899999999999 -0.6442483333333334
2790490762 -0.058651666666666664 -0.6425896666666667
2791976641 -0.06386599999999999 -0.6468793333333334
2793462520 -0.06786166666666667 -0.6480836666666666
2794948399 -0.06292 -0.6509383333333333
2796434278 -0.06705733333333334 -0.657241
2797920157 -0.06372433333333333 -0.6508250000000001
2799406036 -0.06349533333333333 -0.6529246666666667
2800891915 -0.06627866666666667 -0.6514190000000001
2802377794 -0.066291 -0.6542843333333334
2803863673 -0.07284533333333333 -0.6568386666666667
2805349552 -0.06411433333333333 -0.6543580000000001
2806835431 -0.072258 -0.6524893333333334
2808321310 -0.06658599999999999 -0.650959
2809807189 -0.07502966666666666 -0.653139
2811293068 -0.06594566666666667 -0.6537656666666667
2812778947 -0.072142 -0.6476069999999999
2814264826 -0.06290033333333334 -0.6503116666666666
2815750705 -0.072172 -0.6444126666666666
2817236584 -0.06612900000000001 -0.6449083333333333
2818722463 -0.073521 -0.6442156666666666
2820208342 -0.074248 -0.640992
2821694221 -0.075008 -0.6458173333333334
2823180100 -0.07238 -0.6492923333333334
2824665979 -0.07933533333333333 -0.6503453333333334
2826151858 -0.07155299999999999 -0.6526463333333333
2827637737 -0.07152933333333333 -0.6486519999999999
2829123616 -0.065748 -0.651414
2830609495 -0.07623433333333333 -0.6529379999999999
2832095374 -0.07090400000000001 -0.6443463333333334
2833581253 -0.07349166666666668 -0.6525403333333334
2835067132 -0.06749433333333334 -0.6541916666666666
2836553011 -0.07182966666666667 -0.6517536666666667
2838038890 -0.06970066666666667 -0.646239
2839524769 -0.072272 -0.6453876666666666
2841010648 -0.06779099999999999 -0.6434113333333333
2842496527 -0.06996566666666666 -0.6418539999999999
2843982406 -0.07401100000000001 -0.6392223333333332
2845468285 -0.072137 -0.635287
2846954164 -0.06947233333333333 -0.6322813333333333
2848440043 -0.07471166666666666 -0.6267593333333333
2849925922 -0.07225733333333333 -0.6246996666666668
2851411801 -0.077134 -0.6228333333333333
2852897680 -0.07704166666666666 -0.6301760000000001
2854383559 -0.07431366666666667 -0.6272726666666667
2855869438 -0.072183 -0.635955
2857355317 -0.06853166666666667 -0.6350699999999999
2858841196 -0.07922233333333334 -0.6349683333333335
2860327075 -0.07506933333333334 -0.6342506666666666
2861812954 -0.07232233333333334 -0.6383416666666667
2863298833 -0.07404666666666666 -0.6367803333333334
2864784712 -0.07138166666666666 -0.6357353333333333
2866270591 -0.06894233333333333 -0.6393209999999999
2867756470 -0.07215266666666666 -0.6378619999999999
2869242349 -0.07737000000000001 -0.641649
2870728228 -0.07326433333333333 -0.6342986666666667
2872214107 -0.07446266666666666 -0.6318643333333333
2873699986 -0.072081 -0.6354233333333333
2875185865 -0.071423 -0.6340606666666666
2876671744 -0.07281066666666668 -0.627348
2878157623 -0.076224 -0.6263686666666667
2879643502 -0.07045266666666668 -0.6233719999999999
2881129381 -0.07415100000000001 -0.6224883333333334
2882615260 -0.07482533333333334 -0.6230096666666666
2884101139 -0.07297100000000001 -0.6266923333333333
2885587018 -0.07661333333333332 -0.6310206666666667
2887072897 -0.07673533333333334 -0.6307333333333333
2888558776 -0.08058833333333333 -0.6322443333333334
2890044655 -0.074224 -0.6326966666666667
2891530534 -0.07403666666666665 -0.6347200000000001
2893016413 -0.07774466666666667 -0.6333380000000001
2894502292 -0.07514799999999999 -0.6368053333333333
2895988171 -0.07203366666666666 -0.6366903333333334
2897474050 -0.072065 -0.636235
2898959929 -0.07150666666666666 -0.636892
2900445808 -0.07368933333333333 -0.6368246666666667
2901931687 -0.07125333333333334 -0.6351163333333333
2903417566 -0.072923 -0.6336346666666667
2904903445 -0.07458366666666666 -0.6306806666666667
2906389324 -0.07464533333333333 -0.630185
2907875203 -0.07586466666666666 -0.6276473333333333
2909361082 -0.06939066666666667 -0.627207
2910846961 -0.076036 -0.6253926666666666
2912332840 -0.07178266666666666 -0.6307536666666667
2913818719 -0.07709033333333333 -0.629563
2915304598 -0.07762833333333334 -0.6333276666666666
2916790477 -0.08011333333333333 -0.6328376666666666
2918276356 -0.073744 -0.6343516666666668
2919762235 -0.082677 -0.6324006666666666
2921248114 -0.07477333333333334 -0.6344206666666666
2922733993 -0.08016 -0.6282323333333334
2924219872 -0.08311133333333333 -0.6350123333333334
2925705751 -0.08783999999999999 -0.6342433333333334
2927191630 -0.07796533333333334 -0.6345446666666666
2928677509 -0.08789733333333333 -0.6307963333333334
2930163388 -0.07937033333333333 -0.6331873333333333
2931649267 -0.086853 -0.6302763333333333
2933135146 -0.08440333333333333 -0.6291526666666667
2934621025 -0.08831133333333334 -0.625757
2936106904 -0.08475133333333333 -0.6244876666666667
2937592783 -0.09111866666666668 -0.621148
2939078662 -0.08594600000000001 -0.6210936666666667
2940564541 -0.08994233333333335 -0.616949
2942050420 -0.08801633333333332 -0.6227466666666667
2943536299 -0.09186633333333333 -0.6221486666666666
2945022178 -0.08823133333333333 -0.6255896666666666
2946508057 -0.09361766666666665 -0.6263806666666666
2947993936 -0.09019466666666666 -0.6301903333333333
2949479815 -0.09289766666666666 -0.6321406666666666
2950965694 -0.088765 -0.6307809999999999
2952451573 -0.09644000000000001 -0.6364993333333333
2953937452 -0.093519 -0.629391
2955423331 -0.09005266666666667 -0.6298033333333334
2956909210 -0.09155833333333334 -0.6332366666666666
2958395089 -0.08904833333333333 -0.6303756666666667
2959880968 -0.09020666666666666 -0.6274023333333333
2961366847 -0.08835533333333334 -0.6268306666666666
2962852726 -0.088086 -0.6271696666666666
2964338605 -0.088516 -0.6219043333333333
2965824484 -0.08902033333333333 -0.6216376666666666
2967310363 -0.09042399999999999 -0.6235806666666667
2968796242 -0.08732966666666668 -0.6171493333333333
2970282121 -0.08368400000000002 -0.617425
2971768000 -0.08552166666666666 -0.6174719999999999
2973253879 -0.090999 -0.618008
2974739758 -0.08909133333333334 -0.6194953333333334
2976225637 -0.08590466666666667 -0.6213866666666666
2977711516 -0.08622566666666666 -0.6248866666666667
2979197395 -0.08814233333333332 -0.621956
2980683274 -0.08390366666666665 -0.6298256666666666
2982169153 -0.08912166666666665 -0.622548
2983655032 -0.08724966666666667 -0.6231926666666667
2985140911 -0.08853099999999998 -0.6203556666666667
2986626790 -0.08557566666666667 -0.6214453333333334
2988112669 -0.08402466666666668 -0.6207026666666667
2989598548 -0.08482400000000001 -0.6218606666666667
2991084427 -0.081073 -0.6178773333333333
2992570306 -0.07978666666666667 -0.6203759999999999
2994056185 -0.08085733333333334 -0.6160426666666666
2995542064 -0.07864166666666667 -0.6130386666666666
2997027943 -0.08077766666666668 -0.6085393333333333
2998513822 -0.07784933333333334 -0.6065116666666667
2999999701 -0.07872333333333333 -0.6015916666666666
