# HZ S RI R 50
10000 1.139636 -0.15992833333333334
1495879 0.501134 1.272773
2981758 0.5774356666666667 0.6896593333333333
4467637 0.5811776666666667 0.326926
5953516 0.6509783333333333 0.13758033333333333
7439395 0.7434336666666667 0.01219
8925274 1.0576423333333331 -0.061595000000000004
10411153 1.0969206666666667 0.037393333333333334
11897032 1.0848876666666667 0.16856966666666665
13382911 1.0175476666666665 0.291672
14868790 0.9149083333333333 0.37933600000000006
16354669 0.80258 0.42583566666666667
17840548 0.6981483333333333 0.4403806666666667
19326427 0.6090026666666667 0.4338033333333333
20812306 0.5362033333333333 0.41539
22298185 0.477217 0.3909873333333333
23784064 0.42944066666666664 0.3654193333333333
25269943 0.39058666666666664 0.33942500000000003
26755822 0.35916299999999995 0.31409933333333334
28241701 0.33316999999999997 0.29096733333333336
29727580 0.3213426666666667 0.2833076666666667
31213459 0.321664 0.2537256666666666
32699338 0.33831533333333336 0.23915366666666668
34185217 0.353758 0.22555866666666666
35671096 0.36895300000000003 0.209464
37156975 0.384044 0.19091500000000003
38642854 0.398301 0.17406233333333335
40128733 0.41220566666666664 0.15115233333333333
41614612 0.42486466666666667 0.13903366666666664
43100491 0.43833666666666665 0.11708533333333333
44586370 0.451687 0.09878766666666666
46072249 0.46542766666666663 0.07541133333333334
47558128 0.47972366666666666 0.058279666666666674
49044007 0.4960233333333333 0.041203
50529886 0.5150793333333333 0.02697966666666667
52015765 0.5368249999999999 -0.002880666666666667
53501644 0.5650986666666666 -0.021367333333333332
54987523 0.603217 -0.04688833333333334
56473402 0.656062 -0.08513033333333332
57959281 0.7437079999999999 -0.10182799999999999
59445160 0.902237 -0.08204633333333333
60931039 0.997346 -0.05219733333333334
62416918 1.001059 -0.06223566666666666
63902797 1.0040416666666667 -0.071427
65388676 1.0060523333333333 -0.08115733333333335
66874555 1.0094519999999998 -0.07703066666666666
68360434 1.0022413333333333 -0.16130433333333336
69846313 1.0139996666666666 -0.055174
71332192 1.0152029999999999 -0.049594000000000006
72818071 1.0138743333333333 -0.09465699999999999
74303950 1.0146629999999999 -0.08576600000000001
75789829 1.0173146666666668 -0.018374333333333333
77275708 1.0171463333333335 -0.027301333333333334
78761587 1.016631 -0.021673666666666664
80247466 1.0074223333333334 -0.138973
81733345 1.0107386666666667 -0.090768
83219224 1.0073846666666666 -0.10171033333333335
84705103 1.0024049999999998 -0.12799766666666665
86190982 1.0055506666666665 -0.002886
87676861 0.995729 -0.119578
89162740 0.9945149999999999 -0.094771
90648619 0.9925149999999999 -0.11340666666666666
92134498 0.9955616666666667 -0.110775
93620377 1.0015386666666666 -0.07990633333333334
95106256 1.0019116666666665 -0.10714666666666667
96592135 1.0049673333333333 -0.106392
98078014 1.0065396666666666 -0.10235766666666668
99563893 1.0080786666666666 -0.09946166666666667
101049772 1.009631 -0.112469
102535651 1.00891 -0.11345333333333334
104021530 1.0101473333333335 -0.11584633333333333
105507409 1.0096506666666667 -0.11617266666666666
106993288 1.0087936666666668 -0.11795366666666666
108479167 1.008703 -0.11816899999999998
109965046 1.0068206666666668 -0.11988900000000001
111450925 1.0046540000000002 -0.11895733333333332
112936804 1.0026783333333336 -0.12072699999999999
114422683 0.999615 -0.12234633333333333
115908562 0.9965876666666666 -0.12306366666666667
117394441 0.9933550000000001 -0.12385166666666665
118880320 0.989669 -0.12282233333333333
120366199 0.987464 -0.12539233333333333
121852078 0.9916573333333334 -0.12718866666666664
123337957 0.995606 -0.12999833333333335
124823836 0.9993113333333333 -0.131425
126309715 1.0020776666666666 -0.13401133333333334
127795594 1.0052046666666667 -0.135454
129281473 1.0072276666666664 -0.13673100000000002
130767352 1.0093193333333332 -0.13874799999999998
132253231 1.0118033333333332 -0.13989933333333335
133739110 1.0121120000000001 -0.14081666666666667
135224989 0.996902 -0.15215066666666668
136710868 0.9976886666666668 -0.15273533333333333
138196747 0.99653 -0.15325533333333333
139682626 0.9964416666666667 -0.154338
141168505 0.9954850000000001 -0.15425033333333335
142654384 0.9939443333333333 -0.15497066666666667
144140263 0.9917026666666667 -0.15603999999999998
145626142 0.9895933333333334 -0.15660666666666667
147112021 0.9871123333333335 -0.157057
148597900 0.9834513333333333 -0.15694233333333332
150083779 0.9807373333333333 -0.15712133333333334
151569658 0.985019 -0.15953333333333333
153055537 0.9870116666666666 -0.16302066666666667
154541416 0.9899306666666666 -0.16406966666666667
156027295 0.9922043333333334 -0.16643
157513174 0.9942493333333333 -0.16778533333333334
158999053 0.9953336666666667 -0.169883
160484932 0.9963859999999999 -0.17098933333333333
161970811 0.9974903333333334 -0.171861
163456690 0.9971236666666666 -0.17348699999999997
164942569 0.9976886666666666 -0.17472200000000002
166428448 0.9975296666666665 -0.175905
167914327 0.9959166666666667 -0.17648733333333333
169400206 0.995702 -0.17795433333333333
170886085 0.9930733333333333 -0.1786156666666667
172371964 1.0462843333333334 -0.20087999999999998
173857843 0.9882506666666666 -0.18096933333333334
175343722 0.9858786666666667 -0.18236633333333332
176829601 0.9836843333333333 -0.17705
178315480 0.9807353333333332 -0.17873033333333332
179801359 0.975915 -0.18046433333333334
181287238 0.9787226666666666 -0.18245766666666666
182773117 0.9825606666666666 -0.18375233333333332
184258996 0.985146 -0.18602966666666668
185744875 0.987072 -0.18749866666666667
187230754 0.9897680000000001 -0.18954800000000002
188716633 0.9913046666666666 -0.19114066666666665
190202512 0.9924236666666667 -0.19272199999999998
191688391 0.9924956666666667 -0.19467233333333334
193174270 0.9940323333333333 -0.19579666666666665
194660149 0.992679 -0.19712100000000002
196146028 0.9931743333333333 -0.1975636666666667
197631907 0.9918080000000001 -0.19947
199117786 0.988968 -0.20660599999999998
200603665 0.9869300000000001 -0.20790366666666668
202089544 0.9845793333333334 -0.208937
203575423 0.9827576666666666 -0.210426
205061302 0.9789946666666666 -0.21258266666666667
206547181 0.9756459999999999 -0.21331733333333333
208033060 0.972274 -0.21503933333333336
209518939 0.9671023333333334 -0.21688799999999997
211004818 0.9692080000000001 -0.2184803333333333
212490697 0.9719393333333333 -0.22124733333333335
213976576 0.9742986666666668 -0.22256299999999998
215462455 0.9778859999999999 -0.224415
216948334 0.9792936666666666 -0.22645766666666667
218434213 0.9827036666666666 -0.228004
219920092 0.9826790000000001 -0.2295576666666667
221405971 0.9846776666666667 -0.23110366666666668
222891850 0.985224 -0.232536
224377729 0.9840533333333333 -0.23331200000000005
225863608 1.0346943333333334 -0.22318966666666665
227349487 0.9832343333333333 -0.235128
228835366 0.9823740000000001 -0.236909
230321245 0.9793633333333333 -0.23794799999999997
231807124 0.9769543333333334 -0.23950966666666665
233293003 0.9746973333333333 -0.24065233333333333
234778882 0.9709763333333333 -0.242372
236264761 0.9675966666666667 -0.24301499999999998
237750640 0.9624623333333333 -0.24498733333333333
239236519 0.9583373333333333 -0.24682966666666664
240722398 0.9573096666666666 -0.24866599999999997
242208277 0.9616899999999999 -0.2505383333333333
243694156 0.9648706666666667 -0.253315
245180035 0.9679076666666666 -0.255659
246665914 0.969812 -0.2577233333333333
248151793 0.9724029999999999 -0.259049
249637672 0.9736076666666666 -0.26073566666666664
251123551 0.9751446666666667 -0.26230466666666663
252609430 0.975437 -0.26310533333333336
254095309 0.9758333333333334 -0.26488933333333337
255581188 0.9754396666666668 -0.26589966666666665
257067067 0.9741013333333334 -0.26695166666666664
258552946 0.9719433333333333 -0.26764600000000005
260038825 0.9706683333333334 -0.2691283333333333
261524704 0.9676593333333333 -0.2699853333333333
263010583 0.9644576666666667 -0.270611
264496462 0.9606886666666666 -0.2721276666666667
265982341 0.9571193333333333 -0.2731693333333334
267468220 0.9526903333333333 -0.27399466666666666
268954099 0.9472866666666667 -0.2756336666666667
270439978 0.9444856666666667 -0.276876
271925857 0.949264 -0.2793543333333333
273411736 0.9528166666666668 -0.2830803333333333
274897615 0.9555366666666667 -0.2844913333333334
276383494 0.9580566666666667 -0.2875433333333333
277869373 0.9600286666666666 -0.2902236666666667
279355252 0.9626843333333334 -0.2907996666666666
280841131 0.9630323333333334 -0.29255366666666666
282327010 0.9649390000000001 -0.294932
283812889 0.9645333333333334 -0.2959543333333334
285298768 0.9641306666666667 -0.295838
286784647 0.9630373333333333 -0.29812900000000003
288270526 0.9614090000000001 -0.29925799999999997
289756405 0.9594203333333334 -0.29963900000000004
291242284 0.957084 -0.2998173333333333
292728163 0.9546733333333334 -0.300467
294214042 0.951422 -0.30184266666666665
295699921 0.9461783333333332 -0.30407566666666663
297185800 0.9429249999999999 -0.30291466666666667
298671679 0.9375023333333333 -0.30432933333333334
300157558 0.932766 -0.30557233333333333
301643437 0.9370053333333334 -0.3092263333333333
303129316 0.940187 -0.31189
304615195 0.9439496666666667 -0.31531166666666666
306101074 0.9453186666666666 -0.317637
307586953 0.9480343333333333 -0.31945833333333334
309072832 0.9498043333333334 -0.3217586666666667
310558711 0.9511076666666667 -0.323198
312044590 0.951942 -0.32468800000000003
313530469 0.9524846666666668 -0.32573266666666667
315016348 0.9521953333333334 -0.327125
316502227 0.9515533333333334 -0.3275506666666666
317988106 0.9499006666666666 -0.32918233333333335
319473985 0.9485953333333333 -0.32890633333333336
320959864 0.9454563333333333 -0.3304013333333333
322445743 0.9413163333333333 -0.33551933333333334
323931622 0.9396066666666667 -0.33029533333333333
325417501 0.9354646666666667 -0.329627
326903380 0.9321083333333333 -0.33131533333333335
328389259 0.925755 -0.330441
329875138 0.9202903333333333 -0.33127233333333334
331361017 0.9230916666666666 -0.3349853333333333
332846896 0.9263353333333333 -0.33822833333333335
334332775 0.9290646666666666 -0.342092
335818654 0.931644 -0.34389200000000003
337304533 0.933625 -0.34601233333333337
338790412 0.934206 -0.34915433333333334
340276291 0.9336473333333334 -0.35148433333333334
341762170 0.9358476666666666 -0.35217433333333337
343248049 0.9353016666666667 -0.3543083333333333
344733928 0.934984 -0.354913
346219807 0.9348443333333334 -0.35690700000000003
347705686 0.9317373333333334 -0.3561986666666666
349191565 0.9305063333333333 -0.35764866666666667
350677444 0.928243 -0.35842900000000005
352163323 0.925116 -0.35855166666666666
353649202 0.9216829999999999 -0.35822200000000004
355135081 0.9177886666666667 -0.358917
356620960 0.9120506666666667 -0.35942999999999997
358106839 0.90741 -0.3597653333333333
359592718 0.902558 -0.35988233333333336
361078597 0.9031633333333334 -0.36199033333333336
362564476 0.9063346666666666 -0.36581633333333335
364050355 0.908475 -0.368868
365536234 0.9107086666666667 -0.37201633333333334
367022113 0.9127246666666666 -0.3748126666666667
368507992 0.9144046666666666 -0.37670866666666664
369993871 0.9161163333333332 -0.3790266666666667
371479750 0.916372 -0.38085166666666664
372965629 0.9171630000000001 -0.38174833333333336
374451508 0.9172096666666668 -0.383953
375937387 0.9163106666666666 -0.38478266666666666
377423266 0.9157936666666666 -0.3839613333333333
378909145 0.9138543333333334 -0.38503133333333334
380395024 0.9103746666666667 -0.38556166666666664
381880903 0.9088579999999999 -0.38640333333333327
383366782 0.9059473333333333 -0.3856406666666667
384852661 0.9019300000000001 -0.38521066666666665
386338540 0.8988653333333333 -0.3851816666666667
387824419 0.8948023333333334 -0.3843506666666667
389310298 0.8896183333333333 -0.3838183333333333
390796177 0.8885540000000001 -0.3861236666666667
392282056 0.8907210000000001 -0.38979566666666665
393767935 0.8936696666666667 -0.3934393333333334
395253814 0.8953813333333334 -0.39680166666666666
396739693 0.8977449999999999 -0.3983576666666666
398225572 0.8981723333333335 -0.401908
399711451 0.8998856666666667 -0.40226333333333336
401197330 0.8999633333333333 -0.40473733333333334
402683209 0.8999676666666666 -0.406267
404169088 0.9004543333333334 -0.4067589999999999
405654967 0.898892 -0.4090863333333334
407140846 0.8982610000000001 -0.40809633333333334
408626725 0.8971163333333334 -0.4094533333333334
410112604 0.8951516666666667 -0.409918
411598483 0.8933383333333333 -0.409227
413084362 0.8907363333333334 -0.40964633333333333
414570241 0.8868320000000001 -0.4097
416056120 0.883701 -0.40883033333333335
417541999 0.879814 -0.4089923333333334
419027878 0.8754303333333334 -0.40776866666666667
420513757 0.872753 -0.408838
421999636 0.8746666666666667 -0.4124206666666666
423485515 0.8764453333333334 -0.41637933333333327
424971394 0.878783 -0.419351
426457273 0.8799089999999999 -0.422182
427943152 0.8813466666666668 -0.42337433333333335
429429031 0.8819803333333334 -0.42593166666666665
430914910 0.8831373333333334 -0.4268623333333333
432400789 0.8823599999999999 -0.4296493333333333
433886668 0.8827076666666667 -0.43052599999999996
435372547 0.8820736666666665 -0.43068899999999993
436858426 0.8808513333333333 -0.43280266666666667
438344305 0.8795456666666667 -0.4330686666666666
439830184 0.8779263333333334 -0.43305866666666665
441316063 0.875286 -0.43367433333333333
442801942 0.8732920000000001 -0.43439200000000006
444287821 0.8691733333333334 -0.43349566666666667
445773700 0.865803 -0.43410533333333334
447259579 0.8609640000000001 -0.433059
448745458 0.8569466666666666 -0.4325216666666667
450231337 0.8540373333333333 -0.432569
451717216 0.8564363333333334 -0.43641633333333335
453203095 0.8595463333333333 -0.43987899999999996
454688974 0.8603160000000001 -0.44166066666666665
456174853 0.8619849999999999 -0.44485633333333335
457660732 0.8633913333333334 -0.44664300000000007
459146611 0.8646043333333333 -0.44866266666666665
460632490 0.8653163333333334 -0.45044833333333334
462118369 0.865071 -0.45174766666666666
463604248 0.8645856666666667 -0.4511866666666667
465090127 0.8644059999999999 -0.4539326666666666
466576006 0.8631713333333334 -0.45452933333333334
468061885 0.8622253333333334 -0.45426133333333335
469547764 0.8603583333333334 -0.453797
471033643 0.858339 -0.45416133333333336
472519522 0.8548823333333333 -0.45566966666666664
474005401 0.8520820000000001 -0.45359166666666667
475491280 0.848585 -0.45344233333333334
476977159 0.844947 -0.45311166666666663
478463038 0.8410426666666666 -0.45275266666666664
479948917 0.8366009999999999 -0.45294833333333334
481434796 0.838457 -0.45468766666666666
482920675 0.8406833333333333 -0.45796966666666666
484406554 0.8428946666666667 -0.4620586666666666
485892433 0.8440836666666667 -0.4645059999999999
487378312 0.845268 -0.466938
488864191 0.8474053333333332 -0.46726333333333336
490350070 0.8476536666666666 -0.47021466666666667
491835949 0.847792 -0.471511
493321828 0.8475353333333334 -0.4735403333333334
494807707 0.8442409999999999 -0.47817099999999996
496293586 0.8472483333333334 -0.4728003333333333
497779465 0.8455473333333333 -0.47439499999999996
499265344 0.8435039999999999 -0.47486766666666663
500751223 0.842415 -0.474016
502237102 0.8395293333333335 -0.47453033333333333
503722981 0.8370396666666666 -0.47395866666666664
505208860 0.8332470000000001 -0.47378533333333334
506694739 0.829705 -0.473231
508180618 0.8251236666666667 -0.47248
509666497 0.8211683333333332 -0.47123066666666674
511152376 0.8213196666666667 -0.47514233333333333
512638255 0.8237693333333332 -0.47868
514124134 0.8255339999999999 -0.48106566666666667
515610013 0.828073 -0.4840843333333333
517095892 0.8290130000000001 -0.485612
518581771 0.8307583333333334 -0.48790833333333333
520067650 0.832109 -0.488486
521553529 0.8317200000000001 -0.4909516666666667
523039408 0.8308113333333335 -0.49200533333333335
524525287 0.8312133333333334 -0.492913
526011166 0.8304023333333334 -0.4930386666666667
527497045 0.8299373333333334 -0.4922866666666667
528982924 0.8301023333333334 -0.49011200000000005
530468803 0.8238486666666667 -0.494273
531954682 0.8223973333333333 -0.4940676666666666
533440561 0.7772363333333333 -0.4890396666666667
534926440 0.8158996666666667 -0.493373
536412319 0.8128453333333333 -0.49284766666666663
537898198 0.8069823333333334 -0.49204966666666666
539384077 0.804246 -0.4919466666666667
540869956 0.8025363333333333 -0.4931726666666667
542355835 0.8058073333333334 -0.4948413333333333
543841714 0.807945 -0.49775433333333335
545327593 0.8092436666666667 -0.4991723333333334
546813472 0.810152 -0.5010163333333334
548299351 0.8118966666666667 -0.500999
549785230 0.813057 -0.5024086666666667
551271109 0.8125816666666666 -0.5035336666666667
552756988 0.8128463333333333 -0.5021749999999999
554242867 0.8120826666666666 -0.5022983333333333
555728746 0.8115863333333334 -0.5028
557214625 0.809113 -0.5027266666666667
558700504 0.8084539999999999 -0.501248
560186383 0.8050603333333335 -0.5012436666666666
561672262 0.802293 -0.49892966666666666
563158141 0.7988653333333334 -0.49823866666666666
564644020 0.7949423333333333 -0.49702833333333335
566129899 0.7919446666666667 -0.49460166666666666
567615778 0.786563 -0.49330999999999997
569101657 0.7802446666666666 -0.49349966666666667
570587536 0.779217 -0.49309766666666666
572073415 0.7807336666666668 -0.49786033333333335
573559294 0.781625 -0.5022603333333334
575045173 0.784653 -0.5045069999999999
576531052 0.7841876666666666 -0.509545
578016931 0.786528 -0.5121463333333334
579502810 0.78622 -0.5149216666666666
580988689 0.7860413333333334 -0.5178873333333334
582474568 0.7861676666666666 -0.5205603333333334
583960447 0.7850610000000001 -0.52265
585446326 0.7855743333333334 -0.52304
586932205 0.7836146666666667 -0.5259109999999999
588418084 0.7815863333333333 -0.5268973333333333
589903963 0.779935 -0.528006
591389842 0.7778826666666667 -0.5287243333333332
592875721 0.7751380000000001 -0.5282593333333333
594361600 0.7719356666666668 -0.5299550000000001
595847479 0.7682859999999999 -0.5293266666666666
597333358 0.7648366666666667 -0.5297983333333334
598819237 0.7608423333333333 -0.5288466666666667
600305116 0.7561016666666668 -0.5314403333333333
601790995 0.7595676666666668 -0.5343583333333334
603276874 0.761702 -0.5371346666666666
604762753 0.7627950000000001 -0.5408096666666666
606248632 0.764652 -0.5435336666666667
607734511 0.7653986666666667 -0.548237
609220390 0.7673936666666666 -0.5489926666666667
610706269 0.7666886666666667 -0.5514553333333333
612192148 0.7670103333333333 -0.5518746666666666
613678027 0.768392 -0.552523
615163906 0.7679283333333333 -0.5524776666666665
616649785 0.767156 -0.5529496666666667
618135664 0.7651773333333334 -0.5555503333333334
619621543 0.7647763333333333 -0.5540656666666667
621107422 0.7618596666666666 -0.5530526666666667
622593301 0.759883 -0.5533943333333333
624079180 0.7556733333333333 -0.5528346666666667
625565059 0.7543063333333334 -0.5501333333333333
627050938 0.7917316666666666 -0.5774043333333333
628536817 0.7456396666666666 -0.5483823333333334
630022696 0.7421876666666666 -0.54632
631508575 0.7432816666666667 -0.5491586666666667
632994454 0.7447656666666668 -0.5540036666666667
634480333 0.746657 -0.556908
635966212 0.7489330000000001 -0.5602006666666667
637452091 0.7492413333333333 -0.5627906666666667
638937970 0.7506323333333333 -0.563845
640423849 0.7502979999999999 -0.5668456666666667
641909728 0.750962 -0.5680393333333333
643395607 0.7517299999999999 -0.5685159999999999
644881486 0.7500463333333333 -0.568663
646367365 0.7489283333333333 -0.5698163333333334
647853244 0.7492623333333333 -0.5695600000000001
649339123 0.7476269999999999 -0.5698713333333333
650825002 0.7458473333333333 -0.5676613333333332
652310881 0.7426496666666668 -0.566811
653796760 0.7397463333333333 -0.5673180000000001
655282639 0.737351 -0.56603
656768518 0.7344406666666666 -0.562105
658254397 0.7299509999999999 -0.5613913333333334
659740276 0.7254223333333334 -0.561049
661226155 0.7264753333333335 -0.5634659999999999
662712034 0.7275896666666667 -0.566617
664197913 0.7305613333333333 -0.5681183333333334
665683792 0.73116 -0.572805
667169671 0.733 -0.5742816666666667
668655550 0.7336283333333334 -0.576223
670141429 0.7254733333333334 -0.5850766666666667
671627308 0.7341773333333333 -0.5784043333333333
673113187 0.7352616666666666 -0.5785206666666667
674599066 0.7341833333333333 -0.5804063333333334
676084945 0.734315 -0.5781483333333334
677570824 0.733078 -0.5789146666666666
679056703 0.7327386666666666 -0.5781426666666666
680542582 0.7297583333333333 -0.5772476666666666
682028461 0.7270726666666668 -0.5769216666666667
683514340 0.7269933333333333 -0.572456
685000219 0.7229346666666666 -0.5732393333333333
686486098 0.7199013333333334 -0.5723643333333334
687971977 0.7167763333333333 -0.5695479999999999
689457856 0.7133353333333333 -0.5676013333333333
690943735 0.7119070000000001 -0.5685276666666667
692429614 0.7125443333333333 -0.5721599999999999
693915493 0.7124670000000001 -0.5771610000000001
695401372 0.7135713333333333 -0.578546
696887251 0.714922 -0.581207
698373130 0.7145683333333332 -0.5826683333333333
699859009 0.713116 -0.5873353333333333
701344888 0.7126523333333333 -0.5875
702830767 0.7123780000000001 -0.5897943333333333
704316646 0.7109030000000001 -0.590786
705802525 0.7099583333333334 -0.5912106666666667
707288404 0.709245 -0.5900103333333333
708774283 0.7059943333333333 -0.5913063333333334
710260162 0.7048423333333332 -0.593756
711746041 0.7020646666666667 -0.5938146666666667
713231920 0.698675 -0.593308
714717799 0.6959876666666668 -0.5922853333333333
716203678 0.6932159999999999 -0.5895210000000001
717689557 0.6900253333333333 -0.588404
719175436 0.6844973333333333 -0.5897883333333332
720661315 0.6835246666666667 -0.5894993333333334
722147194 0.6843020000000001 -0.5922183333333334
723633073 0.685378 -0.5949996666666667
725118952 0.6872293333333332 -0.5992306666666667
726604831 0.6875183333333333 -0.6008546666666666
728090710 0.686783 -0.603465
729576589 0.6883806666666668 -0.6058719999999999
731062468 0.6894563333333332 -0.606785
732548347 0.6879206666666667 -0.6080653333333333
734034226 0.6869656666666666 -0.6089256666666666
735520105 0.6883140000000001 -0.6086779999999999
737005984 0.686243 -0.608992
738491863 0.6849136666666666 -0.6086723333333334
739977742 0.6838903333333333 -0.609
741463621 0.6816530000000002 -0.6091570000000001
742949500 0.6793806666666665 -0.607547
744435379 0.6778763333333333 -0.60624
745921258 0.6736086666666666 -0.604153
747407137 0.6719393333333333 -0.6034466666666667
748893016 0.667261 -0.6030466666666666
750378895 0.6648283333333334 -0.602723
751864774 0.6662873333333333 -0.6050810000000001
753350653 0.6669519999999999 -0.6077400000000001
754836532 0.6676913333333333 -0.6102193333333333
756322411 0.6675663333333333 -0.614664
757808290 0.668135 -0.6160886666666667
759294169 0.669207 -0.6168646666666667
760780048 0.6690803333333334 -0.619646
762265927 0.6682553333333333 -0.6201413333333333
763751806 0.6663966666666666 -0.6217826666666667
765237685 0.6661443333333333 -0.6213756666666667
766723564 0.665666 -0.620605
768209443 0.662805 -0.6213866666666666
769695322 0.702785 -0.6334243333333334
771181201 0.6586536666666666 -0.621638
772667080 0.65761 -0.6184433333333333
774152959 0.6550229999999999 -0.618283
775638838 0.6516836666666667 -0.6175706666666666
777124717 0.6469906666666667 -0.6165553333333333
778610596 0.6434826666666668 -0.6138993333333334
780096475 0.6402123333333333 -0.6130353333333333
781582354 0.6414963333333333 -0.616478
783068233 0.6469323333333333 -0.616428
784554112 0.6444333333333333 -0.6231456666666667
786039991 0.6456376666666667 -0.6254126666666667
787525870 0.6462693333333333 -0.6276293333333333
789011749 0.6487993333333334 -0.6285956666666667
790497628 0.6498893333333333 -0.629142
791983507 0.647424 -0.6319366666666667
793469386 0.648155 -0.631316
794955265 0.6532386666666667 -0.6286423333333332
796441144 0.6470683333333334 -0.6328633333333333
797927023 0.651039 -0.6289296666666666
799412902 0.6449969999999999 -0.6315823333333334
800898781 0.6479023333333332 -0.6274596666666666
802384660 0.641413 -0.628833
803870539 0.6444593333333334 -0.623614
805356418 0.6366476666666667 -0.6254246666666666
806842297 0.6382150000000001 -0.6212113333333333
808328176 0.629586 -0.6225956666666667
809814055 0.6299303333333334 -0.6177619999999999
811299934 0.6261126666666667 -0.6231300000000001
812785813 0.630471 -0.6247410000000001
814271692 0.62884 -0.6295016666666667
815757571 0.6329536666666665 -0.630564
817243450 0.6291783333333333 -0.636338
818729329 0.634038 -0.635104
820215208 0.6311589999999999 -0.6392146666666667
821701087 0.633645 -0.637655
823186966 0.6310616666666667 -0.6414616666666667
824672845 0.6325 -0.6400190000000001
826158724 0.6273166666666667 -0.6445536666666666
827644603 0.6250736666666666 -0.6446523333333334
829130482 0.6254163333333334 -0.6430103333333334
830616361 0.6218816666666666 -0.6441376666666666
832102240 0.6199773333333334 -0.6426313333333333
833588119 0.6170273333333333 -0.642295
835073998 0.6153526666666668 -0.6390890000000001
836559877 0.6090376666666667 -0.6401956666666667
838045756 0.6071386666666666 -0.6369696666666665
839531635 0.6024313333333333 -0.6358113333333333
841017514 0.6028186666666666 -0.6372196666666666
842503393 0.6032253333333334 -0.641891
843989272 0.6063196666666667 -0.644546
845475151 0.6068623333333334 -0.6474853333333334
846961030 0.6081036666666667 -0.6491763333333332
848446909 0.6083503333333333 -0.6518783333333333
849932788 0.608592 -0.6534443333333333
851418667 0.6092256666666667 -0.6544466666666667
852904546 0.6078683333333332 -0.6566166666666666
854390425 0.6066216666666666 -0.6568843333333333
855876304 0.606888 -0.656956
857362183 0.6063756666666666 -0.655756
858848062 0.6044999999999999 -0.6547086666666667
860333941 0.6029163333333333 -0.654331
861819820 0.5997370000000001 -0.654242
863305699 0.5998163333333334 -0.6527593333333334
864791578 0.5948696666666667 -0.6515163333333333
866277457 0.5923236666666666 -0.6500929999999999
867763336 0.5896663333333333 -0.6461903333333333
869249215 0.58723 -0.6444949999999999
870735094 0.584454 -0.6450490000000001
872220973 0.5858909999999999 -0.647984
873706852 0.5848453333333333 -0.653061
875192731 0.587431 -0.6538533333333333
876678610 0.5885876666666667 -0.6563543333333334
878164489 0.5876816666666667 -0.660663
879650368 0.5891393333333333 -0.6618266666666667
881136247 0.5876533333333334 -0.6632076666666666
882622126 0.5905723333333334 -0.6629936666666667
884108005 0.5883956666666667 -0.6653009999999999
885593884 0.5883793333333333 -0.6640096666666667
887079763 0.5863486666666667 -0.664892
888565642 0.5854753333333332 -0.6638999999999999
890051521 0.5842606666666667 -0.662249
891537400 0.5814696666666667 -0.6628059999999999
893023279 0.5815036666666665 -0.6599986666666666
894509158 0.577202 -0.6601113333333334
895995037 0.576139 -0.6564896666666667
897480916 0.5724416666666666 -0.6555836666666667
898966795 0.5689366666666666 -0.6520973333333333
900452674 0.566868 -0.6515616666666666
901938553 0.567326 -0.6543406666666667
903424432 0.5682396666666666 -0.6591056666666667
904910311 0.5690646666666667 -0.6603356666666667
906396190 0.568125 -0.664564
907882069 0.569766 -0.6672393333333333
909367948 0.5687783333333334 -0.6675033333333333
910853827 0.568922 -0.6700173333333334
912339706 0.569848 -0.6694873333333332
913825585 0.5676453333333333 -0.6714433333333334
915311464 0.5680706666666666 -0.6730883333333333
916797343 0.5662619999999999 -0.6719779999999999
918283222 0.5644546666666667 -0.6717019999999999
919769101 0.5558773333333332 -0.6746243333333334
921254980 0.5632090000000001 -0.667799
922740859 0.5596856666666666 -0.6699886666666667
924226738 0.5581393333333334 -0.6667623333333333
925712617 0.5576353333333333 -0.6637963333333333
927198496 0.554805 -0.6620553333333333
928684375 0.5497679999999999 -0.6610153333333334
930170254 0.5473016666666667 -0.6582746666666667
931656133 0.5482303333333333 -0.6621640000000001
933142012 0.5492823333333333 -0.6652226666666666
934627891 0.5511940000000001 -0.6660696666666667
936113770 0.5515576666666666 -0.6697256666666668
937599649 0.5505863333333333 -0.6726363333333333
939085528 0.5524766666666666 -0.6743239999999999
940571407 0.5525826666666668 -0.6754343333333334
942057286 0.5518160000000001 -0.6775923333333335
943543165 0.5512853333333333 -0.6782326666666666
945029044 0.5532753333333335 -0.678471
946514923 0.551232 -0.6776626666666666
948000802 0.551449 -0.6770066666666668
949486681 0.550659 -0.6771590000000001
950972560 0.5490623333333332 -0.6771393333333333
952458439 0.5481433333333333 -0.6742486666666666
953944318 0.548031 -0.6717863333333334
955430197 0.5434933333333334 -0.6719460000000002
956916076 0.5431940000000001 -0.6696316666666666
958401955 0.5406336666666668 -0.6668376666666668
959887834 0.5370016666666667 -0.6631800000000001
961373713 0.538841 -0.6669923333333334
962859592 0.5371269999999999 -0.6703096666666667
964345471 0.5396023333333334 -0.670963
965831350 0.5373290000000001 -0.6754646666666666
967317229 0.5386356666666666 -0.677117
968803108 0.5390510000000001 -0.6795033333333333
970288987 0.5397663333333333 -0.6805
971774866 0.5365416666666667 -0.682157
973260745 0.5374956666666666 -0.6831463333333333
974746624 0.5383866666666667 -0.6820123333333333
976232503 0.5314033333333333 -0.6856533333333333
977718382 0.5347853333333333 -0.6837673333333334
979204261 0.532813 -0.6836526666666667
980690140 0.5315773333333333 -0.6824216666666666
982176019 0.5314123333333334 -0.6803613333333333
983661898 0.5278256666666666 -0.6810286666666667
985147777 0.5271216666666666 -0.6775023333333333
986633656 0.5168863333333333 -0.6825220000000001
988119535 0.5217116666666667 -0.6755083333333333
989605414 0.517708 -0.6739586666666666
991091293 0.5187536666666667 -0.6738856666666667
992577172 0.517931 -0.6766803333333332
994063051 0.5196403333333334 -0.6794666666666668
995548930 0.5186566666666667 -0.6816300000000001
997034809 0.51978 -0.6833139999999999
998520688 0.5182159999999999 -0.6854626666666667
1000006567 0.5198733333333333 -0.687522
1001492446 0.5185786666666666 -0.6878913333333333
1002978325 0.5196166666666667 -0.686848
1004464204 0.518327 -0.6881026666666666
1005950083 0.5178816666666667 -0.6880623333333333
1007435962 0.5182906666666667 -0.6867236666666666
1008921841 0.5148576666666668 -0.687566
1010407720 0.513495 -0.6863356666666666
1011893599 0.5132243333333333 -0.684917
1013379478 0.5104759999999999 -0.6833626666666667
1014865357 0.5089769999999999 -0.6814143333333332
1016351236 0.5073120000000001 -0.6790503333333332
1017837115 0.504039 -0.677918
1019322994 0.5018093333333333 -0.6761863333333333
1020808873 0.501464 -0.6763246666666666
1022294752 0.499115 -0.6798773333333333
1023780631 0.500574 -0.6824246666666666
1025266510 0.5011426666666666 -0.6851603333333335
1026752389 0.5019606666666667 -0.6864526666666667
1028238268 0.502147 -0.6882353333333334
1029724147 0.5028956666666667 -0.68935
1031210026 0.502749 -0.6903066666666667
1032695905 0.4997166666666666 -0.691656
1034181784 0.5024019999999999 -0.6906653333333334
1035667663 0.5005743333333333 -0.6915946666666667
1037153542 0.5001216666666667 -0.6903926666666665
1038639421 0.498315 -0.690966
1040125300 0.49831866666666674 -0.6895843333333334
1041611179 0.4952746666666667 -0.6902750000000001
1043097058 0.49309733333333333 -0.688256
1044582937 0.4902043333333334 -0.6877200000000001
1046068816 0.4871313333333333 -0.68691
1047554695 0.48711299999999996 -0.6827153333333333
1049040574 0.4827633333333334 -0.6814346666666666
1050526453 0.4837276666666666 -0.6808856666666667
1052012332 0.4833703333333333 -0.683837
1053498211 0.4816583333333333 -0.6890573333333333
1054984090 0.4817846666666667 -0.690802
1056469969 0.484545 -0.692924
1057955848 0.48451 -0.6939163333333335
1059441727 0.4834426666666667 -0.6962583333333333
1060927606 0.48508766666666664 -0.6973713333333332
1062413485 0.48476800000000003 -0.6978476666666666
1063899364 0.4850843333333333 -0.6975979999999998
1065385243 0.4843276666666667 -0.6977636666666668
1066871122 0.48293600000000003 -0.6984940000000001
1068357001 0.4811533333333333 -0.6991923333333334
1069842880 0.48162866666666665 -0.6963763333333334
1071328759 0.47652333333333335 -0.6981339999999999
1072814638 0.4747223333333333 -0.695909
1074300517 0.47552833333333333 -0.6937126666666668
1075786396 0.4716673333333334 -0.6938263333333333
1077272275 0.470899 -0.6908636666666667
1078758154 0.4672053333333333 -0.6885926666666666
1080244033 0.46389299999999994 -0.6875256666666667
1081729912 0.4643266666666667 -0.6916776666666666
1083215791 0.46786599999999995 -0.6935623333333334
1084701670 0.465711 -0.6961436666666666
1086187549 0.464632 -0.7006906666666667
1087673428 0.4687083333333333 -0.6995416666666667
1089159307 0.4669003333333333 -0.7018639999999999
1090645186 0.4670383333333333 -0.7031003333333333
1092131065 0.467189 -0.703697
1093616944 0.46762499999999996 -0.7034756666666667
1095102823 0.46921133333333326 -0.702592
1096588702 0.46751400000000004 -0.7024120000000001
1098074581 0.46703500000000003 -0.7008923333333333
1099560460 0.4641633333333333 -0.702801
1101046339 0.46261833333333335 -0.7003866666666667
1102532218 0.46248266666666665 -0.6985223333333334
1104018097 0.45795766666666665 -0.696667
1105503976 0.4560693333333334 -0.6960083333333333
1106989855 0.45316599999999996 -0.6929289999999999
1108475734 0.45015333333333335 -0.690851
1109961613 0.44579799999999997 -0.6883736666666667
1111447492 0.44705466666666666 -0.6926686666666666
1112933371 0.44803466666666664 -0.6954083333333333
1114419250 0.448283 -0.6968203333333333
1115905129 0.4497596666666666 -0.6996433333333333
1117391008 0.4482893333333333 -0.7032956666666667
1118876887 0.450462 -0.7038166666666666
1120362766 0.45092099999999996 -0.7053189999999999
1121848645 0.4521223333333333 -0.7055443333333334
1123334524 0.4491966666666667 -0.7074453333333334
1124820403 0.4480746666666667 -0.7061433333333333
1126306282 0.44770233333333337 -0.70865
1127792161 0.44644866666666666 -0.7084166666666666
1129278040 0.47692300000000004 -0.7256756666666666
1130763919 0.44341366666666665 -0.7073683333333333
1132249798 0.44267366666666663 -0.704488
1133735677 0.439403 -0.7035253333333333
1135221556 0.436156 -0.7011336666666667
1136707435 0.43545266666666665 -0.6993996666666665
1138193314 0.43101233333333333 -0.6986533333333332
1139679193 0.430134 -0.694903
1141165072 0.43225899999999995 -0.6981166666666666
1142650951 0.43040033333333333 -0.700217
1144136830 0.4312836666666667 -0.7020430000000001
1145622709 0.43036199999999997 -0.705435
1147108588 0.4292953333333333 -0.7084826666666667
1148594467 0.43396433333333334 -0.7082943333333332
1150080346 0.429491 -0.7107616666666666
1151566225 0.43158399999999997 -0.7125746666666667
1153052104 0.429587 -0.7120313333333333
1154537983 0.429152 -0.7132999999999999
1156023862 0.4286893333333333 -0.7117906666666668
1157509741 0.42905 -0.7113740000000001
1158995620 0.4272099999999999 -0.7098656666666666
1160481499 0.4251583333333333 -0.7089146666666667
1161967378 0.42432566666666666 -0.7072396666666667
1163453257 0.42198866666666673 -0.705781
1164939136 0.41905566666666666 -0.7034549999999999
1166425015 0.41791533333333336 -0.700133
1167910894 0.41498133333333337 -0.6984533333333333
1169396773 0.41168000000000005 -0.6953
1170882652 0.4098186666666666 -0.6963933333333333
1172368531 0.41030066666666665 -0.7003286666666666
1173854410 0.412452 -0.7015066666666666
1175340289 0.411935 -0.7039563333333333
1176826168 0.410104 -0.7067019999999999
1178312047 0.40952633333333327 -0.709021
1179797926 0.41065466666666667 -0.7098593333333333
1181283805 0.410981 -0.7102210000000001
1182769684 0.4081783333333333 -0.7119536666666667
1184255563 0.4099983333333333 -0.711361
1185741442 0.40746499999999997 -0.711383
1187227321 0.4070803333333333 -0.711224
1188713200 0.4045020000000001 -0.7101609999999999
1190199079 0.40238966666666665 -0.7111373333333334
1191684958 0.4008686666666667 -0.7081166666666667
1193170837 0.4003076666666667 -0.7057583333333334
1194656716 0.3969506666666667 -0.7031930000000001
1196142595 0.39506033333333335 -0.7015833333333333
1197628474 0.39260866666666666 -0.698783
1199114353 0.3871550000000001 -0.696737
1200600232 0.3884066666666666 -0.6956386666666666
1202086111 0.3884313333333333 -0.6992866666666666
1203571990 0.3865133333333333 -0.7038316666666667
1205057869 0.3890083333333334 -0.706373
1206543748 0.3885613333333333 -0.7081569999999999
1208029627 0.38922999999999996 -0.7091383333333333
1209515506 0.3887603333333333 -0.7125336666666665
1211001385 0.38861166666666663 -0.7143436666666666
1212487264 0.3902746666666667 -0.7136433333333333
1213973143 0.387812 -0.7148266666666667
1215459022 0.3877716666666666 -0.7155999999999999
1216944901 0.3885653333333334 -0.7150596666666668
1218430780 0.375988 -0.7182803333333334
1219916659 0.389824 -0.7146163333333333
1221402538 0.386758 -0.711074
1222888417 0.38556966666666664 -0.7095570000000001
1224374296 0.3811823333333333 -0.708505
1225860175 0.38244066666666665 -0.7054166666666667
1227346054 0.37943733333333335 -0.7031523333333333
1228831933 0.38178599999999996 -0.6990270000000001
1230317812 0.3772523333333333 -0.6963196666666667
1231803691 0.37484266666666666 -0.7017643333333333
1233289570 0.37553299999999995 -0.7041546666666667
1234775449 0.3759326666666667 -0.7063626666666667
1236261328 0.3767453333333333 -0.7079156666666667
1237747207 0.37626000000000004 -0.70999
1239233086 0.3757426666666666 -0.7111256666666668
1240718965 0.37468166666666664 -0.7136196666666667
1242204844 0.3763923333333333 -0.7131626666666667
1243690723 0.3794416666666667 -0.7122166666666666
1245176602 0.37628666666666666 -0.712505
1246662481 0.3773053333333333 -0.7112466666666667
1248148360 0.3763013333333334 -0.7101683333333333
1249634239 0.37540100000000004 -0.710009
1251120118 0.3728956666666667 -0.7088006666666667
1252605997 0.373754 -0.7052013333333335
1254091876 0.3728996666666667 -0.7027429999999999
1255577755 0.371728 -0.700185
1257063634 0.3675113333333333 -0.6982666666666666
1258549513 0.36374233333333333 -0.6974589999999999
1260035392 0.36310266666666663 -0.6926213333333333
1261521271 0.3652413333333333 -0.694907
1263007150 0.36311133333333334 -0.6982346666666667
1264493029 0.36220100000000005 -0.700605
1265978908 0.3620353333333333 -0.7039390000000001
1267464787 0.36082966666666666 -0.7032663333333332
1268950666 0.36144099999999996 -0.7055236666666668
1270436545 0.3626753333333334 -0.706385
1271922424 0.35664466666666667 -0.710176
1273408303 0.357297 -0.7102543333333333
1274894182 0.358512 -0.709926
1276380061 0.35602633333333333 -0.7108746666666667
1277865940 0.3558873333333333 -0.7100920000000001
1279351819 0.35458199999999995 -0.7099896666666666
1280837698 0.35309433333333334 -0.7087476666666666
1282323577 0.35103333333333336 -0.7080509999999999
1283809456 0.3519126666666667 -0.7062080000000001
1285295335 0.3497236666666667 -0.704536
1286781214 0.34613 -0.7020233333333333
1288267093 0.34451433333333337 -0.699716
1289752972 0.345169 -0.6989533333333334
1291238851 0.3409763333333333 -0.6996413333333334
1292724730 0.3419886666666667 -0.7013886666666668
1294210609 0.34435766666666673 -0.7040003333333335
1295696488 0.3418113333333333 -0.7078009999999999
1297182367 0.3436613333333334 -0.7083746666666667
1298668246 0.3478003333333333 -0.7091409999999999
1300154125 0.34542866666666666 -0.7106553333333334
1301640004 0.346371 -0.7124073333333333
1303125883 0.34558099999999997 -0.7136480000000001
1304611762 0.34661566666666666 -0.7125003333333333
1306097641 0.34489033333333335 -0.7120696666666667
1307583520 0.3453126666666666 -0.7121463333333332
1309069399 0.34502499999999997 -0.7122473333333333
1310555278 0.343556 -0.7098266666666667
1312041157 0.34329366666666666 -0.7090253333333333
1313527036 0.34503599999999995 -0.7065446666666667
1315012915 0.33957166666666666 -0.7055336666666667
1316498794 0.342027 -0.7034416666666666
1317984673 0.3379566666666667 -0.700757
1319470552 0.336838 -0.697515
1320956431 0.3376226666666667 -0.697851
1322442310 0.33992533333333325 -0.7014123333333333
1323928189 0.33805366666666664 -0.7038163333333333
1325414068 0.3376033333333333 -0.708025
1326899947 0.3371953333333333 -0.7080973333333332
1328385826 0.339572 -0.7099816666666667
1329871705 0.3369936666666667 -0.713426
1331357584 0.33787866666666666 -0.713582
1332843463 0.3387363333333333 -0.713197
1334329342 0.336198 -0.7152083333333333
1335815221 0.33706533333333333 -0.7137203333333333
1337301100 0.33727466666666667 -0.714498
1338786979 0.33541033333333337 -0.7138183333333333
1340272858 0.3335316666666667 -0.7136976666666667
1341758737 0.33453399999999994 -0.712989
1343244616 0.33360900000000004 -0.7114600000000001
1344730495 0.33236466666666664 -0.7106453333333334
1346216374 0.329507 -0.7095543333333333
1347702253 0.32755866666666666 -0.7068346666666666
1349188132 0.3253453333333333 -0.7059296666666667
1350674011 0.32602133333333333 -0.7058556666666668
1352159890 0.326217 -0.708271
1353645769 0.32545666666666667 -0.7106260000000001
1355131648 0.32387133333333334 -0.7115159999999999
1356617527 0.32579766666666665 -0.7123016666666667
1358103406 0.323199 -0.7141273333333333
1359589285 0.3244763333333333 -0.7152956666666667
1361075164 0.32192699999999996 -0.7147399999999999
1362561043 0.3216573333333333 -0.7143396666666666
1364046922 0.3187216666666666 -0.7144103333333334
1365532801 0.3179256666666667 -0.715777
1367018680 0.318703 -0.71453
1368504559 0.3126023333333333 -0.714156
1369990438 0.3135403333333333 -0.7104910000000001
1371476317 0.3122836666666667 -0.7106766666666666
1372962196 0.3081176666666667 -0.7100546666666667
1374448075 0.30585666666666667 -0.707983
1375933954 0.29484099999999996 -0.6771496666666668
1377419833 0.301096 -0.704306
1378905712 0.29840266666666665 -0.7021963333333333
1380391591 0.2975096666666667 -0.7007576666666667
1381877470 0.29952433333333334 -0.703377
1383363349 0.29827933333333334 -0.7058946666666667
1384849228 0.30057700000000004 -0.7091913333333334
1386335107 0.3008616666666667 -0.7112533333333334
1387820986 0.300939 -0.712745
1389306865 0.3037053333333333 -0.7129989999999999
1390792744 0.30501566666666663 -0.7146616666666668
1392278623 0.30875366666666665 -0.7133086666666667
1393764502 0.304231 -0.7140239999999999
1395250381 0.30231500000000006 -0.716473
1396736260 0.30203566666666665 -0.7163426666666667
1398222139 0.3054923333333333 -0.7139906666666667
1399708018 0.306132 -0.7135273333333333
1401193897 0.3055643333333333 -0.7117239999999999
1402679776 0.30463233333333334 -0.709409
1404165655 0.30357233333333333 -0.7092276666666667
1405651534 0.30114799999999997 -0.7063723333333334
1407137413 0.30022466666666664 -0.7051733333333333
1408623292 0.2989686666666667 -0.7012653333333333
1410109171 0.297251 -0.6987833333333334
1411595050 0.2998326666666667 -0.7034093333333334
1413080929 0.30023933333333336 -0.7048063333333333
1414566808 0.2996723333333333 -0.7077223333333333
1416052687 0.302031 -0.7115416666666667
1417538566 0.3016993333333334 -0.7140583333333334
1419024445 0.30278999999999995 -0.7152073333333333
1420510324 0.3049663333333333 -0.7168276666666668
1421996203 0.30371533333333334 -0.717993
1423482082 0.30578299999999997 -0.7171476666666666
1424967961 0.30499466666666664 -0.7197236666666668
1426453840 0.307853 -0.7179139999999999
1427939719 0.30656266666666665 -0.7175076666666667
1429425598 0.3304266666666667 -0.7450796666666667
1430911477 0.30413633333333334 -0.7162756666666666
1432397356 0.30348366666666665 -0.7153843333333333
1433883235 0.3041553333333334 -0.7124069999999999
1435369114 0.301402 -0.7114379999999999
1436854993 0.3002613333333333 -0.708183
1438340872 0.29798366666666665 -0.7062433333333334
1439826751 0.297988 -0.7029236666666666
1441312630 0.29740099999999997 -0.7043506666666666
1442798509 0.2978336666666666 -0.7080356666666668
1444284388 0.2964893333333333 -0.7096050000000002
1445770267 0.297491 -0.7129903333333333
1447256146 0.298062 -0.7136753333333333
1448742025 0.2973763333333333 -0.7138706666666667
1450227904 0.298943 -0.7164576666666665
1451713783 0.29879700000000003 -0.7168623333333333
1453199662 0.2981503333333333 -0.7169573333333333
1454685541 0.296321 -0.7170213333333333
1456171420 0.294003 -0.716269
1457657299 0.29600733333333334 -0.7138563333333333
1459143178 0.2923593333333333 -0.7137363333333333
1460629057 0.291809 -0.7115490000000001
1462114936 0.2931876666666667 -0.7090716666666667
1463600815 0.2875113333333334 -0.7080466666666666
1465086694 0.28569700000000003 -0.7068713333333334
1466572573 0.283399 -0.7038793333333334
1468058452 0.2788216666666667 -0.7009693333333334
1469544331 0.27724866666666664 -0.6980633333333334
1471030210 0.27754233333333334 -0.6995563333333333
1472516089 0.27831999999999996 -0.7034253333333332
1474001968 0.2807363333333333 -0.7053483333333334
1475487847 0.281249 -0.7083323333333333
1476973726 0.2793043333333333 -0.7103173333333334
1478459605 0.2787836666666667 -0.7133383333333333
1479945484 0.27931466666666666 -0.7136406666666666
1481431363 0.2796786666666667 -0.7160696666666665
1482917242 0.281247 -0.7150363333333333
1484403121 0.2809483333333333 -0.716536
1485889000 0.27876666666666666 -0.7163453333333334
1487374879 0.2807266666666666 -0.7146266666666667
1488860758 0.27990600000000004 -0.7143883333333333
1490346637 0.2790696666666667 -0.7132796666666666
1491832516 0.278715 -0.7111490000000001
1493318395 0.277321 -0.70935
1494804274 0.27462633333333336 -0.7067526666666666
1496290153 0.2724973333333333 -0.7052883333333334
1497776032 0.272573 -0.7020776666666667
1499261911 0.269742 -0.6998843333333333
1500747790 0.268868 -0.6988213333333334
1502233669 0.2668563333333333 -0.702659
1503719548 0.26727866666666666 -0.706067
1505205427 0.267675 -0.707326
1506691306 0.26799999999999996 -0.7102383333333334
1508177185 0.267373 -0.710986
1509663064 0.26510866666666666 -0.714086
1511148943 0.265919 -0.7130333333333333
1512634822 0.26476799999999995 -0.7152136666666666
1514120701 0.26439866666666667 -0.715055
1515606580 0.26452800000000004 -0.7145406666666666
1517092459 0.26509466666666665 -0.7139000000000001
1518578338 0.26188866666666666 -0.7135796666666666
1520064217 0.24729433333333337 -0.7108453333333333
1521550096 0.2607443333333333 -0.710191
1523035975 0.2597693333333333 -0.7078133333333333
1524521854 0.2580983333333333 -0.705409
1526007733 0.25604066666666664 -0.7030056666666668
1527493612 0.25250900000000004 -0.701164
1528979491 0.2468026666666667 -0.7042473333333333
1530465370 0.24793666666666667 -0.6970000000000001
1531951249 0.24977533333333335 -0.7000043333333332
1533437128 0.24659566666666666 -0.7045993333333334
1534923007 0.24900433333333336 -0.7054339999999999
1536408886 0.24641933333333332 -0.7094593333333333
1537894765 0.24867833333333333 -0.7084796666666667
1539380644 0.248055 -0.7108336666666667
1540866523 0.2467086666666667 -0.7108186666666668
1542352402 0.24683766666666665 -0.7115963333333334
1543838281 0.24688833333333335 -0.712726
1545324160 0.247408 -0.7112060000000001
1546810039 0.2491386666666667 -0.709321
1548295918 0.24752700000000002 -0.7085406666666666
1549781797 0.245247 -0.7074536666666668
1551267676 0.24398033333333333 -0.7053433333333334
1552753555 0.23489833333333335 -0.704476
1554239434 0.24349466666666666 -0.700911
1555725313 0.24318733333333334 -0.6975063333333335
1557211192 0.24215499999999998 -0.6942513333333333
1558697071 0.23919533333333334 -0.6901543333333334
1560182950 0.23751966666666666 -0.689419
1561668829 0.23527333333333333 -0.6934433333333333
1563154708 0.237093 -0.695074
1564640587 0.23633533333333334 -0.6980403333333335
1566126466 0.2359146666666667 -0.7014333333333332
1567612345 0.2362223333333333 -0.703421
1569098224 0.23620566666666665 -0.7042586666666667
1570584103 0.23646699999999998 -0.704684
1572069982 0.23452533333333334 -0.7064613333333334
1573555861 0.23425700000000002 -0.707107
1575041740 0.23673666666666668 -0.7056416666666667
1576527619 0.23422533333333337 -0.7069716666666666
1578013498 0.2327056666666667 -0.7064029999999999
1579499377 0.232564 -0.7065929999999999
1580985256 0.23091799999999998 -0.7049713333333333
1582471135 0.23173533333333332 -0.7027183333333333
1583957014 0.20540899999999998 -0.688489
1585442893 0.22924699999999998 -0.6997856666666666
1586928772 0.228199 -0.6967420000000001
1588414651 0.227428 -0.6938573333333333
1589900530 0.22432 -0.692365
1591386409 0.22507 -0.6939299999999999
1592872288 0.22472999999999999 -0.696613
1594358167 0.22487733333333335 -0.698982
1595844046 0.2239806666666667 -0.70031
1597329925 0.224318 -0.702208
1598815804 0.22464633333333336 -0.7043050000000001
1600301683 0.22195066666666666 -0.7062303333333334
1601787562 0.22360833333333333 -0.7063956666666668
1603273441 0.22387633333333334 -0.7061686666666667
1604759320 0.22097633333333333 -0.7083116666666668
1606245199 0.22365566666666667 -0.7064433333333334
1607731078 0.22327233333333332 -0.7052946666666666
1609216957 0.22325633333333336 -0.7054616666666668
1610702836 0.2244246666666667 -0.702619
1612188715 0.22177500000000003 -0.7021246666666667
1613674594 0.22065633333333334 -0.7006233333333333
1615160473 0.21986966666666666 -0.6975416666666666
1616646352 0.22036433333333336 -0.6945736666666665
1618132231 0.21689166666666668 -0.6927253333333333
1619618110 0.2162356666666667 -0.6901456666666667
1621103989 0.21744833333333335 -0.691488
1622589868 0.21406066666666668 -0.694816
1624075747 0.21265333333333336 -0.6974116666666667
1625561626 0.21348666666666669 -0.6979936666666666
1627047505 0.214583 -0.7004233333333333
1628533384 0.21327433333333334 -0.7010223333333334
1630019263 0.212539 -0.7040523333333333
1631505142 0.21319600000000002 -0.7032623333333333
1632991021 0.21052233333333334 -0.7054236666666668
1634476900 0.21071000000000004 -0.7041176666666668
1635962779 0.209288 -0.7047946666666666
1637448658 0.20994233333333334 -0.7044563333333332
1638934537 0.20678233333333332 -0.7043096666666667
1640420416 0.20771033333333333 -0.7024500000000001
1641906295 0.20738866666666667 -0.7003713333333333
1643392174 0.20594133333333334 -0.7008890000000001
1644878053 0.20469966666666664 -0.697766
1646363932 0.203487 -0.6963719999999999
1647849811 0.200408 -0.6944866666666667
1649335690 0.20066099999999998 -0.6918946666666667
1650821569 0.199726 -0.6924753333333333
1652307448 0.19981433333333334 -0.6952543333333333
1653793327 0.19706166666666666 -0.6969513333333333
1655279206 0.19791766666666666 -0.6993716666666666
1656765085 0.19880700000000004 -0.6999576666666667
1658250964 0.19778099999999998 -0.7025063333333333
1659736843 0.20007333333333333 -0.7013726666666665
1661222722 0.1983356666666667 -0.7033140000000001
1662708601 0.19862366666666664 -0.7028603333333333
1664194480 0.19910266666666665 -0.7034009999999999
1665680359 0.19730733333333336 -0.7017300000000001
1667166238 0.19750533333333334 -0.7009526666666667
1668652117 0.19609933333333332 -0.7016783333333333
1670137996 0.20712633333333333 -0.6945253333333333
1671623875 0.19467933333333334 -0.6995650000000001
1673109754 0.19499266666666668 -0.6956216666666667
1674595633 0.194734 -0.6941976666666667
1676081512 0.21115833333333334 -0.6990186666666668
1677567391 0.19060433333333335 -0.690638
1679053270 0.18828999999999999 -0.6878136666666667
1680539149 0.18832333333333331 -0.685814
1682025028 0.18882166666666667 -0.6875416666666666
1683510907 0.19018666666666664 -0.6937906666666667
1684996786 0.18848833333333334 -0.6941890000000001
1686482665 0.18933066666666665 -0.6963149999999999
1687968544 0.19471766666666665 -0.6959973333333332
1689454423 0.18911166666666665 -0.7013973333333333
1690940302 0.191049 -0.7004466666666667
1692426181 0.19213066666666667 -0.7012986666666666
1693912060 0.190827 -0.7027420000000001
1695397939 0.19357433333333332 -0.7004610000000001
1696883818 0.19455133333333333 -0.701636
1698369697 0.19337766666666667 -0.7007013333333333
1699855576 0.19140233333333334 -0.6995866666666667
1701341455 0.1931683333333333 -0.698484
1702827334 0.1923136666666667 -0.695383
1704313213 0.19380699999999998 -0.6958500000000001
1705799092 0.19076133333333334 -0.6918793333333334
1707284971 0.18737066666666666 -0.6894106666666667
1708770850 0.1892 -0.6871926666666667
1710256729 0.18957433333333332 -0.6864889999999999
1711742608 0.18666933333333335 -0.6877026666666666
1713228487 0.1885943333333333 -0.6909226666666667
1714714366 0.18817866666666663 -0.6932343333333334
1716200245 0.18846033333333334 -0.6944556666666667
1717686124 0.18872466666666668 -0.6968043333333335
1719172003 0.18718066666666666 -0.6988083333333334
1720657882 0.18939733333333333 -0.6964473333333333
1722143761 0.18572533333333333 -0.6977713333333333
1723629640 0.18449800000000002 -0.6982193333333333
1725115519 0.18632933333333335 -0.699052
1726601398 0.18481933333333334 -0.6983323333333334
1728087277 0.18569033333333337 -0.6964
1729573156 0.18792366666666668 -0.695245
1731059035 0.18425466666666668 -0.6949023333333333
1732544914 0.18477233333333332 -0.6932266666666668
1734030793 0.18572733333333333 -0.6906706666666667
1735516672 0.17976666666666666 -0.6895726666666667
1737002551 0.17958966666666668 -0.6863493333333333
1738488430 0.17890033333333333 -0.6834276666666667
1739974309 0.17674199999999998 -0.6808526666666666
1741460188 0.17608933333333332 -0.683478
1742946067 0.1766093333333333 -0.6865600000000001
1744431946 0.17826666666666666 -0.6903083333333333
1745917825 0.17628966666666668 -0.6922243333333333
1747403704 0.18083433333333332 -0.6927243333333334
1748889583 0.179818 -0.6943713333333333
1750375462 0.17803433333333332 -0.6962446666666667
1751861341 0.17797533333333335 -0.697466
1753347220 0.1760913333333333 -0.698061
1754833099 0.17785666666666666 -0.698636
1756318978 0.17904233333333333 -0.697343
1757804857 0.17775 -0.6968893333333334
1759290736 0.17542766666666665 -0.6966086666666667
1760776615 0.17522833333333335 -0.696056
1762262494 0.17857233333333333 -0.6929416666666667
1763748373 0.17305666666666666 -0.6926543333333334
1765234252 0.17466 -0.6899163333333332
1766720131 0.17095733333333332 -0.6873033333333334
1768206010 0.17199333333333333 -0.685844
1769691889 0.16958266666666666 -0.6827633333333333
1771177768 0.1685323333333333 -0.6861436666666667
1772663647 0.16953566666666667 -0.6873373333333332
1774149526 0.17017533333333335 -0.690446
1775635405 0.17050933333333332 -0.692506
1777121284 0.17084866666666665 -0.6955113333333335
1778607163 0.17041733333333334 -0.6966206666666667
1780093042 0.173122 -0.6973886666666665
1781578921 0.171075 -0.6984103333333334
1783064800 0.17315666666666665 -0.6982843333333334
1784550679 0.17051366666666667 -0.6982566666666666
1786036558 0.17340199999999997 -0.6991823333333332
1787522437 0.171776 -0.6984083333333334
1789008316 0.17207499999999998 -0.6981773333333333
1790494195 0.17228266666666667 -0.6954166666666666
1791980074 0.17254866666666668 -0.6948446666666667
1793465953 0.17308 -0.6921310000000002
1794951832 0.16964100000000001 -0.6903980000000001
1796437711 0.1710533333333333 -0.6875413333333333
1797923590 0.16908 -0.6848836666666666
1799409469 0.16636800000000002 -0.6826756666666666
1800895348 0.16688866666666669 -0.681415
1802381227 0.16915866666666668 -0.6846273333333333
1803867106 0.16975333333333334 -0.6865450000000001
1805352985 0.16752299999999998 -0.6889036666666667
1806838864 0.16840133333333332 -0.6896286666666667
1808324743 0.16868366666666668 -0.6923309999999999
1809810622 0.17225833333333332 -0.6923056666666666
1811296501 0.17330366666666666 -0.693523
1812782380 0.173164 -0.6932423333333334
1814268259 0.1699183333333333 -0.693238
1815754138 0.17076333333333335 -0.6918853333333334
1817240017 0.167072 -0.690699
1818725896 0.17009933333333335 -0.6907963333333332
1820211775 0.16337566666666667 -0.6871873333333333
1821697654 0.15956033333333333 -0.6900403333333333
1823183533 0.16278633333333334 -0.6833839999999999
1824669412 0.16003533333333333 -0.6836569999999998
1826155291 0.15907166666666664 -0.6805833333333334
1827641170 0.158397 -0.6766383333333333
1829127049 0.157619 -0.6751903333333334
1830612928 0.15488833333333332 -0.674996
1832098807 0.1577043333333333 -0.6761399999999999
1833584686 0.15395199999999998 -0.6787653333333333
1835070565 0.15346933333333335 -0.6803683333333334
1836556444 0.15487233333333333 -0.6836746666666667
1838042323 0.154008 -0.6868583333333333
1839528202 0.155953 -0.6875703333333334
1841014081 0.1530136666666667 -0.69043
1842499960 0.152177 -0.6891573333333333
1843985839 0.152597 -0.6901829999999999
1845471718 0.15181333333333333 -0.6901566666666666
1846957597 0.15631266666666668 -0.6901443333333334
1848443476 0.15839033333333333 -0.6896590000000001
1849929355 0.15890433333333331 -0.6893759999999999
1851415234 0.156664 -0.6877620000000001
1852901113 0.154533 -0.6890813333333333
1854386992 0.15195 -0.6822696666666667
1855872871 0.15168933333333331 -0.6841576666666667
1857358750 0.15272966666666665 -0.6792316666666668
1858844629 0.147888 -0.6763896666666667
1860330508 0.15068533333333334 -0.6759893333333333
1861816387 0.1501003333333333 -0.6781903333333332
1863302266 0.14786733333333332 -0.6804276666666667
1864788145 0.14784933333333333 -0.6843416666666666
1866274024 0.15007933333333334 -0.685883
1867759903 0.14868733333333334 -0.6871513333333333
1869245782 0.14464266666666667 -0.6888253333333334
1870731661 0.15119666666666667 -0.6899646666666667
1872217540 0.15006933333333333 -0.6908586666666666
1873703419 0.147684 -0.6902726666666666
1875189298 0.14863133333333334 -0.6907103333333334
1876675177 0.15036 -0.6915049999999999
1878161056 0.152357 -0.6908106666666667
1879646935 0.147002 -0.6892999999999999
1881132814 0.14794300000000002 -0.6948603333333333
1882618693 0.14577700000000002 -0.685689
1884104572 0.14728733333333333 -0.6846443333333333
1885590451 0.146936 -0.6835086666666667
1887076330 0.14772033333333331 -0.6800993333333333
1888562209 0.144071 -0.678102
1890048088 0.14307899999999998 -0.6745869999999999
1891533967 0.14233666666666667 -0.6783896666666668
1893019846 0.14511433333333332 -0.679693
1894505725 0.142656 -0.6815253333333334
1895991604 0.14190833333333333 -0.6851543333333333
1897477483 0.14261366666666667 -0.6838776666666666
1898963362 0.14676366666666668 -0.6846026666666667
1900449241 0.142987 -0.6851086666666667
1901935120 0.14253166666666664 -0.6852046666666668
1903420999 0.14563033333333333 -0.6859203333333334
1904906878 0.141634 -0.685257
1906392757 0.14191666666666666 -0.687307
1907878636 0.14295033333333335 -0.6833136666666667
1909364515 0.13818633333333333 -0.6836486666666667
1910850394 0.13965966666666665 -0.681991
1912336273 0.1391043333333333 -0.6790253333333333
1913822152 0.14230433333333334 -0.6751510000000001
1915308031 0.139854 -0.674554
1916793910 0.14039 -0.6701256666666667
1918279789 0.13752833333333334 -0.6669566666666666
1919765668 0.13560466666666668 -0.6640099999999999
1921251547 0.13728366666666666 -0.6674306666666666
1922737426 0.13483 -0.6698270000000001
1924223305 0.135082 -0.6711553333333334
1925709184 0.134891 -0.673595
1927195063 0.13467766666666667 -0.6760143333333333
1928680942 0.13084966666666667 -0.676653
1930166821 0.13259566666666667 -0.6781896666666666
1931652700 0.13147766666666666 -0.6803536666666666
1933138579 0.134023 -0.6795773333333334
1934624458 0.12944766666666666 -0.6814783333333333
1936110337 0.13130366666666668 -0.680751
1937596216 0.13055399999999998 -0.6799016666666667
1939082095 0.128501 -0.6795516666666667
1940567974 0.128246 -0.679142
1942053853 0.127412 -0.6782096666666666
1943539732 0.1289 -0.677201
1945025611 0.13018033333333334 -0.6738663333333333
1946511490 0.12614733333333333 -0.6723753333333334
1947997369 0.12557333333333331 -0.6706279999999999
1949483248 0.12292766666666666 -0.6675193333333334
1950969127 0.12055933333333335 -0.6713033333333334
1952455006 0.12355300000000001 -0.671531
1953940885 0.12280866666666668 -0.6740876666666668
1955426764 0.12301433333333334 -0.6742086666666666
1956912643 0.12481666666666667 -0.675192
1958398522 0.12266700000000001 -0.6778823333333334
1959884401 0.12107466666666666 -0.679017
1961370280 0.12127266666666668 -0.6786976666666668
1962856159 0.12146466666666667 -0.680193
1964342038 0.121491 -0.6788176666666667
1965827917 0.12111166666666666 -0.6786303333333333
1967313796 0.122525 -0.677889
1968799675 0.121324 -0.6780909999999999
1970285554 0.120749 -0.6755696666666666
1971771433 0.120715 -0.673343
1973257312 0.12061233333333332 -0.6711793333333333
1974743191 0.12058633333333334 -0.670548
1976229070 0.11954633333333335 -0.6695446666666666
1977714949 0.12223866666666666 -0.6637020000000001
1979200828 0.12037633333333335 -0.6613823333333334
1980686707 0.11706966666666667 -0.6627146666666667
1982172586 0.11744233333333333 -0.6636706666666666
1983658465 0.11904633333333332 -0.6663966666666666
1985144344 0.11874966666666668 -0.667677
1986630223 0.11670000000000001 -0.6712756666666667
1988116102 0.11824166666666668 -0.6722066666666667
1989601981 0.107622 -0.6684633333333334
1991087860 0.11880333333333333 -0.6717683333333334
1992573739 0.11600833333333334 -0.67498
1994059618 0.116475 -0.6736913333333333
1995545497 0.117002 -0.6727393333333334
1997031376 0.11595899999999999 -0.6733730000000001
1998517255 0.11586966666666666 -0.670903
2000003134 0.11218166666666667 -0.6728073333333334
2001489013 0.11292933333333333 -0.6693293333333333
2002974892 0.10998599999999999 -0.6687113333333334
2004460771 0.11013066666666667 -0.666171
2005946650 0.109887 -0.6626483333333334
2007432529 0.10970633333333334 -0.661362
2008918408 0.10684300000000001 -0.6585596666666668
2010404287 0.10304933333333333 -0.6584126666666666
2011890166 0.10391266666666665 -0.6609109999999999
2013376045 0.10511566666666666 -0.6627816666666667
2014861924 0.10307333333333334 -0.6659803333333333
2016347803 0.10516266666666667 -0.665949
2017833682 0.10126266666666667 -0.6698466666666666
2019319561 0.104074 -0.6697563333333334
2020805440 0.10368266666666666 -0.671516
2022291319 0.10399833333333335 -0.6713623333333333
2023777198 0.10456333333333334 -0.6713999999999999
2025263077 0.10195966666666667 -0.6742656666666665
2026748956 0.102901 -0.6714406666666667
2028234835 0.104271 -0.6706956666666667
2029720714 0.108616 -0.666546
2031206593 0.10287466666666667 -0.6702963333333334
2032692472 0.10282133333333333 -0.6691603333333332
2034178351 0.10124733333333334 -0.666934
2035664230 0.09982833333333334 -0.6650266666666668
2037150109 0.10091099999999999 -0.6633803333333333
2038635988 0.101074 -0.6586073333333333
2040121867 0.098159 -0.6579443333333334
2041607746 0.099145 -0.6597173333333334
2043093625 0.09780866666666665 -0.6621016666666667
2044579504 0.09801633333333333 -0.664448
2046065383 0.09609433333333334 -0.665102
2047551262 0.09516466666666666 -0.6665420000000001
2049037141 0.09704366666666668 -0.667335
2050523020 0.09493133333333333 -0.6684769999999999
2052008899 0.09637499999999999 -0.6689120000000001
2053494778 0.09520033333333333 -0.666905
2054980657 0.094078 -0.669329
2056466536 0.09379566666666667 -0.6668839999999999
2057952415 0.09485833333333334 -0.666552
2059438294 0.09240466666666668 -0.6648196666666667
2060924173 0.09167166666666667 -0.6632816666666667
2062410052 0.09202666666666666 -0.6609386666666667
2063895931 0.092566 -0.658903
2065381810 0.09230900000000002 -0.6569133333333333
2066867689 0.08821566666666668 -0.6549103333333334
2068353568 0.08630133333333334 -0.6533323333333333
2069839447 0.08551233333333334 -0.6484896666666667
2071325326 0.08364833333333332 -0.653473
2072811205 0.08624066666666667 -0.6545340000000001
2074297084 0.08707666666666665 -0.6567396666666666
2075782963 0.08442499999999999 -0.6594576666666666
2077268842 0.08418999999999999 -0.661598
2078754721 0.08318933333333334 -0.662667
2080240600 0.08636033333333333 -0.6633336666666666
2081726479 0.085449 -0.664585
2083212358 0.08910233333333333 -0.6659303333333333
2084698237 0.08730066666666668 -0.6657293333333333
2086184116 0.08445633333333334 -0.6656663333333334
2087669995 0.08791033333333333 -0.6660413333333333
2089155874 0.08834333333333333 -0.664629
2090641753 0.08693533333333332 -0.663017
2092127632 0.090122 -0.661107
2093613511 0.08580833333333333 -0.6604756666666666
2095099390 0.08685366666666666 -0.6587896666666667
2096585269 0.08781966666666667 -0.6570026666666667
2098071148 0.08569199999999999 -0.6535576666666668
2099557027 0.08449 -0.652394
2101042906 0.08509800000000001 -0.652838
2102528785 0.08373833333333332 -0.6560389999999999
2104014664 0.08380766666666667 -0.6586046666666667
2105500543 0.08277833333333334 -0.6602223333333334
2106986422 0.08556833333333334 -0.662859
2108472301 0.08050333333333333 -0.6650253333333334
2109958180 0.08377266666666666 -0.6654816666666666
2111444059 0.083808 -0.6668916666666668
2112929938 0.08447533333333333 -0.6657806666666667
2114415817 0.082798 -0.6683979999999999
2115901696 0.083245 -0.6670146666666668
2117387575 0.08186500000000001 -0.6657873333333333
2118873454 0.08378799999999999 -0.664969
2120359333 0.07989566666666666 -0.6561873333333333
2121845212 0.08379766666666666 -0.6641293333333333
2123331091 0.08283966666666666 -0.660662
2124816970 0.082639 -0.6595733333333333
2126302849 0.080551 -0.6577573333333333
2127788728 0.07965866666666667 -0.6547759999999999
2129274607 0.08501566666666667 -0.6534636666666667
2130760486 0.07842633333333333 -0.6524256666666667
2132246365 0.08048766666666667 -0.654832
2133732244 0.08006966666666666 -0.6555826666666668
2135218123 0.07657333333333333 -0.6592189999999999
2136704002 0.07613199999999999 -0.6597703333333333
2138189881 0.07589166666666666 -0.6620296666666666
2139675760 0.074685 -0.6626796666666667
2141161639 0.07429166666666667 -0.6637810000000001
2142647518 0.07378666666666667 -0.666393
2144133397 0.07715733333333333 -0.663772
2145619276 0.07427666666666667 -0.6646583333333332
2147105155 0.074275 -0.6640096666666667
2148591034 0.07103866666666665 -0.6642023333333333
2150076913 0.07261233333333333 -0.661941
2151562792 0.07066633333333333 -0.6621039999999999
2153048671 0.069768 -0.6594559999999999
2154534550 0.069703 -0.6591336666666667
2156020429 0.06862866666666667 -0.656509
2157506308 0.06783800000000001 -0.653547
2158992187 0.06478766666666666 -0.652559
2160478066 0.06419833333333333 -0.6494986666666667
2161963945 0.06445733333333332 -0.6544026666666667
2163449824 0.065915 -0.6560913333333334
2164935703 0.06591633333333333 -0.6575053333333333
2166421582 0.063967 -0.6600303333333334
2167907461 0.06580933333333333 -0.6613523333333333
2169393340 0.06654733333333333 -0.663082
2170879219 0.06649066666666666 -0.66322
2172365098 0.067538 -0.664827
2173850977 0.06485333333333333 -0.665668
2175336856 0.06792866666666668 -0.6652969999999999
2176822735 0.066716 -0.664533
2178308614 0.06751299999999999 -0.663045
2179794493 0.06998 -0.6644613333333333
2181280372 0.07141766666666667 -0.6580153333333333
2182766251 0.06908433333333333 -0.6582293333333333
2184252130 0.06937066666666665 -0.6576046666666667
2185738009 0.06861966666666668 -0.6558826666666667
2187223888 0.067743 -0.6537833333333333
2188709767 0.068844 -0.6506596666666666
2190195646 0.06761966666666665 -0.647903
2191681525 0.06751766666666666 -0.650104
2193167404 0.06985833333333333 -0.653382
2194653283 0.06838166666666666 -0.6522853333333333
2196139162 0.06920766666666667 -0.657569
2197625041 0.06950466666666667 -0.6563246666666667
2199110920 0.07119033333333334 -0.6594256666666667
2200596799 0.070809 -0.6591686666666666
2202082678 0.06823433333333334 -0.6573166666666667
2203568557 0.07101233333333333 -0.6608903333333332
2205054436 0.07273033333333333 -0.659762
2206540315 0.07359066666666667 -0.659872
2208026194 0.068697 -0.663963
2209512073 0.07059266666666668 -0.6566406666666667
2210997952 0.072627 -0.6562439999999999
2212483831 0.07163333333333333 -0.652307
2213969710 0.07391233333333332 -0.6504296666666667
2215455589 0.078083 -0.650589
2216941468 0.07500033333333334 -0.6453026666666667
2218427347 0.07831066666666668 -0.6425226666666667
2219913226 0.071191 -0.639218
2221399105 0.078167 -0.6429170000000001
2222884984 0.07282766666666667 -0.6452353333333333
2224370863 0.07499466666666667 -0.647121
2225856742 0.06807566666666666 -0.6489593333333333
2227342621 0.07349166666666666 -0.6517893333333333
2228828500 0.068019 -0.651688
2230314379 0.07266266666666667 -0.6531553333333334
2231800258 0.068494 -0.65284
2233286137 0.07347866666666666 -0.6528820000000001
2234772016 0.07097233333333335 -0.6530653333333333
2236257895 0.069784 -0.6538656666666666
2237743774 0.07301666666666667 -0.6558446666666667
2239229653 0.072508 -0.6550593333333333
2240715532 0.07023766666666666 -0.6526873333333333
2242201411 0.06899533333333334 -0.6518503333333333
2243687290 0.068835 -0.6498126666666667
2245173169 0.07071033333333333 -0.648767
2246659048 0.06965899999999998 -0.6467383333333333
2248144927 0.07058466666666667 -0.645682
2249630806 0.065094 -0.6408256666666666
2251116685 0.06672433333333333 -0.645452
2252602564 0.062327 -0.6468056666666667
2254088443 0.06406533333333332 -0.6473190000000001
2255574322 0.063232 -0.6482136666666666
2257060201 0.063544 -0.6501933333333334
2258546080 0.06420733333333332 -0.6525926666666666
2260031959 0.06296933333333334 -0.6507489999999999
2261517838 0.063744 -0.6514953333333334
2263003717 0.061698333333333334 -0.652513
2264489596 0.06345366666666667 -0.654338
2265975475 0.06306766666666667 -0.6532233333333334
2267461354 0.05826800000000001 -0.6512826666666666
2268947233 0.056904 -0.6493166666666667
2270433112 0.056667333333333327 -0.649558
2271918991 0.060353333333333335 -0.6484010000000001
2273404870 0.052804666666666666 -0.6419173333333333
2274890749 0.05497766666666667 -0.6445393333333334
2276376628 0.054661999999999995 -0.6409686666666667
2277862507 0.049571000000000004 -0.6372006666666666
2279348386 0.050720666666666664 -0.6373556666666667
2280834265 0.049383333333333335 -0.6366826666666667
2282320144 0.06240233333333333 -0.63977
2283806023 0.04657366666666667 -0.6382673333333333
2285291902 0.06382666666666666 -0.6436086666666666
2286777781 0.05012933333333334 -0.640934
2288263660 0.05401366666666666 -0.6438806666666667
2289749539 0.048522666666666665 -0.6419066666666667
2291235418 0.05133000000000001 -0.64608
2292721297 0.059589 -0.6472993333333333
2294207176 0.051596 -0.6444593333333334
2295693055 0.051159333333333334 -0.6467146666666667
2297178934 0.057460000000000004 -0.645146
2298664813 0.055292 -0.6458283333333333
2300150692 0.057126 -0.6467373333333334
2301636571 0.05211866666666667 -0.6430873333333333
2303122450 0.051569 -0.6405943333333334
2304608329 0.05429333333333333 -0.6405486666666667
2306094208 0.053461666666666664 -0.6389683333333332
2307580087 0.05288366666666667 -0.632205
2309065966 0.05327166666666666 -0.636621
2310551845 0.050876000000000005 -0.6348999999999999
2312037724 0.05308866666666667 -0.6369926666666667
2313523603 0.056517000000000005 -0.638761
2315009482 0.04959 -0.6420993333333334
2316495361 0.053196333333333325 -0.6435873333333333
2317981240 0.053125000000000006 -0.6447729999999999
2319467119 0.05601166666666666 -0.6444946666666667
2320952998 0.052352333333333334 -0.6476390000000001
2322438877 0.051696 -0.6476383333333333
2323924756 0.061686 -0.6566796666666667
2325410635 0.066319 -0.6739806666666667
2326896514 0.05356933333333333 -0.6490516666666667
2328382393 0.05834333333333334 -0.6502169999999999
2329868272 0.05602633333333334 -0.645825
2331354151 0.054264 -0.6467843333333334
2332840030 0.054858333333333335 -0.6470646666666667
2334325909 0.04713 -0.6453466666666666
2335811788 0.04874233333333333 -0.6439689999999999
2337297667 0.04985933333333333 -0.6385853333333333
2338783546 0.05026733333333333 -0.6421593333333334
2340269425 0.04588966666666667 -0.638792
2341755304 0.04558266666666666 -0.6410196666666667
2343241183 0.045247 -0.6415123333333334
2344727062 0.049773333333333336 -0.6452110000000001
2346212941 0.048241 -0.6473403333333333
2347698820 0.045359666666666666 -0.647463
2349184699 0.04162966666666667 -0.649007
2350670578 0.044455 -0.6461396666666667
2352156457 0.044042000000000005 -0.6512060000000001
2353642336 0.04627033333333333 -0.6489046666666667
2355128215 0.04243466666666667 -0.6506776666666667
2356614094 0.045366 -0.6480413333333334
2358099973 0.04238033333333333 -0.6477006666666667
2359585852 0.041107 -0.6475770000000001
2361071731 0.03836 -0.643054
2362557610 0.04235233333333333 -0.6465716666666667
2364043489 0.039705 -0.6435613333333333
2365529368 0.03190333333333333 -0.6411646666666666
2367015247 0.036406666666666664 -0.6381703333333333
2368501126 0.034516 -0.6362233333333334
2369987005 0.03329833333333333 -0.633574
2371472884 0.03705066666666667 -0.6342853333333335
2372958763 0.031724 -0.6375366666666668
2374444642 0.034813333333333335 -0.6396326666666666
2375930521 0.034251 -0.6426423333333333
2377416400 0.027446666666666664 -0.646762
2378902279 0.033764666666666665 -0.64163
2380388158 0.03411266666666667 -0.6459663333333333
2381874037 0.03465733333333333 -0.6440923333333334
2383359916 0.03723133333333333 -0.6457106666666667
2384845795 0.04034566666666667 -0.6431760000000001
2386331674 0.03737066666666667 -0.6425803333333334
2387817553 0.039746333333333335 -0.6433173333333333
2389303432 0.04025599999999999 -0.6412983333333333
2390789311 0.034879 -0.6423516666666667
2392275190 0.037590000000000005 -0.6381626666666668
2393761069 0.035813 -0.6378553333333333
2395246948 0.037372999999999997 -0.6348096666666666
2396732827 0.03420966666666667 -0.630656
2398218706 0.035430666666666666 -0.626914
2399704585 0.037157 -0.624054
2401190464 0.03768833333333333 -0.6263053333333333
2402676343 0.035593 -0.6279566666666666
2404162222 0.03401233333333333 -0.6320223333333334
2405648101 0.028062 -0.6348313333333333
2407133980 0.03082966666666667 -0.6353676666666667
2408619859 0.031544333333333334 -0.636343
2410105738 0.03250466666666667 -0.6380063333333333
2411591617 0.031235333333333334 -0.6383943333333334
2413077496 0.029121000000000005 -0.6416773333333333
2414563375 0.028862666666666665 -0.641129
2416049254 0.024384666666666666 -0.642009
2417535133 0.027737 -0.6404736666666667
2419021012 0.025425666666666666 -0.6398766666666666
2420506891 0.026139 -0.6379043333333333
2421992770 0.025062333333333336 -0.6398453333333333
2423478649 0.02643 -0.633846
2424964528 0.02279166666666667 -0.6331046666666666
2426450407 0.022671999999999998 -0.6338523333333334
2427936286 0.022667999999999997 -0.6336276666666666
2429422165 0.021751666666666666 -0.6288276666666667
2430908044 0.018935 -0.6303693333333333
2432393923 0.015499333333333332 -0.6318323333333334
2433879802 0.019123 -0.6327363333333333
2435365681 0.021801 -0.6355603333333333
2436851560 0.017566333333333333 -0.636761
2438337439 0.019063666666666663 -0.6364056666666668
2439823318 0.018770666666666668 -0.638825
2441309197 0.017582333333333332 -0.6395163333333334
2442795076 0.020229333333333335 -0.6395766666666667
2444280955 0.021651666666666666 -0.6368776666666667
2445766834 0.022294666666666667 -0.6359319999999999
2447252713 0.023287000000000002 -0.63485
2448738592 0.025146 -0.6368363333333334
2450224471 0.019001333333333332 -0.6339176666666667
2451710350 0.021176666666666667 -0.631618
2453196229 0.021180333333333332 -0.6275746666666667
2454682108 0.019489000000000003 -0.6286013333333335
2456167987 0.018215 -0.6236669999999999
2457653866 0.019336666666666665 -0.6234676666666666
2459139745 0.019340333333333334 -0.6209036666666666
2460625624 0.016968333333333335 -0.6183746666666666
2462111503 0.015143333333333333 -0.61868
2463597382 0.014495 -0.6218843333333334
2465083261 0.016209666666666667 -0.6251433333333334
2466569140 0.012049666666666667 -0.6263306666666667
2468055019 0.014696 -0.6280023333333333
2469540898 0.013453666666666668 -0.6295066666666668
2471026777 0.013245333333333333 -0.6288079999999999
2472512656 0.012177666666666665 -0.6302946666666666
2473998535 0.013373999999999999 -0.6296506666666667
2475484414 0.013188 -0.6274853333333333
2476970293 0.01355 -0.6303206666666666
2478456172 0.013492666666666667 -0.628823
2479942051 0.026755333333333336 -0.6420206666666667
2481427930 0.013709333333333332 -0.626385
2482913809 0.012041333333333333 -0.6235716666666666
2484399688 0.009869333333333334 -0.6222146666666667
2485885567 0.010092666666666666 -0.620111
2487371446 0.011062333333333334 -0.6194406666666666
2488857325 0.008030666666666667 -0.6141756666666667
2490343204 0.00741 -0.6153173333333334
2491829083 0.010172333333333334 -0.6171143333333333
2493314962 0.0073219999999999995 -0.6195526666666668
2494800841 0.008735 -0.6215263333333334
2496286720 0.012004666666666665 -0.6223006666666667
2497772599 0.011657 -0.6255820000000001
2499258478 0.010708333333333334 -0.6267520000000001
2500744357 0.011297666666666666 -0.6270313333333334
2502230236 0.012159666666666666 -0.630103
2503716115 0.011972333333333333 -0.6299226666666667
2505201994 0.011446333333333334 -0.62966
2506687873 0.012619333333333331 -0.630443
2508173752 0.010116 -0.6292846666666666
2509659631 0.014218333333333333 -0.628658
2511145510 0.013995666666666665 -0.625273
2512631389 0.013517333333333334 -0.62595
2514117268 0.012735333333333333 -0.6239553333333333
2515603147 0.017727999999999997 -0.624342
2517089026 0.015875666666666666 -0.6213713333333334
2518574905 0.015755333333333333 -0.6167516666666667
2520060784 0.014114666666666666 -0.6169146666666667
2521546663 0.015852333333333333 -0.6196663333333333
2523032542 0.014616666666666667 -0.6211549999999999
2524518421 0.010717333333333334 -0.6219526666666667
2526004300 0.010801666666666668 -0.622545
2527490179 0.012887666666666667 -0.6254116666666667
2528976058 0.011032 -0.6263633333333334
2530461937 0.014437 -0.627821
2531947816 0.009028333333333333 -0.6264796666666667
2533433695 0.015670333333333335 -0.6298003333333333
2534919574 0.0047936666666666666 -0.6284683333333333
2536405453 0.009355333333333334 -0.629073
2537891332 0.009690333333333334 -0.6283690000000001
2539377211 0.008604666666666665 -0.628053
2540863090 0.006929666666666667 -0.6258853333333334
2542348969 0.007012 -0.626294
2543834848 0.008678 -0.6241943333333334
2545320727 0.005337333333333333 -0.622971
2546806606 0.004975666666666666 -0.6217123333333333
2548292485 0.0051723333333333335 -0.6202713333333333
2549778364 0.003356333333333333 -0.618951
2551264243 0.006107333333333333 -0.619869
2552750122 0.004553333333333334 -0.6202520000000001
2554236001 0.003819 -0.6287893333333333
2555721880 -0.0002856666666666666 -0.6301926666666667
2557207759 0.001488 -0.6265853333333333
2558693638 -0.0006670000000000001 -0.6281523333333333
2560179517 0.00024466666666666663 -0.6289496666666667
2561665396 -0.0010559999999999999 -0.6324663333333334
2563151275 -0.0019003333333333335 -0.6313036666666666
2564637154 0.00015066666666666668 -0.6310166666666667
2566123033 -0.00041066666666666666 -0.63118
2567608912 0.0004433333333333334 -0.6289273333333334
2569094791 0.0007010000000000001 -0.6307429999999999
2570580670 0.005061 -0.6102500000000001
2572066549 -0.0018273333333333336 -0.6295926666666666
2573552428 -0.000602 -0.629191
2575038307 -0.002389333333333333 -0.6251943333333333
2576524186 -0.0033843333333333334 -0.627226
2578010065 -0.001278 -0.6267253333333334
2579495944 -0.004575666666666666 -0.6228593333333333
2580981823 -0.005385999999999999 -0.6250106666666667
2582467702 -0.0024303333333333334 -0.6266886666666667
2583953581 -0.002827333333333333 -0.623383
2585439460 -0.0018486666666666669 -0.6224120000000001
2586925339 -0.0016543333333333334 -0.6252746666666665
2588411218 -0.004392333333333333 -0.6273173333333334
2589897097 -0.003268 -0.624227
2591382976 -0.001184333333333333 -0.6228856666666667
2592868855 -0.0008370000000000001 -0.6245663333333334
2594354734 -0.004545666666666667 -0.6241530000000001
2595840613 0.001488 -0.625573
2597326492 0.000896 -0.6239013333333333
2598812371 -0.0012250000000000002 -0.6203690000000001
2600298250 -0.004060666666666666 -0.6147976666666667
2601784129 -0.004844 -0.6142533333333333
2603270008 -0.0012296666666666667 -0.6109603333333333
2604755887 -0.005043666666666666 -0.6096783333333333
2606241766 -0.002916666666666667 -0.6050126666666666
2607727645 -0.005606333333333334 -0.6049633333333333
2609213524 -0.006291666666666668 -0.6021773333333332
2610699403 -0.006416999999999999 -0.597624
2612185282 -0.005320000000000001 -0.6037283333333333
2613671161 -0.005279333333333334 -0.6022679999999999
2615157040 -0.0053286666666666664 -0.6035843333333334
2616642919 -0.0028520000000000004 -0.6077340000000001
2618128798 -0.0024836666666666666 -0.611936
2619614677 -0.005674666666666667 -0.6116393333333333
2621100556 -0.006718666666666667 -0.6079666666666667
2622586435 -0.007057999999999999 -0.6082126666666666
2624072314 -0.008023333333333335 -0.6166343333333333
2625558193 -0.007938 -0.62039
2627044072 -0.001992666666666667 -0.6133503333333333
2628529951 -0.0033916666666666665 -0.609042
2630015830 -0.0011863333333333333 -0.608424
2631501709 -0.005260999999999999 -0.6091219999999999
2632987588 -0.0026153333333333337 -0.6066933333333333
2634473467 -0.0012486666666666668 -0.6062600000000001
2635959346 -0.006772 -0.6031613333333333
2637445225 -0.007110666666666667 -0.6033210000000001
2638931104 -0.005676666666666667 -0.6012903333333334
2640416983 -0.009090666666666667 -0.6018173333333333
2641902862 -0.008905333333333333 -0.6045606666666666
2643388741 -0.007609666666666667 -0.6077846666666666
2644874620 -0.007386333333333334 -0.608802
2646360499 -0.009582333333333333 -0.6107140000000001
2647846378 -0.011648333333333335 -0.612545
2649332257 -0.005671333333333334 -0.6169416666666667
2650818136 -0.013872333333333334 -0.6132863333333334
2652304015 -0.016304 -0.61232
2653789894 -0.011880999999999997 -0.6176216666666666
2655275773 -0.009376 -0.6185333333333333
2656761652 -0.011658333333333335 -0.6194073333333333
2658247531 -0.008024333333333333 -0.6194946666666666
2659733410 -0.012291333333333335 -0.6195613333333334
2661219289 -0.0071643333333333325 -0.6220470000000001
2662705168 -0.005662333333333334 -0.618169
2664191047 -0.010050333333333333 -0.6225716666666666
2665676926 -0.008357666666666666 -0.6163956666666666
2667162805 -0.007695666666666667 -0.6168766666666666
2668648684 -0.008610666666666668 -0.6146759999999999
2670134563 -0.011424666666666666 -0.614302
2671620442 -0.010127666666666667 -0.615375
2673106321 -0.010026333333333333 -0.6175846666666667
2674592200 -0.010223333333333333 -0.6205999999999999
2676078079 -0.011832666666666667 -0.6207776666666667
2677563958 -0.007654666666666666 -0.622612
2679049837 -0.007293666666666666 -0.6226276666666667
2680535716 -0.008454333333333335 -0.6240263333333332
2682021595 -0.004169 -0.6276356666666666
2683507474 -0.006316666666666666 -0.6228273333333334
2684993353 -0.005586666666666667 -0.621609
2686479232 -0.0014559999999999998 -0.6246416666666667
2687965111 0.007391999999999999 -0.620078
2689450990 0.0013490000000000002 -0.6226523333333334
2690936869 -0.0011643333333333336 -0.6184123333333333
2692422748 -0.0014076666666666664 -0.614165
2693908627 0.003191333333333333 -0.614398
2695394506 -0.004118333333333334 -0.6119973333333334
2696880385 -0.003331 -0.6097993333333332
2698366264 -0.008369 -0.6056346666666667
2699852143 1.5333333333333345e-05 -0.6041916666666668
2701338022 -0.010582333333333332 -0.606464
2702823901 -0.007155666666666667 -0.6057933333333333
2704309780 0.0010933333333333333 -0.6101903333333333
2705795659 -0.005862333333333333 -0.6141583333333333
2707281538 -0.0007623333333333333 -0.6129386666666666
2708767417 0.0036593333333333334 -0.614391
2710253296 -0.001 -0.6147523333333333
2711739175 0.0056763333333333344 -0.6148706666666667
2713225054 -0.0003643333333333334 -0.6139473333333333
2714710933 0.0022333333333333333 -0.6145849999999999
2716196812 0.0037716666666666662 -0.611825
2717682691 0.004111 -0.6097293333333335
2719168570 0.004614666666666666 -0.6104366666666666
2720654449 0.009541000000000001 -0.6093166666666666
2722140328 0.0062696666666666664 -0.6078293333333333
2723626207 0.005848333333333334 -0.6047946666666667
2725112086 0.002833666666666666 -0.6027596666666667
2726597965 0.008287000000000001 -0.5989703333333334
2728083844 -0.002304 -0.5963313333333334
2729569723 0.0039106666666666665 -0.5929306666666666
2731055602 0.001986 -0.595041
2732541481 0.004386333333333333 -0.5992186666666667
2734027360 -0.0010853333333333333 -0.5988583333333333
2735513239 -0.0016853333333333332 -0.6046723333333333
2736999118 -0.002899 -0.6037213333333333
2738484997 0.002075333333333333 -0.604519
2739970876 -0.007322666666666667 -0.61111
2741456755 -0.007195 -0.6131983333333334
2742942634 -0.014650666666666668 -0.6111046666666666
2744428513 -0.005430333333333333 -0.6083163333333333
2745914392 -0.011776 -0.6126466666666667
2747400271 -0.013718333333333332 -0.6140876666666667
2748886150 -0.012102666666666666 -0.6139516666666666
2750372029 -0.012554999999999998 -0.6169916666666667
2751857908 -0.008660333333333332 -0.6133339999999999
2753343787 -0.012147666666666666 -0.612837
2754829666 -0.019931 -0.6131366666666667
2756315545 -0.013380999999999999 -0.6147076666666668
2757801424 -0.015685333333333332 -0.6115126666666667
2759287303 -0.018984666666666667 -0.6114896666666666
2760773182 -0.020713 -0.6111616666666667
2762259061 -0.020493666666666667 -0.6138163333333333
2763744940 -0.012126666666666666 -0.6144086666666667
2765230819 -0.017617999999999998 -0.6195900000000001
2766716698 -0.013363333333333333 -0.6242346666666667
2768202577 -0.015089333333333335 -0.619808
2769688456 -0.013972333333333331 -0.6197906666666667
2771174335 -0.014411 -0.6240133333333333
2772660214 -0.011477000000000001 -0.6189616666666667
2774146093 0.0038736666666666663 -0.632173
2775631972 -0.012901000000000001 -0.6229983333333334
2777117851 -0.005775666666666666 -0.6179603333333333
2778603730 -0.010455 -0.617714
2780089609 -0.009256666666666667 -0.61851
2781575488 -0.014058333333333332 -0.6152976666666667
2783061367 -0.01083 -0.6158913333333333
2784547246 -0.004032333333333333 -0.607596
2786033125 -0.00913 -0.6066063333333332
2787519004 -0.008818 -0.612618
2789004883 -0.008751666666666666 -0.5994106666666666
2790490762 -0.008213333333333335 -0.5986663333333333
2791976641 -0.005069000000000001 -0.5998583333333333
2793462520 -0.010073333333333333 -0.6051719999999999
2794948399 -0.012700333333333333 -0.6071063333333333
2796434278 -0.014695000000000001 -0.6104546666666667
2797920157 -0.013586666666666669 -0.607325
2799406036 -0.012867666666666666 -0.6044743333333333
2800891915 -0.012563666666666667 -0.6057296666666666
2802377794 -0.012179666666666667 -0.6118046666666667
2803863673 -0.011375999999999999 -0.6118656666666666
2805349552 -0.015690333333333334 -0.6118523333333333
2806835431 -0.012443333333333334 -0.6152076666666667
2808321310 -0.012948666666666669 -0.6108396666666667
2809807189 -0.019323666666666666 -0.6124316666666667
2811293068 -0.015733 -0.6102796666666667
2812778947 -0.015666666666666666 -0.6022526666666667
2814264826 -0.015928 -0.6063679999999999
2815750705 -0.017615333333333334 -0.6021613333333332
2817236584 -0.022327666666666666 -0.6022219999999999
2818722463 -0.019634333333333333 -0.5997416666666666
2820208342 -0.019955999999999998 -0.5993623333333333
2821694221 -0.017669 -0.6024156666666667
2823180100 -0.017235666666666666 -0.603355
2824665979 -0.021811333333333332 -0.6100406666666667
2826151858 -0.019766000000000002 -0.6086823333333333
2827637737 -0.017190333333333335 -0.6059043333333333
2829123616 -0.020259333333333334 -0.6065496666666667
2830609495 -0.018068999999999998 -0.6075023333333334
2832095374 -0.014775333333333333 -0.6072973333333334
2833581253 -0.020142 -0.6019896666666666
2835067132 -0.019644333333333333 -0.6046406666666667
2836553011 -0.016013 -0.601066
2838038890 -0.019259333333333333 -0.602648
2839524769 -0.014916333333333332 -0.6064453333333333
2841010648 -0.01911833333333333 -0.5999403333333333
2842496527 -0.014289333333333333 -0.5954283333333333
2843982406 -0.018121333333333333 -0.5962066666666667
2845468285 -0.014322 -0.593845
2846954164 -0.01975066666666667 -0.5869763333333333
2848440043 -0.017158333333333334 -0.5844413333333333
2849925922 -0.022695333333333335 -0.5826473333333333
2851411801 -0.02105233333333333 -0.5819823333333333
2852897680 -0.019487 -0.5877736666666667
2854383559 -0.021724999999999998 -0.587846
2855869438 -0.023618666666666666 -0.5852613333333333
2857355317 -0.019137666666666667 -0.593489
2858841196 -0.020728 -0.5922583333333333
2860327075 -0.020961333333333332 -0.5909826666666667
2861812954 -0.019509333333333333 -0.5913416666666667
2863298833 -0.018971000000000002 -0.5964333333333333
2864784712 -0.017939666666666663 -0.5945953333333333
2866270591 -0.020205666666666667 -0.5941696666666666
2867756470 -0.01605 -0.592224
2869242349 -0.020676666666666666 -0.5942713333333334
2870728228 -0.016923666666666667 -0.585919
2872214107 -0.015980333333333333 -0.5911923333333333
2873699986 -0.01606 -0.590155
2875185865 -0.014568999999999999 -0.5869179999999999
2876671744 -0.016511333333333333 -0.5839156666666666
2878157623 -0.014913999999999998 -0.582945
2879643502 -0.019134333333333337 -0.5785433333333333
2881129381 -0.014410666666666669 -0.5841103333333333
2882615260 -0.015211666666666665 -0.5845436666666667
2884101139 -0.016896666666666667 -0.5842033333333333
2885587018 -0.016553333333333333 -0.5864750000000001
2887072897 -0.016165666666666665 -0.591551
2888558776 -0.019702 -0.591239
2890044655 -0.019917333333333332 -0.590701
2891530534 -0.017852 -0.5944736666666667
2893016413 -0.021066 -0.5920376666666667
2894502292 -0.022734 -0.5922696666666666
2895988171 -0.018283999999999998 -0.594234
2897474050 -0.017296000000000002 -0.593559
2898959929 -0.01766733333333333 -0.5925586666666667
2900445808 -0.018684999999999997 -0.5914336666666666
2901931687 -0.021416 -0.59035
2903417566 -0.018087 -0.5886743333333333
2904903445 -0.020975666666666667 -0.5883426666666667
2906389324 -0.020725999999999998 -0.586828
2907875203 -0.020923666666666663 -0.58435
2909361082 -0.018444000000000002 -0.58296
2910846961 -0.021121666666666667 -0.5824673333333333
2912332840 -0.01971533333333333 -0.5854156666666667
2913818719 -0.024853 -0.5861156666666667
2915304598 -0.02271266666666667 -0.5870996666666667
2916790477 -0.025621666666666668 -0.5878603333333333
2918276356 -0.024624666666666666 -0.588383
2919762235 -0.024669999999999997 -0.5905993333333334
2921248114 -0.025834666666666662 -0.590367
2922733993 -0.014343333333333333 -0.6006113333333334
2924219872 -0.029392666666666668 -0.589896
2925705751 -0.026864333333333334 -0.5911576666666667
2927191630 -0.029794333333333336 -0.5890026666666667
2928677509 -0.028197333333333335 -0.5904306666666667
2930163388 -0.02862033333333333 -0.588069
2931649267 -0.026167333333333334 -0.5861366666666666
2933135146 -0.030513 -0.586807
2934621025 -0.03338433333333333 -0.5872860000000001
2936106904 -0.029524000000000005 -0.5834186666666666
2937592783 -0.031399333333333335 -0.5814746666666667
2939078662 -0.03567433333333333 -0.5791076666666667
2940564541 -0.034905 -0.579969
2942050420 -0.037246 -0.5793539999999999
2943536299 -0.036296 -0.5804243333333333
2945022178 -0.036695 -0.5836343333333333
2946508057 -0.03767366666666667 -0.5893033333333334
2947993936 -0.03578800000000001 -0.5877646666666667
2949479815 -0.036651666666666666 -0.587433
2950965694 -0.035101 -0.5869056666666667
2952451573 -0.03704566666666667 -0.5905183333333333
2953937452 -0.03337933333333333 -0.5898556666666667
2955423331 -0.03166833333333333 -0.5899453333333334
2956909210 -0.038282000000000004 -0.5900489999999999
2958395089 -0.03322 -0.5872139999999999
2959880968 -0.034065 -0.5844140000000001
2961366847 -0.03428833333333334 -0.5864219999999999
2962852726 -0.035714 -0.5830700000000001
2964338605 -0.03338566666666667 -0.5814123333333333
2965824484 -0.03239533333333334 -0.580117
2967310363 -0.033445333333333334 -0.5741936666666667
2968796242 -0.03337966666666666 -0.5751426666666667
2970282121 -0.034974333333333336 -0.5752833333333334
2971768000 -0.03319166666666667 -0.5775316666666667
2973253879 -0.034442 -0.5764079999999999
2974739758 -0.03206933333333334 -0.5776656666666667
2976225637 -0.03339166666666666 -0.5790923333333333
2977711516 -0.03429366666666667 -0.5793413333333333
2979197395 -0.035351 -0.5809903333333334
2980683274 -0.034913 -0.5813263333333333
2982169153 -0.030003000000000002 -0.586034
2983655032 -0.030757999999999997 -0.582884
2985140911 -0.03040166666666667 -0.5797253333333333
2986626790 -0.03062933333333333 -0.5796056666666667
2988112669 -0.028988 -0.5790136666666666
2989598548 -0.031004666666666666 -0.5791606666666667
2991084427 -0.025509333333333332 -0.5781636666666666
2992570306 -0.026995 -0.5770603333333333
2994056185 -0.029604666666666665 -0.5737853333333334
2995542064 -0.028124333333333335 -0.5695483333333334
2997027943 -0.025802666666666668 -0.5703786666666667
2998513822 -0.027294333333333337 -0.5631116666666667
2999999701 -0.02595266666666667 -0.5610473333333333
