# HZ S RI R 50
10000 1.091518 0.044367333333333335
1495879 0.8781583333333334 1.157896
2981758 0.5764323333333333 0.6909736666666667
4467637 0.581249 0.3269236666666666
5953516 0.6503643333333334 0.13825400000000002
7439395 0.7433593333333333 0.012166000000000001
8925274 1.057714 -0.06168333333333333
10411153 1.0969403333333334 0.03726566666666667
11897032 1.0853723333333332 0.16851533333333335
13382911 1.0175986666666665 0.2916003333333333
14868790 0.9151973333333334 0.3793659999999999
16354669 0.8033386666666668 0.42625633333333335
17840548 0.6985950000000001 0.44102766666666665
19326427 0.6094666666666667 0.4342413333333333
20812306 0.536031 0.4156546666666667
22298185 0.476818 0.39190299999999995
23784064 0.4291196666666666 0.36613633333333334
25269943 0.39052 0.3400026666666667
26755822 0.35916466666666663 0.315051
28241701 0.3332796666666667 0.2912963333333333
29727580 0.31132733333333334 0.26978433333333335
31213459 0.3217196666666666 0.25435433333333335
32699338 0.33813000000000004 0.23981366666666667
34185217 0.353489 0.22625466666666663
35671096 0.36863599999999996 0.21050466666666665
37156975 0.3840396666666667 0.1913406666666667
38642854 0.398026 0.17474333333333333
40128733 0.4123326666666666 0.15169733333333332
41614612 0.4248206666666667 0.14009366666666667
43100491 0.43837166666666666 0.11800533333333334
44586370 0.4516076666666667 0.09987766666666666
46072249 0.4654386666666666 0.07638233333333333
47558128 0.47997533333333336 0.059395333333333335
49044007 0.4961966666666667 0.04212066666666667
50529886 0.515021 0.027644000000000002
52015765 0.5367753333333333 -0.0015416666666666669
53501644 0.565248 -0.020343
54987523 0.6033056666666666 -0.045221333333333336
56473402 0.6564353333333334 -0.08333933333333333
57959281 0.7441416666666667 -0.099273
59445160 0.9021603333333333 -0.07904033333333334
60931039 0.9967246666666667 -0.048411666666666665
62416918 1.0015533333333333 -0.058438
63902797 1.0040136666666666 -0.068039
65388676 1.0064553333333333 -0.07714700000000001
66874555 1.0094793333333334 -0.07329933333333333
68360434 1.0027116666666667 -0.15769566666666665
69846313 1.013611 -0.051130666666666665
71332192 1.0156916666666667 -0.04610333333333333
72818071 1.014197 -0.09070466666666666
74303950 1.0150560000000002 -0.082075
75789829 1.0163146666666665 -0.014802000000000001
77275708 1.016929 -0.02295833333333333
78761587 1.0156976666666666 -0.017306666666666668
80247466 1.0080959999999999 -0.13455633333333336
81733345 1.0104086666666667 -0.08616933333333333
83219224 1.0070923333333333 -0.09736433333333333
84705103 1.0025546666666667 -0.12280600000000001
86190982 1.0047423333333334 0.0019276666666666667
87676861 0.9966636666666666 -0.11440966666666667
89162740 0.9952573333333333 -0.08932966666666665
90648619 0.9918886666666666 -0.10771633333333334
92134498 0.9965096666666667 -0.10601300000000001
93620377 1.0008223333333333 -0.07455066666666667
95106256 1.0015666666666665 -0.10216599999999999
96592135 1.0037703333333334 -0.10145933333333333
98078014 1.007562 -0.09634666666666665
99563893 1.0082806666666668 -0.09358033333333333
101049772 1.0100596666666666 -0.10759166666666665
102535651 1.0097589999999999 -0.10769766666666665
104021530 1.0098486666666666 -0.10905266666666667
105507409 1.0094523333333332 -0.11037266666666667
106993288 1.0096066666666665 -0.11132933333333334
108479167 1.0082226666666667 -0.11290533333333334
109965046 1.007264 -0.11288999999999999
111450925 1.0055803333333333 -0.113168
112936804 1.0028993333333334 -0.11447800000000001
114422683 1.0001823333333335 -0.11521333333333333
115908562 0.997531 -0.11628333333333334
117394441 0.9936623333333334 -0.11668866666666666
118880320 0.9898636666666666 -0.11763866666666667
120366199 0.9876066666666666 -0.11783466666666666
121852078 0.9921323333333335 -0.12096166666666668
123337957 0.996214 -0.12325799999999999
124823836 0.9998056666666667 -0.12515666666666667
126309715 1.0022469999999999 -0.12621000000000002
127795594 1.0052116666666666 -0.12929933333333335
129281473 1.0081083333333334 -0.12953766666666666
130767352 1.0102103333333334 -0.13127200000000003
132253231 1.011103 -0.13267033333333333
133739110 1.0128640000000002 -0.13319933333333334
135224989 0.9973003333333333 -0.14464400000000002
136710868 0.9979106666666667 -0.14582799999999999
138196747 0.9973156666666667 -0.14634633333333333
139682626 0.9968043333333333 -0.1474363333333333
141168505 0.9955596666666667 -0.14758766666666664
142654384 0.9940263333333332 -0.14734533333333333
144140263 0.9921443333333334 -0.14794866666666665
145626142 0.9901123333333333 -0.14848566666666665
147112021 0.988139 -0.14891233333333334
148597900 0.9846003333333333 -0.149103
150083779 0.9829863333333333 -0.143293
151569658 0.984871 -0.15156266666666665
153055537 0.9878423333333334 -0.15419133333333332
154541416 0.9897106666666667 -0.15647433333333333
156027295 0.9921953333333334 -0.15758399999999997
157513174 0.9941050000000001 -0.15846000000000002
158999053 0.9968363333333333 -0.16121466666666665
160484932 0.997559 -0.16166999999999998
161970811 0.9973873333333333 -0.16328166666666666
163456690 0.9985446666666666 -0.16437899999999997
164942569 0.9973946666666667 -0.165298
166428448 0.9985136666666667 -0.16607933333333336
167914327 0.9972553333333334 -0.1672003333333333
169400206 0.994997 -0.16826733333333332
170886085 0.9941516666666667 -0.16891966666666666
172371964 0.9563280000000001 -0.18963266666666667
173857843 0.9892409999999999 -0.171751
175343722 0.9866643333333333 -0.17298366666666665
176829601 0.9830796666666667 -0.17327133333333333
178315480 0.9793799999999999 -0.17453266666666667
179801359 0.9758346666666666 -0.17693766666666666
181287238 0.9774426666666667 -0.17817866666666668
182773117 0.980387 -0.18025500000000003
184258996 0.983656 -0.18201033333333336
185744875 0.9863580000000001 -0.18362866666666666
187230754 0.9887929999999999 -0.18580433333333332
188716633 0.9894696666666668 -0.186936
190202512 0.9914106666666666 -0.188254
191688391 0.9924406666666666 -0.18930099999999997
193174270 0.9918833333333333 -0.190671
194660149 0.9926136666666666 -0.192771
196146028 0.9919753333333334 -0.19322566666666666
197631907 0.9910883333333333 -0.194771
199117786 0.9892666666666666 -0.19602733333333333
200603665 0.9880576666666667 -0.19666733333333333
202089544 0.9858713333333333 -0.1982276666666667
203575423 0.9833103333333333 -0.1994773333333333
205061302 0.979785 -0.20154566666666665
206547181 0.9760459999999999 -0.202734
208033060 0.9725593333333333 -0.202881
209518939 0.9678483333333334 -0.20528633333333335
211004818 0.9697323333333333 -0.2078606666666667
212490697 0.972868 -0.20958200000000002
213976576 0.9761173333333334 -0.211232
215462455 0.9785893333333333 -0.21257666666666666
216948334 0.9810639999999999 -0.21501233333333336
218434213 0.9831486666666667 -0.21555233333333332
219920092 0.9845446666666667 -0.21722466666666665
221405971 0.985579 -0.218396
222891850 0.9859183333333333 -0.21942799999999998
224377729 0.9852313333333335 -0.22165500000000002
225863608 0.9850883333333332 -0.222004
227349487 0.9837333333333333 -0.22254566666666667
228835366 0.982259 -0.224243
230321245 0.9807333333333333 -0.226132
231807124 0.9783303333333334 -0.22655266666666665
233293003 0.9749393333333334 -0.22853366666666666
234778882 0.971619 -0.22910866666666665
236264761 0.9679953333333334 -0.2308456666666667
237750640 0.9639626666666666 -0.23226933333333333
239236519 0.9595953333333332 -0.233973
240722398 0.95858 -0.2355856666666667
242208277 0.9626456666666666 -0.23839999999999997
243694156 0.9658843333333333 -0.23949266666666666
245180035 0.9688783333333334 -0.241785
246665914 0.9708393333333335 -0.24416533333333335
248151793 0.9732223333333333 -0.24534
249637672 0.9741920000000001 -0.24614533333333333
251123551 0.9763723333333333 -0.24816666666666667
252609430 0.9758896666666667 -0.249731
254095309 0.9763106666666667 -0.25026933333333334
255581188 0.9760070000000001 -0.25168433333333334
257067067 0.9752496666666666 -0.2528976666666667
258552946 0.97399 -0.25365933333333335
260038825 0.9715026666666667 -0.25410366666666667
261524704 0.9695333333333332 -0.2547213333333333
263010583 0.9655139999999999 -0.256315
264496462 0.9627926666666666 -0.2573316666666667
265982341 0.9583363333333333 -0.258382
267468220 0.9539936666666667 -0.25908133333333333
268954099 0.9483600000000001 -0.26118966666666665
270439978 0.946686 -0.26241666666666663
271925857 0.9494266666666666 -0.2651443333333333
273411736 0.9535576666666667 -0.2683123333333333
274897615 0.957226 -0.2692616666666667
276383494 0.9602769999999999 -0.271399
277869373 0.9624063333333334 -0.27383766666666665
279355252 0.9628543333333334 -0.27571700000000005
280841131 0.9648403333333334 -0.27755399999999997
282327010 0.9661133333333334 -0.27908099999999997
283812889 0.9659746666666668 -0.280159
285298768 0.9657926666666667 -0.28089666666666663
286784647 0.9647923333333334 -0.281812
288270526 0.9634016666666666 -0.2828616666666666
289756405 0.9604516666666667 -0.283861
291242284 0.9589066666666666 -0.2839393333333333
292728163 0.9554876666666668 -0.28506499999999996
294214042 0.9518720000000002 -0.2861536666666667
295699921 0.9479173333333333 -0.286406
297185800 0.9430803333333332 -0.2878246666666667
298671679 0.9385413333333333 -0.28813333333333335
300157558 0.9346446666666667 -0.28854266666666667
301643437 0.9380226666666668 -0.29254700000000006
303129316 0.9417706666666666 -0.29491233333333333
304615195 0.9447573333333334 -0.2971063333333333
306101074 0.9472149999999999 -0.30158066666666666
307586953 0.9502416666666665 -0.3024116666666667
309072832 0.9518646666666667 -0.30401466666666666
310558711 0.9535993333333334 -0.305178
312044590 0.9541443333333334 -0.306641
313530469 0.9540633333333334 -0.3084503333333333
315016348 0.9539616666666667 -0.308992
316502227 0.952944 -0.31043766666666667
317988106 0.952109 -0.31155
319473985 0.949544 -0.310684
320959864 0.9479046666666666 -0.31098266666666663
322445743 0.94462 -0.31130633333333335
323931622 0.9410176666666668 -0.3118326666666667
325417501 0.937659 -0.312071
326903380 0.9325326666666666 -0.312487
328389259 0.9274166666666667 -0.3129986666666667
329875138 0.9223016666666667 -0.31452366666666665
331361017 0.9248983333333335 -0.3173093333333333
332846896 0.9284020000000001 -0.32043666666666665
334332775 0.9289109999999999 -0.328772
335818654 0.9320806666666667 -0.3310063333333333
337304533 0.9332873333333334 -0.333021
338790412 0.9363953333333334 -0.33105
340276291 0.9371673333333334 -0.33253399999999994
341762170 0.9379333333333334 -0.334659
343248049 0.9374983333333334 -0.3345023333333333
344733928 0.9356656666666666 -0.3402783333333333
346219807 0.9365209999999999 -0.3362766666666666
347705686 0.9352173333333335 -0.33677433333333334
349191565 0.9332949999999999 -0.33785933333333334
350677444 0.929894 -0.33912366666666666
352163323 0.9270646666666668 -0.33971466666666666
353649202 0.9242603333333334 -0.3394063333333333
355135081 0.9195310000000001 -0.33988033333333334
356620960 0.9153773333333334 -0.33808733333333335
358106839 0.910241 -0.33966466666666667
359592718 0.905011 -0.3391943333333334
361078597 0.9055146666666666 -0.3417866666666667
362564476 0.9091723333333332 -0.34570433333333334
364050355 0.9112906666666666 -0.34877766666666665
365536234 0.914364 -0.35168666666666665
367022113 0.9158503333333333 -0.35413466666666665
368507992 0.9170470000000001 -0.3567846666666667
369993871 0.9184389999999999 -0.35862166666666667
371479750 0.9197850000000001 -0.3601043333333333
372965629 0.919606 -0.36150433333333326
374451508 0.919917 -0.36246033333333333
375937387 0.9185873333333333 -0.36386133333333337
377423266 0.917799 -0.36423000000000005
378909145 0.9167863333333334 -0.36315633333333336
380395024 0.9147679999999999 -0.363215
381880903 0.9109513333333332 -0.3655056666666667
383366782 0.9084566666666666 -0.3650333333333333
384852661 0.90542 -0.3647753333333334
386338540 0.9015029999999999 -0.363197
387824419 0.897585 -0.36311333333333334
389310298 0.892956 -0.3619016666666666
390796177 0.8915693333333333 -0.36487200000000003
392282056 0.8940873333333332 -0.3686196666666666
393767935 0.8963126666666668 -0.37162366666666663
395253814 0.8985586666666666 -0.3742906666666666
396739693 0.9002973333333334 -0.37638366666666667
398225572 0.9022913333333333 -0.3781303333333333
399711451 0.903042 -0.380749
401197330 0.9035860000000001 -0.3827603333333333
402683209 0.9032266666666667 -0.383977
404169088 0.9032566666666666 -0.38447499999999996
405654967 0.9024903333333333 -0.3853866666666667
407140846 0.9007710000000001 -0.38645700000000005
408626725 0.9000130000000001 -0.386571
410112604 0.8984223333333334 -0.38601033333333334
411598483 0.8972983333333332 -0.38557933333333333
413084362 0.8936160000000001 -0.3863286666666667
414570241 0.890917 -0.38581333333333334
416056120 0.8858473333333334 -0.38554166666666667
417541999 0.8830493333333335 -0.3852163333333333
419027878 0.8782146666666666 -0.38465333333333335
420513757 0.8756216666666666 -0.385854
421999636 0.8779476666666667 -0.38995599999999997
423485515 0.8795699999999999 -0.39286166666666666
424971394 0.8823460000000001 -0.3950103333333333
426457273 0.883865 -0.39685466666666663
427943152 0.884445 -0.4008083333333334
429429031 0.8852356666666666 -0.40249
430914910 0.8864643333333334 -0.40364266666666665
432400789 0.8864926666666667 -0.40540133333333334
433886668 0.887054 -0.4065833333333333
435372547 0.8862643333333332 -0.4074136666666666
436858426 0.8845123333333333 -0.407459
438344305 0.8823263333333333 -0.40912166666666666
439830184 0.881187 -0.40917133333333333
441316063 0.8786736666666667 -0.4098653333333333
442801942 0.876618 -0.40892466666666666
444287821 0.8736353333333332 -0.4091613333333333
445773700 0.870041 -0.4097573333333333
447259579 0.8668333333333335 -0.4088583333333333
448745458 0.8615186666666667 -0.4086363333333333
450231337 0.8576866666666666 -0.40870866666666666
451717216 0.8602106666666667 -0.41141300000000003
453203095 0.8637446666666667 -0.4147323333333333
454688974 0.8649266666666667 -0.4171456666666667
456174853 0.8676553333333334 -0.4189716666666667
457660732 0.869313 -0.42180666666666666
459146611 0.8697050000000001 -0.42269033333333333
460632490 0.8692026666666667 -0.425982
462118369 0.870539 -0.42453133333333337
463604248 0.8692886666666667 -0.4273536666666667
465090127 0.8686020000000001 -0.42771800000000004
466576006 0.868201 -0.4273926666666667
468061885 0.8665633333333335 -0.4287513333333333
469547764 0.8647656666666667 -0.4281453333333333
471033643 0.863036 -0.42854333333333333
472519522 0.8596193333333333 -0.42851100000000003
474005401 0.856903 -0.42848966666666666
475491280 0.8538376666666667 -0.4277756666666666
476977159 0.8491196666666667 -0.4266923333333333
478463038 0.845256 -0.427561
479948917 0.8412273333333333 -0.42599666666666663
481434796 0.8431276666666666 -0.4283226666666667
482920675 0.846091 -0.4320306666666667
484406554 0.8462913333333333 -0.43512599999999996
485892433 0.8492416666666668 -0.4361203333333334
487378312 0.8504256666666666 -0.439275
488864191 0.8503866666666666 -0.44143533333333335
490350070 0.8527046666666666 -0.44252833333333336
491835949 0.8528479999999999 -0.44394533333333336
493321828 0.8524076666666667 -0.44522900000000004
494807707 0.8521886666666667 -0.4456313333333333
496293586 0.8520393333333334 -0.445457
497779465 0.850117 -0.446637
499265344 0.849522 -0.44643999999999995
500751223 0.8473890000000001 -0.44633933333333337
502237102 0.8450496666666666 -0.4473863333333334
503722981 0.841841 -0.44700566666666663
505208860 0.838388 -0.4464833333333333
506694739 0.8353473333333333 -0.44497500000000006
508180618 0.8301246666666667 -0.4458843333333333
509666497 0.826009 -0.44479099999999994
511152376 0.8273193333333332 -0.44664300000000007
512638255 0.829738 -0.4502446666666666
514124134 0.8309636666666668 -0.45320000000000005
515610013 0.8338343333333333 -0.4536176666666667
517095892 0.834868 -0.457487
518581771 0.8355876666666666 -0.45919766666666667
520067650 0.8360850000000001 -0.46081900000000003
521553529 0.8367183333333333 -0.46207833333333337
523039408 0.8366543333333333 -0.46285966666666667
524525287 0.8363443333333334 -0.46418333333333334
526011166 0.8356353333333333 -0.4633863333333333
527497045 0.8343053333333333 -0.4640573333333333
528982924 0.8336576666666667 -0.4648486666666667
530468803 0.8302606666666668 -0.465413
531954682 0.828178 -0.46463866666666664
533440561 0.8249103333333334 -0.46512899999999996
534926440 0.8219976666666667 -0.46443666666666666
536412319 0.8187796666666666 -0.4618856666666667
537898198 0.8125116666666666 -0.46294166666666675
539384077 0.8086773333333334 -0.4631976666666667
540869956 0.8076533333333334 -0.4643276666666667
542355835 0.8109816666666667 -0.465913
543841714 0.8128259999999999 -0.4679393333333333
545327593 0.8153073333333333 -0.4694406666666667
546813472 0.8171363333333334 -0.47063266666666664
548299351 0.8184413333333334 -0.47189733333333334
549785230 0.818277 -0.4728826666666666
551271109 0.8185583333333333 -0.47291733333333336
552756988 0.8190046666666667 -0.47196566666666667
554242867 0.817341 -0.4732443333333334
555728746 0.817958 -0.4727493333333333
557214625 0.8153586666666667 -0.471973
558700504 0.8137436666666668 -0.4707743333333334
560186383 0.8108606666666667 -0.4708206666666667
561672262 0.8083050000000002 -0.46952166666666667
563158141 0.8048796666666668 -0.4668753333333333
564644020 0.8009210000000001 -0.467664
566129899 0.797146 -0.46476633333333334
567615778 0.7920246666666667 -0.46323699999999995
569101657 0.7877106666666666 -0.46222633333333335
570587536 0.784163 -0.464517
572073415 0.7867843333333333 -0.4678003333333334
573559294 0.7884566666666667 -0.4720006666666667
575045173 0.7901143333333334 -0.4753513333333333
576531052 0.791382 -0.478277
578016931 0.7915933333333333 -0.48165966666666665
579502810 0.7928776666666666 -0.48421733333333333
580988689 0.7922646666666666 -0.48649433333333336
582474568 0.7925076666666667 -0.48991766666666664
583960447 0.7923650000000001 -0.4906546666666667
585446326 0.7903626666666667 -0.49330199999999996
586932205 0.7909193333333334 -0.492691
588418084 0.7883936666666665 -0.4950666666666667
589903963 0.7872516666666667 -0.49645333333333336
591389842 0.7846406666666667 -0.4960723333333334
592875721 0.7820506666666667 -0.4971006666666667
594361600 0.7796013333333334 -0.49712433333333333
595847479 0.7762446666666668 -0.49712833333333334
597333358 0.7724796666666668 -0.49610333333333334
598819237 0.7669030000000001 -0.497407
600305116 0.7639480000000001 -0.4985366666666667
601790995 0.7661566666666667 -0.5024506666666667
603276874 0.7694486666666668 -0.5046736666666667
604762753 0.7709306666666667 -0.5070896666666668
606248632 0.7730493333333333 -0.511525
607734511 0.7727793333333333 -0.514355
609220390 0.7747233333333333 -0.5152776666666666
610706269 0.774144 -0.5179733333333333
612192148 0.7752446666666667 -0.5187843333333333
613678027 0.775471 -0.519479
615163906 0.77602 -0.5193426666666666
616649785 0.7745976666666667 -0.521015
618135664 0.7740956666666667 -0.5201986666666667
619621543 0.8127833333333333 -0.5190993333333332
621107422 0.7704403333333333 -0.5195263333333333
622593301 0.7672606666666667 -0.5192823333333333
624079180 0.7653843333333333 -0.5190466666666667
625565059 0.7613553333333334 -0.5177236666666666
627050938 0.7577376666666668 -0.5163496666666666
628536817 0.7532743333333333 -0.5143116666666666
630022696 0.7794466666666665 -0.5054963333333333
631508575 0.7513346666666667 -0.516871
632994454 0.754041 -0.5197086666666667
634480333 0.7561733333333333 -0.522764
635966212 0.7557153333333333 -0.5271673333333334
637452091 0.7578469999999999 -0.5284589999999999
638937970 0.7576679999999999 -0.5313806666666666
640423849 0.759685 -0.5327283333333334
641909728 0.7600326666666666 -0.5321513333333333
643395607 0.7598086666666667 -0.5332176666666667
644881486 0.7600796666666666 -0.5352833333333334
646367365 0.7660773333333334 -0.528023
647853244 0.7571536666666666 -0.5340936666666667
649339123 0.7563233333333333 -0.5347163333333333
650825002 0.7536109999999999 -0.5333996666666666
652310881 0.7525703333333333 -0.5328213333333333
653796760 0.7482246666666666 -0.5311363333333333
655282639 0.7457443333333332 -0.5302606666666666
656768518 0.7430936666666667 -0.5287146666666667
658254397 0.7390503333333333 -0.5270023333333334
659740276 0.7349040000000001 -0.5235663333333334
661226155 0.735947 -0.5271343333333333
662712034 0.7357076666666668 -0.531513
664197913 0.737875 -0.5330283333333333
665683792 0.7401796666666667 -0.537886
667169671 0.7411963333333333 -0.5402416666666666
668655550 0.7425623333333334 -0.5401833333333333
670141429 0.7436086666666667 -0.5400126666666667
671627308 0.7430883333333332 -0.5417183333333333
673113187 0.7427336666666666 -0.5440776666666666
674599066 0.7439836666666667 -0.5420966666666667
676084945 0.7430106666666667 -0.5419423333333334
677570824 0.7411850000000001 -0.5432556666666667
679056703 0.7408113333333333 -0.5413483333333332
680542582 0.739277 -0.5405346666666666
682028461 0.7380780000000001 -0.5407006666666666
683514340 0.734775 -0.5379603333333334
685000219 0.7333850000000001 -0.5358636666666667
686486098 0.7287263333333334 -0.5339853333333333
687971977 0.725531 -0.5322796666666666
689457856 0.7209499999999999 -0.5309389999999999
690943735 0.7195126666666667 -0.532301
692429614 0.7206093333333333 -0.5365866666666667
693915493 0.7213003333333333 -0.5393946666666667
695401372 0.7227553333333333 -0.5427406666666666
696887251 0.7223433333333333 -0.5452846666666668
698373130 0.7221476666666667 -0.5476943333333334
699859009 0.7229656666666666 -0.549109
701344888 0.7235486666666667 -0.549929
702830767 0.7226433333333334 -0.5515033333333333
704316646 0.721965 -0.5516596666666667
705802525 0.719918 -0.552837
707288404 0.7184423333333334 -0.555159
708774283 0.717971 -0.5524183333333333
710260162 0.7161210000000001 -0.5530523333333334
711746041 0.7114180000000001 -0.554485
713231920 0.7089753333333334 -0.5539603333333334
714717799 0.7063003333333334 -0.5510443333333334
716203678 0.7027963333333332 -0.551764
717689557 0.6987646666666666 -0.552542
719175436 0.6945830000000001 -0.5503203333333333
720661315 0.6930656666666666 -0.5512046666666667
722147194 0.695858 -0.553191
723633073 0.6970866666666667 -0.5579200000000001
725118952 0.6969799999999999 -0.560325
726604831 0.6981453333333333 -0.5625343333333334
728090710 0.6985223333333334 -0.565012
729576589 0.7005776666666667 -0.565737
731062468 0.699404 -0.5683293333333334
732548347 0.6990959999999999 -0.5688070000000001
734034226 0.7003596666666666 -0.5696793333333333
735520105 0.6984273333333334 -0.5698356666666667
737005984 0.699058 -0.5689903333333334
738491863 0.6969756666666668 -0.568758
739977742 0.695116 -0.5692666666666667
741463621 0.6926263333333335 -0.5692146666666665
742949500 0.6903733333333334 -0.5690213333333333
744435379 0.6890173333333333 -0.5667523333333332
745921258 0.685069 -0.5664283333333334
747407137 0.6812066666666666 -0.5658110000000001
748893016 0.6780656666666666 -0.5640446666666667
750378895 0.675534 -0.5636623333333334
751864774 0.6772353333333334 -0.566361
753350653 0.6782879999999999 -0.5685169999999999
754836532 0.6784093333333333 -0.570863
756322411 0.6811656666666667 -0.5741306666666667
757808290 0.6800546666666666 -0.576419
759294169 0.6812733333333334 -0.5770653333333333
760780048 0.6808263333333334 -0.5796626666666667
762265927 0.680141 -0.5799936666666666
763751806 0.6796253333333334 -0.5802983333333334
765237685 0.6794523333333333 -0.579656
766723564 0.6776703333333334 -0.581369
768209443 0.6763886666666666 -0.5802139999999999
769695322 0.6700773333333333 -0.5836986666666667
771181201 0.6760396666666667 -0.5762133333333334
772667080 0.6726693333333333 -0.576243
774152959 0.670512 -0.575241
775638838 0.6687123333333332 -0.573149
777124717 0.6641266666666666 -0.5728033333333333
778610596 0.6604786666666667 -0.5707973333333334
780096475 0.6550783333333333 -0.5703779999999999
781582354 0.6574976666666666 -0.5726853333333334
783068233 0.6593939999999999 -0.575244
784554112 0.6619203333333333 -0.5782436666666667
786039991 0.6629103333333334 -0.580204
787525870 0.6638113333333334 -0.58287
789011749 0.6638543333333333 -0.585009
790497628 0.6658486666666666 -0.5850686666666668
791983507 0.6663056666666666 -0.5868096666666667
793469386 0.6662276666666667 -0.5868296666666666
794955265 0.6644896666666666 -0.587519
796441144 0.664444 -0.5864996666666666
797927023 0.6564646666666666 -0.5928063333333333
799412902 0.6610773333333334 -0.5873626666666666
800898781 0.652502 -0.5918813333333334
802384660 0.6589253333333333 -0.5835086666666666
803870539 0.6487873333333334 -0.5896303333333334
805356418 0.6541876666666667 -0.581086
806842297 0.6428346666666667 -0.585187
808328176 0.6469239999999999 -0.57836
809814055 0.6393603333333333 -0.5790996666666667
811299934 0.639015 -0.5819933333333333
812785813 0.641557 -0.5848973333333333
814271692 0.642353 -0.5874376666666667
815757571 0.642557 -0.5905793333333333
817243450 0.6426073333333334 -0.592873
818729329 0.6437446666666666 -0.5957103333333333
820215208 0.6437996666666667 -0.5968483333333333
821701087 0.6432300000000001 -0.5972236666666667
823186966 0.642829 -0.5987703333333333
824672845 0.6421476666666667 -0.5996696666666667
826158724 0.6419976666666667 -0.5994113333333333
827644603 0.6396716666666666 -0.6016233333333333
829130482 0.6385906666666666 -0.6006343333333334
830616361 0.602401 -0.5919686666666667
832102240 0.6347186666666667 -0.5991276666666666
833588119 0.6305636666666667 -0.598111
835073998 0.6272333333333333 -0.5979866666666666
836559877 0.625244 -0.5963086666666666
838045756 0.6214026666666667 -0.5948696666666667
839531635 0.6182136666666667 -0.5927733333333333
841017514 0.6177116666666667 -0.593982
842503393 0.618275 -0.5974860000000001
843989272 0.6197653333333334 -0.6016866666666666
845475151 0.6206243333333333 -0.603865
846961030 0.6213446666666668 -0.6076676666666667
848446909 0.622021 -0.6081449999999999
849932788 0.6238389999999999 -0.610098
851418667 0.623699 -0.6106090000000001
852904546 0.6236436666666667 -0.6104936666666666
854390425 0.6226373333333334 -0.6105349999999999
855876304 0.6221826666666667 -0.6117633333333333
857362183 0.620629 -0.6119333333333333
858848062 0.6201653333333333 -0.6114773333333333
860333941 0.616647 -0.6116876666666667
861819820 0.6156733333333333 -0.6092373333333333
863305699 0.6121116666666667 -0.6082243333333334
864791578 0.611095 -0.6056016666666666
866277457 0.607374 -0.6055556666666666
867763336 0.6034656666666667 -0.60397
869249215 0.6010583333333334 -0.6006673333333333
870735094 0.6000103333333332 -0.6013843333333334
872220973 0.6007866666666667 -0.6046173333333335
873706852 0.60142 -0.6075156666666667
875192731 0.6024376666666668 -0.6098143333333333
876678610 0.6045313333333333 -0.6116396666666667
878164489 0.6040176666666667 -0.614337
879650368 0.603391 -0.6163013333333334
881136247 0.6044996666666667 -0.6178866666666667
882622126 0.6041423333333333 -0.6193719999999999
884108005 0.6039366666666667 -0.6192340000000001
885593884 0.6034853333333333 -0.6194953333333334
887079763 0.6044586666666666 -0.6174603333333333
888565642 0.6005343333333334 -0.6180789999999999
890051521 0.5998473333333333 -0.6177766666666665
891537400 0.5979026666666667 -0.6174546666666667
893023279 0.5961473333333333 -0.6153986666666666
894509158 0.59293 -0.6137893333333333
895995037 0.5922203333333332 -0.610715
897480916 0.588114 -0.6085349999999999
898966795 0.5830296666666667 -0.6066703333333333
900452674 0.5825589999999999 -0.6059706666666665
901938553 0.5844363333333333 -0.6089886666666667
903424432 0.5843653333333334 -0.61203
904910311 0.586019 -0.6150186666666667
906396190 0.5859763333333333 -0.617056
907882069 0.5849903333333333 -0.6209143333333333
909367948 0.5862723333333334 -0.6213676666666667
910853827 0.5862936666666666 -0.6218339999999999
912339706 0.5866123333333334 -0.6227953333333334
913825585 0.5863263333333333 -0.6248786666666667
915311464 0.584634 -0.6272496666666667
916797343 0.5832753333333333 -0.624753
918283222 0.5783633333333333 -0.6288093333333333
919769101 0.580909 -0.623009
921254980 0.5799173333333333 -0.6229063333333333
922740859 0.5787539999999999 -0.6190783333333334
924226738 0.5757633333333333 -0.620556
925712617 0.571481 -0.6188306666666666
927198496 0.570054 -0.6165206666666667
928684375 0.5667116666666666 -0.6136356666666666
930170254 0.5651673333333332 -0.608548
931656133 0.5644296666666667 -0.6158153333333333
933142012 0.5665023333333333 -0.6175663333333333
934627891 0.5670976666666667 -0.6203489999999999
936113770 0.5645663333333334 -0.625698
937599649 0.5692216666666666 -0.6248523333333333
939085528 0.5701576666666667 -0.6263413333333333
940571407 0.5697496666666667 -0.6275013333333334
942057286 0.570867 -0.6278320000000001
943543165 0.5698423333333333 -0.6296006666666667
945029044 0.5709343333333333 -0.628413
946514923 0.5691303333333334 -0.6284363333333334
948000802 0.568734 -0.6291306666666666
949486681 0.5686490000000001 -0.628792
950972560 0.567697 -0.6270883333333334
952458439 0.5650336666666668 -0.6270513333333333
953944318 0.5615743333333333 -0.6281516666666667
955430197 0.5614076666666667 -0.6227213333333333
956916076 0.5605506666666666 -0.6197719999999999
958401955 0.5579753333333334 -0.6184596666666667
959887834 0.556718 -0.614871
961373713 0.557197 -0.6186256666666666
962859592 0.5563723333333334 -0.6214426666666667
964345471 0.5565083333333333 -0.6235203333333333
965831350 0.5576186666666666 -0.6256113333333333
967317229 0.557416 -0.6280020000000001
968803108 0.557164 -0.6291566666666667
970288987 0.5571609999999999 -0.6305386666666667
971774866 0.565252 -0.6266973333333333
973260745 0.5572836666666666 -0.6325850000000001
974746624 0.555561 -0.6333596666666667
976232503 0.5551233333333333 -0.6331436666666667
977718382 0.5541723333333334 -0.6339166666666666
979204261 0.552146 -0.6326206666666666
980690140 0.5515246666666668 -0.6319566666666666
982176019 0.548694 -0.632317
983661898 0.5271323333333333 -0.6333506666666667
985147777 0.5461746666666666 -0.6293083333333332
986633656 0.5421456666666665 -0.628453
988119535 0.541761 -0.625427
989605414 0.538211 -0.6228246666666667
991091293 0.5385106666666667 -0.6248239999999999
992577172 0.5391363333333333 -0.62667
994063051 0.5394796666666667 -0.6296336666666668
995548930 0.540368 -0.6318246666666667
997034809 0.5387806666666667 -0.6342926666666666
998520688 0.5371373333333334 -0.6360779999999999
1000006567 0.5404743333333334 -0.6361606666666667
1001492446 0.539378 -0.6373266666666667
1002978325 0.539655 -0.6379703333333333
1004464204 0.538978 -0.6374436666666666
1005950083 0.537497 -0.6376906666666666
1007435962 0.5363413333333332 -0.6384326666666666
1008921841 0.5372026666666666 -0.6356546666666666
1010407720 0.5342903333333333 -0.6359056666666666
1011893599 0.5339856666666667 -0.633736
1013379478 0.5311976666666666 -0.63433
1014865357 0.5292956666666667 -0.6316109999999999
1016351236 0.5257053333333334 -0.6304896666666667
1017837115 0.5242036666666667 -0.6269796666666666
1019322994 0.521775 -0.6255413333333333
1020808873 0.5199426666666667 -0.627076
1022294752 0.5205733333333332 -0.630151
1023780631 0.5233626666666668 -0.6307596666666667
1025266510 0.5206069999999999 -0.6344463333333333
1026752389 0.5207936666666667 -0.6369530000000001
1028238268 0.5230153333333333 -0.6369273333333334
1029724147 0.5230433333333333 -0.6373473333333334
1031210026 0.5225833333333333 -0.6390686666666666
1032695905 0.5226806666666667 -0.640621
1034181784 0.5218929999999999 -0.6393993333333333
1035667663 0.5227763333333333 -0.6400486666666667
1037153542 0.520603 -0.6392706666666667
1038639421 0.519139 -0.6398936666666667
1040125300 0.5188186666666667 -0.638926
1041611179 0.5157703333333333 -0.6384736666666667
1043097058 0.512833 -0.6376026666666667
1044582937 0.5119856666666666 -0.6365946666666666
1046068816 0.5115833333333334 -0.6332766666666667
1047554695 0.5081566666666667 -0.6321853333333333
1049040574 0.5047193333333334 -0.6308293333333334
1050526453 0.5040033333333334 -0.6304223333333333
1052012332 0.5053746666666666 -0.6329793333333334
1053498211 0.5045639999999999 -0.636114
1054984090 0.5060556666666667 -0.6382789999999999
1056469969 0.5062563333333333 -0.6397003333333333
1057955848 0.5062746666666667 -0.6422106666666667
1059441727 0.5060283333333333 -0.6430943333333334
1060927606 0.5072749999999999 -0.6445376666666666
1062413485 0.5070283333333333 -0.645225
1063899364 0.5080033333333334 -0.6456193333333333
1065385243 0.5061680000000001 -0.646106
1066871122 0.5042216666666667 -0.6460103333333334
1068357001 0.503885 -0.6460673333333333
1069842880 0.5362726666666667 -0.6661940000000001
1071328759 0.5018013333333333 -0.643202
1072814638 0.49908933333333333 -0.6427566666666666
1074300517 0.4987633333333334 -0.6406313333333333
1075786396 0.49542366666666665 -0.639304
1077272275 0.4943583333333333 -0.6385703333333334
1078758154 0.4892606666666666 -0.6356959999999999
1080244033 0.48610499999999995 -0.6360733333333334
1081729912 0.48784333333333335 -0.6369716666666666
1083215791 0.4892716666666666 -0.6403156666666666
1084701670 0.48967366666666673 -0.6418733333333333
1086187549 0.491039 -0.64415
1087673428 0.4916393333333333 -0.646349
1089159307 0.49213066666666666 -0.6465806666666667
1090645186 0.49079433333333333 -0.6476933333333333
1092131065 0.49124066666666666 -0.6484306666666666
1093616944 0.49087200000000003 -0.6506573333333333
1095102823 0.4930323333333333 -0.648045
1096588702 0.4909926666666667 -0.647342
1098074581 0.49153966666666665 -0.648661
1099560460 0.488591 -0.647422
1101046339 0.487171 -0.6450673333333333
1102532218 0.485477 -0.6439566666666666
1104018097 0.4837863333333334 -0.6406096666666666
1105503976 0.48140166666666667 -0.6397013333333333
1106989855 0.47744766666666666 -0.638367
1108475734 0.47425133333333336 -0.6373823333333334
1109961613 0.4720416666666667 -0.6344156666666666
1111447492 0.4702936666666666 -0.6394816666666666
1112933371 0.4729003333333333 -0.6406363333333333
1114419250 0.47379766666666673 -0.6435550000000001
1115905129 0.47228133333333333 -0.647856
1117391008 0.47478 -0.6479469999999999
1118876887 0.4748266666666667 -0.6492943333333333
1120362766 0.47477366666666665 -0.6503786666666667
1121848645 0.4759883333333333 -0.6504796666666667
1123334524 0.474563 -0.6520013333333333
1124820403 0.47333066666666673 -0.6505756666666667
1126306282 0.4750016666666667 -0.652857
1127792161 0.47274733333333335 -0.6518003333333333
1129278040 0.47154 -0.651677
1130763919 0.4699 -0.6521213333333334
1132249798 0.4691013333333333 -0.6496059999999999
1133735677 0.4659873333333333 -0.6484373333333333
1135221556 0.463053 -0.646688
1136707435 0.4629376666666667 -0.6447486666666666
1138193314 0.4562083333333333 -0.6434623333333334
1139679193 0.4545093333333334 -0.6396616666666667
1141165072 0.4567616666666667 -0.641027
1142650951 0.45623033333333335 -0.644899
1144136830 0.4571446666666667 -0.648135
1145622709 0.4568396666666667 -0.6504533333333332
1147108588 0.45847066666666664 -0.6517326666666666
1148594467 0.4583886666666667 -0.65273
1150080346 0.459779 -0.6531873333333333
1151566225 0.4587573333333334 -0.6555156666666667
1153052104 0.4590073333333333 -0.6559553333333333
1154537983 0.4581826666666667 -0.6555960000000001
1156023862 0.45758366666666667 -0.655117
1157509741 0.456377 -0.655401
1158995620 0.45437866666666665 -0.6540456666666666
1160481499 0.454658 -0.6525203333333333
1161967378 0.45237499999999997 -0.6494563333333333
1163453257 0.44934466666666667 -0.6498033333333334
1164939136 0.4469726666666667 -0.6487053333333334
1166425015 0.4441976666666667 -0.64518
1167910894 0.443887 -0.642699
1169396773 0.44050000000000006 -0.6404666666666667
1170882652 0.43818266666666666 -0.641938
1172368531 0.43692366666666665 -0.6447363333333332
1173854410 0.43724066666666667 -0.6475916666666667
1175340289 0.43953299999999995 -0.6482040000000001
1176826168 0.4388563333333333 -0.650891
1178312047 0.43919166666666665 -0.6521246666666668
1179797926 0.4388 -0.6535556666666666
1181283805 0.4379216666666667 -0.653763
1182769684 0.436982 -0.6559043333333333
1184255563 0.437491 -0.654472
1185741442 0.43595266666666666 -0.6554123333333334
1187227321 0.43401700000000004 -0.6563103333333333
1188713200 0.43455666666666665 -0.6533460000000001
1190199079 0.43270566666666666 -0.6528706666666667
1191684958 0.4309986666666667 -0.6509436666666667
1193170837 0.429587 -0.6492406666666667
1194656716 0.427642 -0.6474353333333334
1196142595 0.4249536666666667 -0.6455576666666667
1197628474 0.4214336666666667 -0.6426753333333334
1199114353 0.4187596666666667 -0.6408143333333333
1200600232 0.41702700000000004 -0.6401976666666667
1202086111 0.41889766666666667 -0.643085
1203571990 0.4163513333333333 -0.6482186666666666
1205057869 0.418703 -0.649003
1206543748 0.4183503333333333 -0.652118
1208029627 0.41938566666666666 -0.6543709999999999
1209515506 0.41936700000000005 -0.6558346666666667
1211001385 0.41933966666666667 -0.6567383333333333
1212487264 0.419202 -0.6574036666666667
1213973143 0.420004 -0.656946
1215459022 0.42041799999999996 -0.657805
1216944901 0.4200893333333333 -0.657717
1218430780 0.41873266666666664 -0.6572103333333333
1219916659 0.41672533333333334 -0.655431
1221402538 0.4184273333333333 -0.6538343333333333
1222888417 0.41567499999999996 -0.653674
1224374296 0.41565 -0.6499116666666667
1225860175 0.394781 -0.6507203333333332
1227346054 0.410996 -0.645517
1228831933 0.40928000000000003 -0.6428433333333333
1230317812 0.4063853333333333 -0.6417843333333334
1231803691 0.3970496666666667 -0.648024
1233289570 0.4085856666666667 -0.6466193333333333
1234775449 0.4030026666666666 -0.6504433333333334
1236261328 0.408619 -0.6511636666666667
1237747207 0.404572 -0.6541266666666666
1239233086 0.40434866666666663 -0.6560226666666666
1240718965 0.40621633333333335 -0.6546333333333334
1242204844 0.4057486666666667 -0.6573386666666666
1243690723 0.40497999999999995 -0.6545506666666667
1245176602 0.4064033333333334 -0.6554393333333333
1246662481 0.4052483333333334 -0.6548573333333333
1248148360 0.40419866666666665 -0.6545569999999999
1249634239 0.4045473333333333 -0.6519056666666666
1251120118 0.41061366666666665 -0.648136
1252605997 0.41037999999999997 -0.6463346666666667
1254091876 0.4083873333333334 -0.6444086666666666
1255577755 0.397324 -0.6452456666666667
1257063634 0.408617 -0.636511
1258549513 0.39655599999999996 -0.6377659999999999
1260035392 0.39685033333333336 -0.6356156666666667
1261521271 0.39764333333333335 -0.6380530000000001
1263007150 0.396371 -0.6393273333333334
1264493029 0.39547299999999996 -0.6444556666666666
1265978908 0.39565133333333335 -0.644578
1267464787 0.3974043333333333 -0.6452276666666666
1268950666 0.39648900000000004 -0.648183
1270436545 0.3948476666666667 -0.6500026666666666
1271922424 0.39350966666666665 -0.6528226666666667
1273408303 0.3933056666666666 -0.6518660000000001
1274894182 0.3924036666666666 -0.6540750000000001
1276380061 0.3907036666666666 -0.6526396666666666
1277865940 0.39285733333333334 -0.6507756666666666
1279351819 0.3902986666666666 -0.6524296666666666
1280837698 0.38641466666666663 -0.6525556666666668
1282323577 0.38721333333333335 -0.6492119999999999
1283809456 0.3844513333333334 -0.648972
1285295335 0.3805613333333333 -0.648322
1286781214 0.38156266666666666 -0.645039
1288267093 0.3789146666666667 -0.644644
1289752972 0.37647633333333336 -0.6407336666666666
1291238851 0.3789386666666667 -0.6426333333333334
1292724730 0.378731 -0.64704
1294210609 0.3792063333333333 -0.6474526666666667
1295696488 0.37904766666666667 -0.6493386666666666
1297182367 0.37848666666666664 -0.6519346666666667
1298668246 0.3780576666666667 -0.6525213333333333
1300154125 0.3806633333333333 -0.6558166666666666
1301640004 0.3825716666666667 -0.6535463333333333
1303125883 0.379979 -0.6542709999999999
1304611762 0.379523 -0.6547869999999999
1306097641 0.380462 -0.6549226666666667
1307583520 0.3813246666666667 -0.654354
1309069399 0.379677 -0.6545703333333334
1310555278 0.38120833333333337 -0.6510060000000001
1312041157 0.3778713333333334 -0.6515019999999999
1313527036 0.37821499999999997 -0.6495563333333333
1315012915 0.3767453333333333 -0.6476493333333333
1316498794 0.3745226666666667 -0.6447103333333334
1317984673 0.37482733333333335 -0.6443263333333333
1319470552 0.3727833333333333 -0.640622
1320956431 0.3716006666666667 -0.6409026666666667
1322442310 0.3716730000000001 -0.6453073333333333
1323928189 0.3742913333333333 -0.6460636666666667
1325414068 0.37411700000000003 -0.6478616666666667
1326899947 0.3756516666666667 -0.6495986666666665
1328385826 0.3741353333333333 -0.6533093333333332
1329871705 0.37495666666666666 -0.6547396666666666
1331357584 0.3753343333333334 -0.6553939999999999
1332843463 0.3774513333333333 -0.6554296666666667
1334329342 0.3760223333333334 -0.6560476666666667
1335815221 0.37379633333333334 -0.6566123333333334
1337301100 0.3730313333333333 -0.6554793333333334
1338786979 0.371651 -0.6568483333333334
1340272858 0.3728876666666667 -0.6541506666666667
1341758737 0.3702743333333333 -0.6549233333333334
1343244616 0.3706693333333333 -0.6529953333333333
1344730495 0.367418 -0.6524030000000001
1346216374 0.367817 -0.650314
1347702253 0.36738200000000004 -0.6481823333333333
1349188132 0.36554633333333336 -0.6475446666666668
1350674011 0.3634093333333333 -0.648404
1352159890 0.363987 -0.648146
1353645769 0.363787 -0.6509393333333334
1355131648 0.36241733333333337 -0.652804
1356617527 0.36247233333333334 -0.6546913333333333
1358103406 0.3637333333333334 -0.6555766666666667
1359589285 0.3625373333333333 -0.6556753333333334
1361075164 0.3638246666666667 -0.6553723333333333
1362561043 0.35924200000000006 -0.6570710000000001
1364046922 0.35931466666666667 -0.6568486666666666
1365532801 0.35657466666666665 -0.6563513333333333
1367018680 0.355323 -0.6565610000000001
1368504559 0.3545666666666667 -0.654817
1369990438 0.3503326666666666 -0.6545256666666667
1371476317 0.3507153333333333 -0.653018
1372962196 0.34926100000000004 -0.6520736666666667
1374448075 0.34743266666666667 -0.6503943333333333
1375933954 0.34427499999999994 -0.6494663333333334
1377419833 0.3235696666666667 -0.6233313333333333
1378905712 0.3374023333333333 -0.6462286666666667
1380391591 0.3372173333333333 -0.6456663333333333
1381877470 0.33809766666666663 -0.647313
1383363349 0.3366746666666667 -0.6499496666666666
1384849228 0.3408336666666667 -0.652976
1386335107 0.341418 -0.6550766666666666
1387820986 0.34362833333333337 -0.6548229999999999
1389306865 0.34147833333333333 -0.657798
1390792744 0.3422133333333333 -0.6595506666666666
1392278623 0.343785 -0.6578923333333333
1393764502 0.3482366666666667 -0.6578393333333333
1395250381 0.346873 -0.6579073333333333
1396736260 0.34553433333333333 -0.6587926666666667
1398222139 0.3457036666666667 -0.656976
1399708018 0.3463853333333333 -0.6546583333333333
1401193897 0.3432816666666667 -0.6548786666666667
1402679776 0.3444386666666666 -0.65279
1404165655 0.3434683333333333 -0.6523713333333333
1405651534 0.34168233333333337 -0.649894
1407137413 0.34082133333333337 -0.646555
1408623292 0.3385753333333333 -0.6449126666666666
1410109171 0.33649033333333334 -0.6436703333333332
1411595050 0.341508 -0.6463736666666667
1413080929 0.3428086666666667 -0.648302
1414566808 0.3400193333333334 -0.6527916666666668
1416052687 0.34119866666666665 -0.6541293333333333
1417538566 0.3425766666666667 -0.65498
1419024445 0.3452773333333334 -0.6566343333333333
1420510324 0.34545166666666666 -0.658103
1421996203 0.34620333333333336 -0.6592536666666666
1423482082 0.34777166666666665 -0.6589073333333334
1424967961 0.3453173333333333 -0.659814
1426453840 0.346609 -0.6579766666666668
1427939719 0.34589866666666663 -0.6601813333333334
1429425598 0.34375399999999995 -0.6587803333333334
1430911477 0.3703446666666667 -0.6721843333333334
1432397356 0.3452496666666667 -0.6569246666666667
1433883235 0.3431983333333333 -0.6561843333333334
1435369114 0.342716 -0.65295
1436854993 0.33852733333333335 -0.6517740000000001
1438340872 0.340014 -0.648117
1439826751 0.33631700000000003 -0.6467693333333333
1441312630 0.337982 -0.6481309999999999
1442798509 0.33659833333333333 -0.6495836666666667
1444284388 0.33826033333333333 -0.652807
1445770267 0.33966633333333335 -0.6537196666666666
1447256146 0.3413483333333333 -0.655758
1448742025 0.3389853333333333 -0.6568266666666667
1450227904 0.33876066666666665 -0.6568113333333333
1451713783 0.33814666666666665 -0.657936
1453199662 0.33836000000000005 -0.657858
1454685541 0.338925 -0.657546
1456171420 0.33774433333333337 -0.6574369999999999
1457657299 0.3343686666666667 -0.6562573333333334
1459143178 0.33492666666666665 -0.6547273333333333
1460629057 0.33216566666666664 -0.6537623333333333
1462114936 0.332473 -0.6522036666666667
1463600815 0.33006566666666665 -0.6510176666666667
1465086694 0.32626099999999997 -0.6485056666666666
1466572573 0.3256273333333333 -0.6452203333333334
1468058452 0.32338399999999995 -0.6437663333333333
1469544331 0.321637 -0.6412853333333334
1471030210 0.318753 -0.6430173333333333
1472516089 0.31928433333333334 -0.6474693333333333
1474001968 0.317467 -0.6496323333333334
1475487847 0.3197236666666667 -0.6523966666666667
1476973726 0.3197156666666667 -0.6536353333333333
1478459605 0.32195966666666664 -0.654926
1479945484 0.322162 -0.6578663333333333
1481431363 0.322571 -0.6565603333333333
1482917242 0.32335200000000003 -0.6574826666666667
1484403121 0.32377700000000004 -0.6571426666666668
1485889000 0.3219146666666666 -0.658295
1487374879 0.32244766666666663 -0.657309
1488860758 0.32185566666666665 -0.655854
1490346637 0.3215886666666667 -0.6550793333333332
1491832516 0.320652 -0.6529623333333333
1493318395 0.31822333333333336 -0.6522286666666667
1494804274 0.315166 -0.6498383333333334
1496290153 0.315146 -0.6478303333333334
1497776032 0.313209 -0.6450436666666667
1499261911 0.31094566666666673 -0.6429676666666667
1500747790 0.311788 -0.6421773333333333
1502233669 0.30951033333333333 -0.6465806666666667
1503719548 0.3105796666666667 -0.6479353333333333
1505205427 0.31031499999999995 -0.650458
1506691306 0.3103903333333333 -0.652457
1508177185 0.31149299999999996 -0.6540383333333333
1509663064 0.308589 -0.6547216666666666
1511148943 0.31097233333333335 -0.654488
1512634822 0.308562 -0.6566903333333333
1514120701 0.307871 -0.6568066666666666
1515606580 0.3079003333333334 -0.6564293333333333
1517092459 0.3076333333333333 -0.656564
1518578338 0.3070173333333333 -0.6555789999999999
1520064217 0.30395099999999997 -0.6572916666666667
1521550096 0.30468233333333333 -0.651977
1523035975 0.30300866666666665 -0.6499593333333333
1524521854 0.29653033333333334 -0.6483803333333333
1526007733 0.28702099999999997 -0.6456003333333333
1527493612 0.29486366666666664 -0.643403
1528979491 0.29554433333333335 -0.6413553333333333
1530465370 0.29375899999999994 -0.6396856666666667
1531951249 0.29257 -0.6428036666666667
1533437128 0.293226 -0.6448113333333333
1534923007 0.2933586666666667 -0.6487010000000001
1536408886 0.29219100000000003 -0.6510196666666667
1537894765 0.2928403333333333 -0.6521663333333333
1539380644 0.294587 -0.6529773333333333
1540866523 0.2932023333333333 -0.6541506666666667
1542352402 0.29502366666666663 -0.6544289999999999
1543838281 0.28934600000000005 -0.6551079999999999
1545324160 0.29708799999999996 -0.6534493333333333
1546810039 0.29713666666666666 -0.6518093333333334
1548295918 0.2960506666666667 -0.6508756666666667
1549781797 0.2964273333333333 -0.647779
1551267676 0.28208733333333336 -0.6503156666666666
1552753555 0.2945143333333333 -0.6449476666666668
1554239434 0.28431333333333336 -0.6457783333333333
1555725313 0.2903696666666667 -0.6398739999999999
1557211192 0.283557 -0.6403106666666666
1558697071 0.2858846666666667 -0.6338963333333334
1560182950 0.2765136666666666 -0.635351
1561668829 0.28469333333333335 -0.6356846666666667
1563154708 0.27731066666666665 -0.6411133333333333
1564640587 0.2850766666666667 -0.641198
1566126466 0.2763956666666667 -0.6465343333333333
1567612345 0.28608866666666666 -0.644856
1569098224 0.2764993333333333 -0.6487696666666667
1570584103 0.28410433333333335 -0.6487846666666667
1572069982 0.27789766666666665 -0.6509443333333333
1573555861 0.2884856666666667 -0.6484606666666667
1575041740 0.277247 -0.6523363333333334
1576527619 0.2833563333333333 -0.6501509999999999
1578013498 0.2672326666666667 -0.6530400000000001
1579499377 0.28447133333333335 -0.6472603333333333
1580985256 0.275824 -0.6492626666666667
1582471135 0.28159399999999996 -0.6456823333333334
1583957014 0.27329633333333336 -0.6458933333333333
1585442893 0.27801166666666666 -0.64284
1586928772 0.27107533333333333 -0.6409276666666667
1588414651 0.27457766666666666 -0.6373840000000001
1589900530 0.26698666666666665 -0.636142
1591386409 0.272761 -0.6374420000000001
1592872288 0.2658873333333333 -0.6426473333333332
1594358167 0.2736456666666667 -0.6421066666666667
1595844046 0.271954 -0.6452553333333334
1597329925 0.2703833333333333 -0.6472423333333334
1598815804 0.2704056666666666 -0.6488303333333333
1600301683 0.27138533333333337 -0.6488360000000001
1601787562 0.2702306666666667 -0.6502936666666667
1603273441 0.2708013333333334 -0.6502103333333333
1604759320 0.271138 -0.6506789999999999
1606245199 0.2708216666666667 -0.6499926666666667
1607731078 0.2689256666666667 -0.6499196666666666
1609216957 0.2700206666666667 -0.648192
1610702836 0.26943666666666666 -0.647146
1612188715 0.2672656666666667 -0.6467740000000001
1613674594 0.2669743333333333 -0.6452463333333333
1615160473 0.26725200000000005 -0.6427456666666665
1616646352 0.2650513333333333 -0.6388223333333333
1618132231 0.26387 -0.6371746666666667
1619618110 0.2630053333333333 -0.634204
1621103989 0.261941 -0.6370619999999999
1622589868 0.263451 -0.637501
1624075747 0.26114299999999996 -0.6405949999999999
1625561626 0.262011 -0.6421923333333334
1627047505 0.261156 -0.6438396666666667
1628533384 0.261536 -0.6452709999999999
1630019263 0.2610586666666667 -0.6458513333333333
1631505142 0.257197 -0.6492453333333333
1632991021 0.26052366666666665 -0.6482276666666666
1634476900 0.25822900000000004 -0.6491826666666666
1635962779 0.25692366666666666 -0.6485923333333333
1637448658 0.25814033333333336 -0.6485636666666666
1638934537 0.256615 -0.6480906666666667
1640420416 0.255094 -0.6478986666666666
1641906295 0.253369 -0.6456633333333334
1643392174 0.253376 -0.6454876666666667
1644878053 0.25409299999999996 -0.6419286666666667
1646363932 0.24980133333333332 -0.642185
1647849811 0.24971166666666667 -0.6405833333333333
1649335690 0.24757300000000002 -0.637846
1650821569 0.24644666666666667 -0.6383983333333334
1652307448 0.24870266666666666 -0.638867
1653793327 0.24592033333333332 -0.641489
1655279206 0.24735433333333331 -0.6438693333333333
1656765085 0.24691766666666667 -0.6450976666666667
1658250964 0.24532866666666667 -0.647369
1659736843 0.24728433333333333 -0.6462506666666666
1661222722 0.2473236666666667 -0.6473559999999999
1662708601 0.24772533333333333 -0.6469283333333333
1664194480 0.24827033333333334 -0.647156
1665680359 0.24784666666666666 -0.6479163333333333
1667166238 0.2459086666666667 -0.646699
1668652117 0.247005 -0.6456620000000001
1670137996 0.24541 -0.6445373333333334
1671623875 0.24466 -0.6423403333333334
1673109754 0.24132300000000004 -0.6428236666666667
1674595633 0.24145466666666668 -0.6400973333333333
1676081512 0.24056166666666665 -0.6364133333333334
1677567391 0.23432733333333333 -0.6370413333333333
1679053270 0.241322 -0.628321
1680539149 0.23619766666666664 -0.6326336666666666
1682025028 0.2376653333333333 -0.6345656666666666
1683510907 0.23828233333333335 -0.6368863333333333
1684996786 0.23632699999999998 -0.6395243333333333
1686482665 0.23734999999999998 -0.6419866666666666
1687968544 0.23970599999999997 -0.6437426666666667
1689454423 0.2407176666666667 -0.6435783333333334
1690940302 0.24186633333333332 -0.6452323333333333
1692426181 0.24076766666666669 -0.645952
1693912060 0.23840133333333333 -0.6468163333333333
1695397939 0.24105466666666667 -0.646191
1696883818 0.24371633333333334 -0.6438163333333334
1698369697 0.24123966666666666 -0.6453066666666667
1699855576 0.2420806666666667 -0.6443896666666667
1701341455 0.24274600000000002 -0.6421100000000001
1702827334 0.24065033333333333 -0.6415810000000001
1704313213 0.23967733333333333 -0.639815
1705799092 0.24093433333333333 -0.637449
1707284971 0.23847033333333334 -0.6347576666666667
1708770850 0.23642433333333335 -0.6330546666666667
1710256729 0.2369686666666667 -0.6309476666666667
1711742608 0.2359933333333333 -0.63416
1713228487 0.237749 -0.6350123333333334
1714714366 0.23866 -0.6375166666666666
1716200245 0.23746633333333333 -0.6389523333333333
1717686124 0.23726266666666665 -0.6410426666666666
1719172003 0.23566066666666666 -0.6412643333333333
1720657882 0.234644 -0.6436486666666666
1722143761 0.23851566666666668 -0.6423676666666666
1723629640 0.24455733333333332 -0.6414526666666667
1725115519 0.23576833333333336 -0.6437846666666667
1726601398 0.23591566666666666 -0.6430963333333333
1728087277 0.23531500000000002 -0.6398416666666668
1729573156 0.23510733333333333 -0.6389393333333334
1731059035 0.23549366666666668 -0.6382713333333333
1732544914 0.230985 -0.6335283333333334
1734030793 0.23281333333333334 -0.6345386666666667
1735516672 0.23128700000000002 -0.6338529999999999
1737002551 0.23066566666666666 -0.6296356666666667
1738488430 0.228496 -0.629156
1739974309 0.224108 -0.6262126666666666
1741460188 0.225812 -0.6286519999999999
1742946067 0.22567066666666666 -0.6316446666666667
1744431946 0.22531966666666667 -0.634119
1745917825 0.22614433333333336 -0.6356656666666667
1747403704 0.22633233333333333 -0.6381273333333334
1748889583 0.227649 -0.6397343333333333
1750375462 0.226607 -0.639954
1751861341 0.22806099999999999 -0.6412013333333334
1753347220 0.22910299999999997 -0.6413353333333334
1754833099 0.22757866666666668 -0.6415686666666667
1756318978 0.22712366666666664 -0.6408983333333333
1757804857 0.22717333333333334 -0.641645
1759290736 0.22516499999999998 -0.6397016666666667
1760776615 0.22755833333333333 -0.6394883333333333
1762262494 0.22434566666666667 -0.637295
1763748373 0.226294 -0.6342576666666667
1765234252 0.22269366666666668 -0.6357013333333333
1766720131 0.22337266666666666 -0.632461
1768206010 0.22056900000000002 -0.630068
1769691889 0.21953033333333336 -0.6276233333333333
1771177768 0.2190713333333333 -0.629072
1772663647 0.21985766666666665 -0.6315586666666667
1774149526 0.21851399999999999 -0.6366473333333333
1775635405 0.22018633333333335 -0.6376343333333333
1777121284 0.21932466666666664 -0.639034
1778607163 0.22363966666666668 -0.6402
1780093042 0.220939 -0.641531
1781578921 0.22551633333333332 -0.640185
1783064800 0.2237996666666667 -0.6421039999999999
1784550679 0.225177 -0.6415653333333333
1786036558 0.22362533333333334 -0.6413506666666667
1787522437 0.222587 -0.6423656666666666
1789008316 0.22217433333333333 -0.6400223333333334
1790494195 0.221978 -0.6400003333333334
1791980074 0.22215666666666664 -0.6365916666666668
1793465953 0.22235866666666668 -0.6352326666666667
1794951832 0.2203816666666667 -0.6340476666666667
1796437711 0.21979466666666667 -0.6316836666666666
1797923590 0.21797299999999997 -0.629595
1799409469 0.21844633333333333 -0.6252556666666668
1800895348 0.21724900000000003 -0.6273266666666667
1802381227 0.217641 -0.6277993333333333
1803867106 0.21926533333333334 -0.6304200000000001
1805352985 0.21825166666666665 -0.6325986666666666
1806838864 0.21736199999999997 -0.633166
1808324743 0.2206773333333333 -0.6346846666666667
1809810622 0.21931166666666668 -0.6364883333333333
1811296501 0.215494 -0.6370796666666667
1812782380 0.21934233333333333 -0.6378313333333333
1814268259 0.22148366666666666 -0.6367246666666667
1815754138 0.220642 -0.6348656666666668
1817240017 0.21872899999999998 -0.6348586666666667
1818725896 0.21705766666666668 -0.6332226666666667
1820211775 0.21847666666666665 -0.6314833333333333
1821697654 0.21536333333333335 -0.6292063333333334
1823183533 0.21761533333333336 -0.6293529999999999
1824669412 0.21340933333333334 -0.6269716666666666
1826155291 0.21234366666666668 -0.6244033333333333
1827641170 0.21128866666666668 -0.6194169999999999
1829127049 0.20948366666666665 -0.617941
1830612928 0.20751566666666668 -0.6179070000000001
1832098807 0.2085876666666667 -0.6217463333333333
1833584686 0.20418866666666666 -0.6232669999999999
1835070565 0.20768866666666666 -0.6250756666666667
1836556444 0.20640899999999998 -0.6283456666666667
1838042323 0.21128099999999997 -0.6295883333333333
1839528202 0.20573866666666665 -0.6307686666666666
1841014081 0.20797266666666667 -0.63214
1842499960 0.204801 -0.6319633333333333
1843985839 0.20912700000000004 -0.633484
1845471718 0.20848266666666668 -0.6341443333333333
1846957597 0.207182 -0.6321453333333333
1848443476 0.20583966666666667 -0.6302616666666666
1849929355 0.20671333333333333 -0.6312683333333333
1851415234 0.206921 -0.6312773333333334
1852901113 0.2056376666666667 -0.6337433333333333
1854386992 0.20389366666666667 -0.6261146666666667
1855872871 0.20345 -0.6238683333333334
1857358750 0.202435 -0.624626
1858844629 0.20104599999999997 -0.622642
1860330508 0.20049333333333333 -0.6199756666666666
1861816387 0.20037733333333332 -0.6221256666666667
1863302266 0.20271066666666668 -0.6251273333333334
1864788145 0.19893766666666668 -0.6287676666666667
1866274024 0.20012033333333332 -0.6290273333333333
1867759903 0.20126433333333335 -0.6314646666666667
1869245782 0.20017100000000002 -0.632276
1870731661 0.20072833333333331 -0.6332653333333332
1872217540 0.20107466666666665 -0.6353806666666667
1873703419 0.20125866666666667 -0.634493
1875189298 0.19980466666666666 -0.6338573333333334
1876675177 0.201761 -0.6344839999999999
1878161056 0.20134366666666667 -0.6349306666666666
1879646935 0.20374933333333334 -0.630297
1881132814 0.20062333333333335 -0.6307533333333333
1882618693 0.19848566666666667 -0.6305316666666666
1884104572 0.19777066666666665 -0.6274093333333334
1885590451 0.19575433333333334 -0.6274896666666666
1887076330 0.19949266666666668 -0.6236306666666667
1888562209 0.194253 -0.6217280000000001
1890048088 0.19415433333333332 -0.619141
1891533967 0.19308899999999998 -0.6212906666666668
1893019846 0.19603033333333333 -0.6228826666666666
1894505725 0.19321466666666667 -0.6249753333333334
1895991604 0.19353666666666666 -0.6279606666666667
1897477483 0.19706433333333337 -0.6264469999999999
1898963362 0.19533133333333333 -0.627367
1900449241 0.19438433333333335 -0.6296776666666667
1901935120 0.1951413333333333 -0.6297686666666666
1903420999 0.195654 -0.628459
1904906878 0.197541 -0.6290313333333333
1906392757 0.1962986666666667 -0.628488
1907878636 0.1962643333333333 -0.6279830000000001
1909364515 0.19464133333333333 -0.6246066666666666
1910850394 0.19523066666666666 -0.6240163333333334
1912336273 0.194557 -0.6213393333333332
1913822152 0.19208533333333333 -0.6194470000000001
1915308031 0.19115966666666664 -0.6177633333333333
1916793910 0.18824033333333332 -0.615047
1918279789 0.19047933333333333 -0.6137703333333334
1919765668 0.1866293333333333 -0.6094223333333333
1921251547 0.18321966666666667 -0.6112540000000001
1922737426 0.185886 -0.6138583333333333
1924223305 0.18978233333333336 -0.6164323333333334
1925709184 0.18323066666666665 -0.6178766666666666
1927195063 0.185925 -0.619317
1928680942 0.18505366666666667 -0.6200570000000001
1930166821 0.18457500000000002 -0.623825
1931652700 0.18714566666666665 -0.6228926666666667
1933138579 0.18638433333333335 -0.6231596666666667
1934624458 0.1858483333333333 -0.6227896666666667
1936110337 0.18423133333333333 -0.6246216666666667
1937596216 0.17986633333333335 -0.62497
1939082095 0.18339766666666665 -0.6240553333333333
1940567974 0.17953066666666664 -0.6244526666666667
1942053853 0.17996366666666666 -0.6214156666666666
1943539732 0.18181933333333333 -0.6206986666666666
1945025611 0.18211866666666668 -0.6180669999999999
1946511490 0.18170633333333333 -0.616093
1947997369 0.17792766666666668 -0.6154653333333333
1949483248 0.17424533333333334 -0.6129273333333334
1950969127 0.1761623333333333 -0.6125283333333333
1952455006 0.17594666666666667 -0.615123
1953940885 0.175287 -0.6170253333333333
1955426764 0.1770063333333333 -0.6182553333333333
1956912643 0.17416399999999999 -0.6205953333333333
1958398522 0.17743566666666666 -0.6200836666666667
1959884401 0.17723366666666665 -0.6221633333333333
1961370280 0.17398533333333335 -0.6232173333333333
1962856159 0.17494833333333334 -0.6230519999999999
1964342038 0.17522866666666667 -0.623021
1965827917 0.176111 -0.6212033333333333
1967313796 0.1740993333333333 -0.6214673333333334
1968799675 0.17468466666666668 -0.6216053333333333
1970285554 0.17299200000000003 -0.619917
1971771433 0.17084466666666667 -0.619231
1973257312 0.17285966666666666 -0.6166396666666666
1974743191 0.17229899999999998 -0.6137819999999999
1976229070 0.17107933333333336 -0.6118146666666667
1977714949 0.17764433333333332 -0.6169013333333333
1979200828 0.16969133333333333 -0.6068026666666667
1980686707 0.169299 -0.6062623333333333
1982172586 0.169057 -0.6089226666666666
1983658465 0.16538666666666668 -0.6133266666666666
1985144344 0.16974466666666665 -0.6122603333333333
1986630223 0.16791133333333333 -0.613487
1988116102 0.167721 -0.6161293333333333
1989601981 0.16850533333333337 -0.617939
1991087860 0.16603766666666667 -0.618699
1992573739 0.16815033333333332 -0.6166870000000001
1994059618 0.16689166666666666 -0.6196906666666667
1995545497 0.16497733333333334 -0.616861
1997031376 0.16733299999999998 -0.6170713333333333
1998517255 0.164919 -0.6166
2000003134 0.16672099999999998 -0.6156823333333333
2001489013 0.16510466666666668 -0.6144456666666667
2002974892 0.16673166666666664 -0.6124356666666667
2004460771 0.16443433333333335 -0.6115246666666666
2005946650 0.16183733333333333 -0.6079850000000001
2007432529 0.159659 -0.606939
2008918408 0.15999366666666667 -0.6040960000000001
2010404287 0.15958633333333333 -0.6035233333333333
2011890166 0.158874 -0.606026
2013376045 0.15768200000000002 -0.6078233333333333
2014861924 0.16003966666666666 -0.6093843333333333
2016347803 0.15848033333333333 -0.611049
2017833682 0.15735566666666664 -0.613824
2019319561 0.157577 -0.6139476666666667
2020805440 0.15804933333333332 -0.616364
2022291319 0.158188 -0.6167643333333332
2023777198 0.15720733333333334 -0.6163386666666667
2025263077 0.1572583333333333 -0.6170353333333334
2026748956 0.157056 -0.615266
2028234835 0.15785033333333331 -0.6150110000000001
2029720714 0.15656133333333333 -0.6145643333333334
2031206593 0.13389700000000002 -0.6001333333333333
2032692472 0.15649933333333335 -0.6123786666666667
2034178351 0.15868666666666667 -0.609536
2035664230 0.15740400000000002 -0.6075686666666666
2037150109 0.15445833333333334 -0.6074039999999999
2038635988 0.15358933333333336 -0.6038653333333334
2040121867 0.15189866666666668 -0.6032746666666666
2041607746 0.15191466666666667 -0.603509
2043093625 0.151731 -0.6051496666666667
2044579504 0.15157500000000002 -0.609626
2046065383 0.15011366666666667 -0.609495
2047551262 0.15407 -0.6086936666666667
2049037141 0.15044533333333332 -0.6138516666666667
2050523020 0.15242966666666666 -0.6104336666666667
2052008899 0.1526133333333333 -0.612024
2053494778 0.15171733333333334 -0.6113663333333333
2054980657 0.15061266666666667 -0.6105163333333333
2056466536 0.14803433333333335 -0.6122093333333334
2057952415 0.15006533333333333 -0.6107490000000001
2059438294 0.148698 -0.6088113333333333
2060924173 0.14756066666666667 -0.6071836666666667
2062410052 0.14615433333333336 -0.6055183333333334
2063895931 0.146238 -0.6030449999999999
2065381810 0.1435496666666667 -0.6021743333333333
2066867689 0.14295533333333335 -0.5997793333333333
2068353568 0.14060066666666668 -0.5985096666666666
2069839447 0.13781566666666667 -0.5957836666666667
2071325326 0.13790633333333333 -0.5971899999999999
2072811205 0.139273 -0.5992136666666666
2074297084 0.139115 -0.6017823333333333
2075782963 0.141905 -0.6025096666666666
2077268842 0.139244 -0.6058183333333332
2078754721 0.13936766666666664 -0.6062483333333334
2080240600 0.14085266666666665 -0.6096463333333334
2081726479 0.14136833333333335 -0.608889
2083212358 0.14144833333333331 -0.6092616666666667
2084698237 0.14236466666666667 -0.6105313333333333
2086184116 0.14166766666666666 -0.6111133333333333
2087669995 0.14507866666666666 -0.6100593333333334
2089155874 0.14342666666666667 -0.6080246666666667
2090641753 0.140037 -0.6091683333333333
2092127632 0.14358933333333335 -0.6061646666666666
2093613511 0.14043966666666666 -0.6064789999999999
2095099390 0.14078366666666667 -0.6041303333333334
2096585269 0.14112966666666668 -0.6011416666666666
2098071148 0.13994866666666664 -0.5989446666666667
2099557027 0.14208166666666666 -0.5969043333333334
2101042906 0.14054033333333335 -0.5967343333333334
2102528785 0.14028766666666667 -0.5995656666666667
2104014664 0.13969833333333334 -0.6018923333333334
2105500543 0.13977900000000001 -0.6040466666666666
2106986422 0.14008433333333334 -0.604879
2108472301 0.14010066666666665 -0.6073676666666668
2109958180 0.13889366666666667 -0.6086496666666666
2111444059 0.139553 -0.6087303333333334
2112929938 0.14236466666666667 -0.6096976666666666
2114415817 0.140898 -0.6086886666666668
2115901696 0.140629 -0.609487
2117387575 0.14153533333333332 -0.6091673333333333
2118873454 0.13997466666666666 -0.6089173333333333
2120359333 0.13830733333333334 -0.606432
2121845212 0.13784700000000003 -0.6049950000000001
2123331091 0.137744 -0.6049346666666666
2124816970 0.15234833333333334 -0.6104543333333333
2126302849 0.13490766666666665 -0.601842
2127788728 0.13575833333333334 -0.5990013333333333
2129274607 0.134835 -0.596358
2130760486 0.133892 -0.5965886666666667
2132246365 0.131104 -0.6005073333333334
2133732244 0.13075166666666668 -0.6003866666666666
2135218123 0.13685466666666665 -0.6017443333333333
2136704002 0.132896 -0.6045916666666667
2138189881 0.12920366666666666 -0.6073656666666666
2139675760 0.1324 -0.606746
2141161639 0.13157366666666667 -0.605402
2142647518 0.131343 -0.6081259999999999
2144133397 0.130795 -0.609224
2145619276 0.12915633333333335 -0.608354
2147105155 0.12948099999999998 -0.6066296666666666
2148591034 0.12906600000000001 -0.607093
2150076913 0.12922033333333335 -0.6066543333333333
2151562792 0.127412 -0.6050220000000001
2153048671 0.12660033333333334 -0.60217
2154534550 0.12591566666666668 -0.6021556666666666
2156020429 0.12443899999999998 -0.6015820000000001
2157506308 0.12675833333333333 -0.5981626666666667
2158992187 0.12379200000000001 -0.5959906666666667
2160478066 0.12204466666666665 -0.595957
2161963945 0.12064666666666668 -0.599403
2163449824 0.124491 -0.5997473333333333
2164935703 0.12181166666666667 -0.6025373333333333
2166421582 0.122597 -0.6028843333333334
2167907461 0.12409566666666666 -0.6061063333333334
2169393340 0.122686 -0.6056843333333333
2170879219 0.12536933333333333 -0.6065253333333332
2172365098 0.12664666666666669 -0.60778
2173850977 0.12564533333333333 -0.609029
2175336856 0.12421533333333333 -0.6076199999999999
2176822735 0.12719633333333333 -0.607441
2178308614 0.12626 -0.6069106666666667
2179794493 0.12784600000000002 -0.6046853333333334
2181280372 0.12614266666666665 -0.605756
2182766251 0.1255396666666667 -0.605412
2184252130 0.126896 -0.5998579999999999
2185738009 0.12805666666666665 -0.601012
2187223888 0.12784466666666666 -0.5977736666666666
2188709767 0.12456533333333335 -0.5960326666666667
2190195646 0.12695366666666666 -0.5919533333333332
2191681525 0.12656333333333333 -0.5951533333333333
2193167404 0.1261163333333333 -0.595023
2194653283 0.12760566666666665 -0.5984393333333334
2196139162 0.12570499999999998 -0.6008206666666666
2197625041 0.12766133333333335 -0.6002896666666667
2199110920 0.12711799999999998 -0.6031353333333334
2200596799 0.12741566666666668 -0.6009116666666666
2202082678 0.12930666666666665 -0.6016929999999999
2203568557 0.12797666666666666 -0.603933
2205054436 0.12908266666666668 -0.602952
2206540315 0.12903466666666666 -0.6022553333333334
2208026194 0.12735433333333332 -0.6171159999999999
2209512073 0.130695 -0.6009183333333333
2210997952 0.13034300000000001 -0.5974119999999999
2212483831 0.1295833333333333 -0.5988676666666667
2213969710 0.12890933333333332 -0.5964953333333334
2215455589 0.12842566666666666 -0.593193
2216941468 0.12836233333333333 -0.5899263333333333
2218427347 0.13042033333333333 -0.5868426666666666
2219913226 0.12902233333333332 -0.5853213333333334
2221399105 0.12830633333333333 -0.58831
2222884984 0.13027866666666668 -0.590552
2224370863 0.12598266666666666 -0.590992
2225856742 0.12567599999999998 -0.5913736666666667
2227342621 0.12527066666666667 -0.5948829999999999
2228828500 0.12488966666666668 -0.595897
2230314379 0.12614866666666666 -0.5979823333333334
2231800258 0.128107 -0.5976806666666666
2233286137 0.125105 -0.5982433333333333
2234772016 0.126432 -0.5995176666666667
2236257895 0.12517333333333333 -0.5986536666666665
2237743774 0.124822 -0.5984316666666666
2239229653 0.12561766666666666 -0.5984226666666667
2240715532 0.12951833333333332 -0.5985913333333333
2242201411 0.125038 -0.5975593333333333
2243687290 0.12360933333333335 -0.5955330000000001
2245173169 0.12481066666666668 -0.5926033333333334
2246659048 0.12426966666666667 -0.591513
2248144927 0.12423400000000001 -0.5896603333333333
2249630806 0.12553899999999998 -0.5873896666666667
2251116685 0.12191400000000001 -0.5902856666666667
2252602564 0.12033 -0.5898506666666666
2254088443 0.12201133333333332 -0.5942083333333333
2255574322 0.11951166666666668 -0.5931463333333333
2257060201 0.12114166666666666 -0.594464
2258546080 0.11933366666666667 -0.5948746666666667
2260031959 0.12189366666666666 -0.5977696666666666
2261517838 0.11953000000000001 -0.5954816666666667
2263003717 0.117853 -0.5959943333333334
2264489596 0.11925233333333334 -0.596472
2265975475 0.12477699999999999 -0.5980690000000001
2267461354 0.11706133333333334 -0.5949806666666667
2268947233 0.11396833333333334 -0.5921036666666667
2270433112 0.12333966666666667 -0.5975516666666666
2271918991 0.11761899999999999 -0.59334
2273404870 0.11239933333333334 -0.5903016666666666
2274890749 0.11347233333333333 -0.5902643333333334
2276376628 0.11545033333333332 -0.5880393333333334
2277862507 0.112232 -0.58467
2279348386 0.11248133333333334 -0.5829920000000001
2280834265 0.11222900000000001 -0.5845966666666667
2282320144 0.10989133333333334 -0.586933
2283806023 0.10983366666666666 -0.5874346666666668
2285291902 0.11334300000000001 -0.587174
2286777781 0.10961233333333333 -0.5880506666666667
2288263660 0.11187533333333333 -0.5898396666666667
2289749539 0.10837366666666666 -0.592397
2291235418 0.1102 -0.5924073333333334
2292721297 0.11240766666666667 -0.5918183333333333
2294207176 0.10931566666666666 -0.590389
2295693055 0.115658 -0.5934963333333334
2297178934 0.11232633333333335 -0.5913833333333333
2298664813 0.112767 -0.5898479999999999
2300150692 0.11667 -0.589603
2301636571 0.11838266666666668 -0.5879310000000001
2303122450 0.11040433333333333 -0.5869489999999999
2304608329 0.11382066666666667 -0.5835096666666667
2306094208 0.11139266666666668 -0.5838389999999999
2307580087 0.11509266666666666 -0.57918
2309065966 0.101597 -0.5802936666666666
2310551845 0.109946 -0.582222
2312037724 0.106429 -0.5811266666666667
2313523603 0.11338466666666668 -0.5843886666666668
2315009482 0.10341866666666666 -0.587244
2316495361 0.11307266666666667 -0.5876376666666667
2317981240 0.10585233333333333 -0.590531
2319467119 0.11073966666666667 -0.5895673333333332
2320952998 0.11017233333333333 -0.590586
2322438877 0.10243233333333333 -0.5900436666666666
2323924756 0.11675466666666667 -0.5931046666666667
2325410635 0.10763299999999999 -0.5917043333333334
2326896514 0.11584966666666667 -0.5919493333333333
2328382393 0.10811466666666668 -0.5928343333333332
2329868272 0.11638633333333333 -0.5908690000000001
2331354151 0.10931033333333333 -0.590053
2332840030 0.11540866666666667 -0.5895366666666667
2334325909 0.11052666666666666 -0.5893636666666667
2335811788 0.11074200000000001 -0.587278
2337297667 0.10346233333333332 -0.5908516666666667
2338783546 0.11065533333333333 -0.583656
2340269425 0.10409033333333333 -0.5835236666666667
2341755304 0.10943133333333334 -0.58487
2343241183 0.10369166666666667 -0.587185
2344727062 0.11164233333333333 -0.5876709999999999
2346212941 0.09958466666666665 -0.590771
2347698820 0.11170166666666666 -0.592816
2349184699 0.10176133333333333 -0.5947943333333333
2350670578 0.111025 -0.587629
2352156457 0.10612333333333335 -0.5933419999999999
2353642336 0.10550999999999999 -0.5931746666666666
2355128215 0.104752 -0.5928393333333334
2356614094 0.10215599999999998 -0.5929873333333333
2358099973 0.10234333333333333 -0.5918113333333334
2359585852 0.10301333333333333 -0.591009
2361071731 0.10029433333333333 -0.5924243333333333
2362557610 0.09834399999999999 -0.5890303333333333
2364043489 0.09807066666666665 -0.5865313333333333
2365529368 0.098937 -0.583719
2367015247 0.09739766666666666 -0.584512
2368501126 0.09229899999999998 -0.5832953333333334
2369987005 0.090205 -0.579649
2371472884 0.09216600000000001 -0.58224
2372958763 0.09128933333333333 -0.5846213333333333
2374444642 0.09444633333333334 -0.5861963333333333
2375930521 0.09441866666666666 -0.5875166666666667
2377416400 0.08698533333333332 -0.5926136666666667
2378902279 0.09554766666666666 -0.5887343333333334
2380388158 0.09840700000000001 -0.588565
2381874037 0.09801399999999999 -0.5889706666666666
2383359916 0.096347 -0.590667
2384845795 0.093407 -0.5918713333333333
2386331674 0.09927666666666668 -0.58792
2387817553 0.10017766666666666 -0.5875396666666667
2389303432 0.09890066666666665 -0.5848703333333333
2390789311 0.09612933333333333 -0.5862839999999999
2392275190 0.09479066666666668 -0.5836146666666667
2393761069 0.09668433333333333 -0.581999
2395246948 0.09680433333333334 -0.5794290000000001
2396732827 0.09896500000000001 -0.575506
2398218706 0.095963 -0.5729190000000001
2399704585 0.09504633333333334 -0.5694729999999999
2401190464 0.09370066666666667 -0.570947
2402676343 0.09119766666666666 -0.576625
2404162222 0.09871066666666667 -0.5765226666666666
2405648101 0.09097866666666667 -0.5799103333333333
2407133980 0.09254699999999999 -0.5795776666666667
2408619859 0.08650066666666667 -0.5837433333333334
2410105738 0.09160800000000001 -0.5829483333333333
2411591617 0.08833166666666666 -0.5849280000000001
2413077496 0.08955666666666667 -0.5847586666666666
2414563375 0.09129333333333334 -0.585218
2416049254 0.09290066666666667 -0.5852783333333333
2417535133 0.08842466666666667 -0.585732
2419021012 0.09034799999999998 -0.5838546666666666
2420506891 0.08542533333333334 -0.5851350000000001
2421992770 0.08402533333333334 -0.5828666666666668
2423478649 0.08800166666666666 -0.5829190000000001
2424964528 0.083409 -0.5825613333333334
2426450407 0.0832 -0.5812400000000001
2427936286 0.084354 -0.5762446666666666
2429422165 0.08193733333333332 -0.5760696666666667
2430908044 0.081102 -0.576784
2432393923 0.08281166666666667 -0.576437
2433879802 0.08019933333333333 -0.5814763333333334
2435365681 0.08065599999999999 -0.5798936666666666
2436851560 0.07975633333333333 -0.58168
2438337439 0.08091500000000001 -0.5843373333333334
2439823318 0.082938 -0.5832966666666667
2441309197 0.08130533333333333 -0.5847446666666668
2442795076 0.08323833333333333 -0.5847189999999999
2444280955 0.08141266666666667 -0.5831823333333332
2445766834 0.08369700000000001 -0.5835039999999999
2447252713 0.08177533333333332 -0.5825136666666667
2448738592 0.08398866666666667 -0.5807113333333332
2450224471 0.08421966666666665 -0.577836
2451710350 0.08174166666666667 -0.5786466666666668
2453196229 0.083106 -0.5758233333333332
2454682108 0.08113333333333334 -0.5751013333333334
2456167987 0.08258133333333334 -0.5708793333333334
2457653866 0.07638533333333333 -0.570925
2459139745 0.07836433333333333 -0.5653043333333333
2460625624 0.07605733333333332 -0.566701
2462111503 0.076531 -0.5676956666666667
2463597382 0.07621466666666667 -0.5698690000000001
2465083261 0.07737000000000001 -0.5709766666666667
2466569140 0.07437666666666666 -0.5730813333333333
2468055019 0.079715 -0.573485
2469540898 0.075907 -0.5733926666666667
2471026777 0.07725333333333333 -0.57671
2472512656 0.07435333333333333 -0.5766586666666667
2473998535 0.07969733333333333 -0.5765506666666668
2475484414 0.074557 -0.575794
2476970293 0.07584766666666666 -0.5750666666666667
2478456172 0.07379599999999999 -0.5787876666666666
2479942051 0.07613033333333334 -0.5748806666666666
2481427930 0.069476 -0.5647863333333334
2482913809 0.07103666666666666 -0.5699586666666666
2484399688 0.07511 -0.5683236666666667
2485885567 0.07255533333333333 -0.5682043333333334
2487371446 0.072595 -0.5644753333333333
2488857325 0.06894066666666666 -0.5641560000000001
2490343204 0.06996433333333334 -0.5607943333333333
2491829083 0.06705666666666667 -0.5638960000000001
2493314962 0.071602 -0.566835
2494800841 0.07046566666666666 -0.570178
2496286720 0.06697766666666667 -0.5705256666666667
2497772599 0.07061533333333335 -0.5714013333333333
2499258478 0.06984833333333333 -0.572813
2500744357 0.070385 -0.5742403333333334
2502230236 0.071687 -0.5735676666666666
2503716115 0.07205466666666667 -0.5767266666666666
2505201994 0.07461466666666666 -0.5755376666666666
2506687873 0.074144 -0.5755023333333334
2508173752 0.07570666666666666 -0.5748016666666667
2509659631 0.07213966666666667 -0.5753246666666666
2511145510 0.07370966666666667 -0.5726840000000001
2512631389 0.07355866666666667 -0.5712653333333333
2514117268 0.07428666666666667 -0.5713206666666667
2515603147 0.07488 -0.569343
2517089026 0.07726299999999998 -0.5655899999999999
2518574905 0.07643299999999999 -0.5646133333333333
2520060784 0.076492 -0.5606413333333333
2521546663 0.07408066666666667 -0.56453
2523032542 0.07562666666666666 -0.567518
2524518421 0.07294733333333332 -0.5685383333333334
2526004300 0.073526 -0.572914
2527490179 0.07429933333333333 -0.5688696666666667
2528976058 0.07464966666666667 -0.5697720000000001
2530461937 0.07212866666666667 -0.5736026666666666
2531947816 0.07215366666666667 -0.5732116666666668
2533433695 0.07514333333333334 -0.573556
2534919574 0.071543 -0.571906
2536405453 0.07149766666666667 -0.5729886666666667
2537891332 0.07055199999999999 -0.573301
2539377211 0.06850866666666666 -0.5737006666666667
2540863090 0.06960133333333333 -0.573331
2542348969 0.07183933333333332 -0.5715236666666667
2543834848 0.06666299999999999 -0.571208
2545320727 0.06736466666666667 -0.5690563333333334
2546806606 0.06792133333333333 -0.565847
2548292485 0.065819 -0.5663183333333334
2549778364 0.06472599999999999 -0.5651783333333333
2551264243 0.064558 -0.567152
2552750122 0.062738 -0.568009
2554236001 0.06344833333333333 -0.5683746666666667
2555721880 0.061496999999999996 -0.5713723333333334
2557207759 0.064856 -0.574171
2558693638 0.061858666666666666 -0.5749743333333334
2560179517 0.064034 -0.5743903333333333
2561665396 0.06565233333333333 -0.5764823333333333
2563151275 0.060982666666666664 -0.5777903333333333
2564637154 0.06287866666666667 -0.5801306666666667
2566123033 0.065205 -0.5783226666666667
2567608912 0.06177133333333334 -0.5764843333333335
2569094791 0.061062666666666675 -0.5644586666666667
2570580670 0.060852666666666666 -0.581781
2572066549 0.05997766666666667 -0.5745266666666667
2573552428 0.06196733333333334 -0.5771416666666667
2575038307 0.06368733333333333 -0.5761893333333333
2576524186 0.059040666666666665 -0.5706796666666666
2578010065 0.05684533333333333 -0.573808
2579495944 0.059815 -0.5699593333333333
2580981823 0.055122666666666674 -0.5712616666666667
2582467702 0.06103133333333333 -0.5714533333333333
2583953581 0.05889333333333333 -0.5735673333333334
2585439460 0.06050766666666666 -0.57269
2586925339 0.061705333333333334 -0.5736493333333333
2588411218 0.06192899999999999 -0.5737953333333333
2589897097 0.062072666666666665 -0.5737516666666665
2591382976 0.06246466666666667 -0.5725956666666666
2592868855 0.06396633333333333 -0.5697206666666667
2594354734 0.06064366666666667 -0.5709073333333333
2595840613 0.058160666666666666 -0.5677123333333334
2597326492 0.059874333333333335 -0.5649746666666667
2598812371 0.06254366666666666 -0.568885
2600298250 0.06201466666666666 -0.5630933333333333
2601784129 0.060311000000000003 -0.5594359999999999
2603270008 0.05935733333333334 -0.5599556666666666
2604755887 0.05928233333333333 -0.5564023333333333
2606241766 0.061562 -0.5556690000000001
2607727645 0.054956000000000005 -0.5468976666666666
2609213524 0.057532 -0.546427
2610699403 0.055362 -0.5504826666666666
2612185282 0.056962000000000006 -0.5516326666666667
2613671161 0.057657999999999994 -0.5527880000000001
2615157040 0.05257033333333333 -0.5507569999999999
2616642919 0.05720533333333333 -0.5548163333333332
2618128798 0.055081333333333336 -0.555314
2619614677 0.057270999999999996 -0.5596816666666666
2621100556 0.05680533333333334 -0.555867
2622586435 0.064885 -0.565451
2624072314 0.061582 -0.5590153333333333
2625558193 0.058414333333333325 -0.558438
2627044072 0.060991333333333335 -0.5594910000000001
2628529951 0.057614 -0.5575266666666666
2630015830 0.05366099999999999 -0.5563216666666667
2631501709 0.05747266666666667 -0.5556093333333334
2632987588 0.057762666666666664 -0.5537513333333334
2634473467 0.054779666666666664 -0.550978
2635959346 0.054234000000000004 -0.549664
2637445225 0.054447666666666665 -0.5525166666666667
2638931104 0.053738666666666664 -0.5476486666666667
2640416983 0.050005333333333325 -0.5449816666666667
2641902862 0.046385666666666665 -0.5487529999999999
2643388741 0.054755 -0.5534493333333333
2644874620 0.05138366666666667 -0.5544203333333334
2646360499 0.050116666666666664 -0.5583896666666667
2647846378 0.052485333333333335 -0.5581619999999999
2649332257 0.05759466666666666 -0.564225
2650818136 0.053886333333333335 -0.5628920000000001
2652304015 0.04971766666666667 -0.5617116666666667
2653789894 0.05075633333333333 -0.5623776666666667
2655275773 0.051677 -0.5637310000000001
2656761652 0.053235 -0.567489
2658247531 0.053627666666666664 -0.5682243333333333
2659733410 0.05171833333333333 -0.5659983333333333
2661219289 0.051376333333333336 -0.5636316666666668
2662705168 0.05135 -0.5645413333333335
2664191047 0.05237066666666667 -0.5637783333333334
2665676926 0.049936 -0.5629426666666667
2667162805 0.048918333333333335 -0.5630893333333333
2668648684 0.05367466666666667 -0.56144
2670134563 0.05193066666666666 -0.560421
2671620442 0.05414133333333334 -0.561454
2673106321 0.05331566666666667 -0.5647840000000001
2674592200 0.05413333333333333 -0.5669833333333333
2676078079 0.056708666666666664 -0.567295
2677563958 0.050985333333333334 -0.5662743333333333
2679049837 0.05493699999999999 -0.5668836666666667
2680535716 0.054184666666666666 -0.5674833333333333
2682021595 0.05694266666666666 -0.5666433333333333
2683507474 0.055331 -0.5684923333333334
2684993353 0.059840000000000004 -0.5695656666666666
2686479232 0.058624333333333334 -0.567956
2687965111 0.05998733333333334 -0.566001
2689450990 0.06001133333333333 -0.5654386666666668
2690936869 0.059172 -0.5628266666666667
2692422748 0.061844 -0.5628876666666667
2693908627 0.05618633333333333 -0.5602916666666666
2695394506 0.05649733333333334 -0.5575523333333333
2696880385 0.05492866666666666 -0.555098
2698366264 0.056049666666666664 -0.5528620000000001
2699852143 0.05724566666666667 -0.5476036666666667
2701338022 0.053031666666666664 -0.5505496666666666
2702823901 0.055944999999999995 -0.5559266666666667
2704309780 0.060377999999999994 -0.5557686666666667
2705795659 0.06517333333333335 -0.5571673333333332
2707281538 0.058896000000000004 -0.558208
2708767417 0.059923000000000004 -0.5599233333333333
2710253296 0.062727 -0.55807
2711739175 0.061225 -0.55904
2713225054 0.06189166666666666 -0.560636
2714710933 0.067768 -0.5553756666666666
2716196812 0.06206033333333333 -0.5595656666666667
2717682691 0.06290366666666666 -0.557297
2719168570 0.06570233333333333 -0.5572413333333334
2720654449 0.065864 -0.556428
2722140328 0.06700266666666667 -0.5527289999999999
2723626207 0.06187366666666666 -0.5528046666666667
2725112086 0.06587033333333332 -0.5470533333333333
2726597965 0.067017 -0.5439470000000001
2728083844 0.06277933333333334 -0.5434366666666667
2729569723 0.05933533333333333 -0.5408673333333334
2731055602 0.06294166666666666 -0.541668
2732541481 0.060592 -0.5457363333333334
2734027360 0.059935666666666665 -0.5451803333333333
2735513239 0.05693099999999999 -0.549908
2736999118 0.05839333333333333 -0.5489303333333334
2738484997 0.05783033333333334 -0.5540456666666667
2739970876 0.05454233333333333 -0.5561726666666665
2741456755 0.051006666666666665 -0.5592583333333333
2742942634 0.051574666666666664 -0.5582163333333333
2744428513 0.05193833333333333 -0.5619123333333333
2745914392 0.05098866666666666 -0.561057
2747400271 0.05246233333333333 -0.5600106666666667
2748886150 0.047032 -0.560601
2750372029 0.04819933333333334 -0.5608763333333333
2751857908 0.05093433333333334 -0.5611846666666667
2753343787 0.043303 -0.559522
2754829666 0.04897699999999999 -0.5619506666666667
2756315545 0.04843633333333334 -0.5610073333333334
2757801424 0.047126 -0.5593629999999999
2759287303 0.04283 -0.558793
2760773182 0.04591800000000001 -0.558005
2762259061 0.038336 -0.5637236666666666
2763744940 0.047800666666666665 -0.5624133333333333
2765230819 0.04570833333333333 -0.5639583333333333
2766716698 0.047038 -0.5650603333333333
2768202577 0.047841999999999996 -0.5667306666666666
2769688456 0.049586 -0.5641696666666668
2771174335 0.04520766666666667 -0.5690746666666667
2772660214 0.05059933333333333 -0.5675486666666667
2774146093 0.035848 -0.5672583333333333
2775631972 0.05606333333333333 -0.5700056666666667
2777117851 0.051526333333333334 -0.5626896666666666
2778603730 0.04904133333333333 -0.5642373333333334
2780089609 0.053799999999999994 -0.5625680000000001
2781575488 0.056216999999999996 -0.5580893333333333
2783061367 0.05433466666666667 -0.5593379999999999
2784547246 0.05704933333333334 -0.5566326666666667
2786033125 0.049395333333333326 -0.5596946666666667
2787519004 0.055446666666666665 -0.5500026666666666
2789004883 0.05151166666666667 -0.550258
2790490762 0.05316666666666667 -0.549294
2791976641 0.05518466666666667 -0.5496883333333332
2793462520 0.051547333333333334 -0.5505566666666667
2794948399 0.053781 -0.5519603333333333
2796434278 0.048478 -0.5586616666666666
2797920157 0.05179366666666666 -0.5579
2799406036 0.048001666666666665 -0.5580453333333333
2800891915 0.04559333333333334 -0.556026
2802377794 0.048278999999999996 -0.559167
2803863673 0.04733933333333334 -0.5613743333333333
2805349552 0.050787 -0.5592283333333333
2806835431 0.04652266666666668 -0.557458
2808321310 0.047816 -0.5536646666666666
2809807189 0.048467666666666666 -0.5527156666666667
2811293068 0.047191000000000004 -0.5550743333333333
2812778947 0.047346 -0.5555733333333334
2814264826 0.04119833333333334 -0.5524113333333333
2815750705 0.044194333333333335 -0.554372
2817236584 0.043201666666666666 -0.551828
2818722463 0.04169900000000001 -0.55165
2820208342 0.045129333333333334 -0.5441976666666667
2821694221 0.038247 -0.5490689999999999
2823180100 0.039351000000000004 -0.554498
2824665979 0.043689 -0.5558946666666666
2826151858 0.044928 -0.552504
2827637737 0.046189666666666664 -0.5582373333333334
2829123616 0.042137666666666664 -0.5506349999999999
2830609495 0.044851 -0.5536776666666666
2832095374 0.044083333333333335 -0.5570026666666666
2833581253 0.04039566666666666 -0.5572286666666667
2835067132 0.04737466666666667 -0.5592
2836553011 0.04567866666666667 -0.550307
2838038890 0.04537066666666667 -0.548288
2839524769 0.04818999999999999 -0.5447126666666667
2841010648 0.047584666666666664 -0.5516266666666666
2842496527 0.047434000000000004 -0.545305
2843982406 0.04748466666666667 -0.5406926666666666
2845468285 0.041604999999999996 -0.5416103333333333
2846954164 0.043546 -0.5358823333333333
2848440043 0.04408533333333334 -0.5318703333333333
2849925922 0.043867666666666666 -0.5292953333333333
2851411801 0.043663 -0.5304760000000001
2852897680 0.040833 -0.5344146666666666
2854383559 0.04056466666666667 -0.5384746666666667
2855869438 0.041571 -0.5391566666666666
2857355317 0.04416333333333333 -0.5390856666666667
2858841196 0.044559666666666664 -0.5406590000000001
2860327075 0.04285333333333333 -0.542725
2861812954 0.045897 -0.5409413333333334
2863298833 0.04501333333333333 -0.541166
2864784712 0.043397 -0.539064
2866270591 0.048926666666666674 -0.542302
2867756470 0.043688 -0.5416716666666667
2869242349 0.048529666666666665 -0.540143
2870728228 0.04387066666666667 -0.536879
2872214107 0.046953333333333326 -0.5390803333333333
2873699986 0.044578000000000007 -0.5380023333333334
2875185865 0.04733266666666667 -0.5352906666666666
2876671744 0.045076 -0.5346726666666667
2878157623 0.045962333333333334 -0.531904
2879643502 0.045231 -0.5291133333333333
2881129381 0.042971 -0.5300686666666666
2882615260 0.04704733333333334 -0.5313546666666666
2884101139 0.046553333333333335 -0.5330416666666666
2885587018 0.042589999999999996 -0.5351926666666668
2887072897 0.04389200000000001 -0.5361846666666666
2888558776 0.041623 -0.5373253333333333
2890044655 0.04509933333333333 -0.539247
2891530534 0.04077766666666666 -0.5391913333333332
2893016413 0.043405 -0.542245
2894502292 0.045974666666666664 -0.5413386666666667
2895988171 0.043623 -0.5395283333333333
2897474050 0.04282 -0.5412819999999999
2898959929 0.04254866666666666 -0.5407803333333333
2900445808 0.043138 -0.5395933333333334
2901931687 0.04234833333333334 -0.5393896666666667
2903417566 0.04212866666666667 -0.5369016666666667
2904903445 0.043171666666666664 -0.535535
2906389324 0.042861666666666666 -0.5356556666666666
2907875203 0.043448999999999995 -0.5330496666666668
2909361082 0.039697666666666666 -0.531154
2910846961 0.04163066666666667 -0.5309733333333333
2912332840 0.038886 -0.5332656666666667
2913818719 0.040971 -0.5347686666666668
2915304598 0.039418 -0.535176
2916790477 0.03751166666666667 -0.5374880000000001
2918276356 0.03992866666666667 -0.5380916666666665
2919762235 0.036214666666666666 -0.5375666666666666
2921248114 0.035171 -0.5400826666666667
2922733993 0.037365666666666665 -0.5389016666666667
2924219872 0.037573333333333334 -0.5393659999999999
2925705751 0.03470366666666667 -0.5384036666666667
2927191630 0.03283966666666666 -0.538193
2928677509 0.034613 -0.539174
2930163388 0.033008666666666665 -0.5377793333333334
2931649267 0.033256 -0.5373463333333334
2933135146 0.032154999999999996 -0.5353466666666667
2934621025 0.03037466666666667 -0.5333123333333334
2936106904 0.031523 -0.5318846666666667
2937592783 0.029286666666666666 -0.5329253333333334
2939078662 0.028716000000000002 -0.529412
2940564541 0.025129333333333333 -0.5288973333333333
2942050420 0.026347 -0.5312843333333334
2943536299 0.030676 -0.5313603333333333
2945022178 0.026532333333333335 -0.534299
2946508057 0.026275666666666666 -0.5352776666666667
2947993936 0.028663333333333332 -0.5367686666666667
2949479815 0.025235999999999998 -0.5372020000000001
2950965694 0.02868633333333333 -0.53584
2952451573 0.025739666666666664 -0.5371446666666667
2953937452 0.03057766666666666 -0.5381573333333334
2955423331 0.03106566666666667 -0.5376613333333334
2956909210 0.029732333333333333 -0.537489
2958395089 0.029998999999999998 -0.536489
2959880968 0.026749333333333333 -0.5335433333333333
2961366847 0.02956366666666667 -0.5315006666666666
2962852726 0.028930333333333336 -0.5288553333333333
2964338605 0.028302333333333332 -0.5339536666666667
2965824484 0.030298000000000002 -0.527644
2967310363 0.029689000000000004 -0.525235
2968796242 0.02928333333333333 -0.5256603333333333
2970282121 0.031002666666666664 -0.5213463333333334
2971768000 0.027386999999999998 -0.5225003333333333
2973253879 0.030315333333333333 -0.5252196666666666
2974739758 0.031228333333333334 -0.5300226666666666
2976225637 0.029617999999999995 -0.527667
2977711516 0.028982333333333332 -0.5293193333333334
2979197395 0.026185 -0.5275123333333332
2980683274 0.033091 -0.5301033333333334
2982169153 0.030458000000000002 -0.5299643333333334
2983655032 0.029867 -0.533286
2985140911 0.03134033333333333 -0.5286813333333333
2986626790 0.032481333333333334 -0.5327126666666667
2988112669 0.033925000000000004 -0.527587
2989598548 0.030198666666666665 -0.5250226666666667
2991084427 0.030547666666666667 -0.5260263333333334
2992570306 0.034994 -0.5241253333333334
2994056185 0.036481000000000006 -0.5224073333333333
2995542064 0.03578766666666667 -0.5179536666666668
2997027943 0.03665833333333333 -0.5210873333333333
2998513822 0.03548233333333334 -0.51255
2999999701 0.034298666666666665 -0.5116213333333333
