# HZ S RI R 50
10000 1.1426509999999999 -0.024399666666666667
1495879 0.9494843333333334 1.3664360000000002
2981758 0.577357 0.690776
4467637 0.5815303333333334 0.3270773333333333
5953516 0.6504820000000001 0.138398
7439395 0.7434196666666666 0.012353666666666666
8925274 1.05772 -0.061714
10411153 1.097006 0.03715333333333334
11897032 1.0850090000000001 0.16829833333333333
13382911 1.0178303333333334 0.292017
14868790 0.9152773333333334 0.3798223333333333
16354669 0.8025966666666666 0.42650066666666664
17840548 0.6983876666666666 0.44124566666666665
19326427 0.6092606666666667 0.434531
20812306 0.5363203333333334 0.4159983333333333
22298185 0.4767126666666666 0.3917646666666667
23784064 0.429441 0.36595700000000003
25269943 0.39048 0.34013099999999996
26755822 0.359107 0.3149513333333333
28241701 0.3330446666666667 0.291591
29727580 0.3113953333333333 0.2696596666666667
31213459 0.32169800000000004 0.2544553333333333
32699338 0.3381876666666666 0.23986
34185217 0.35361233333333336 0.22665099999999996
35671096 0.368782 0.2104906666666667
37156975 0.383988 0.19167366666666666
38642854 0.39806933333333333 0.17481366666666667
40128733 0.41229699999999997 0.15205133333333334
41614612 0.4249 0.14037366666666665
43100491 0.4383996666666667 0.11834499999999999
44586370 0.4516626666666667 0.10010766666666666
46072249 0.465295 0.07665966666666667
47558128 0.47973033333333337 0.05973066666666666
49044007 0.49607699999999993 0.042507333333333334
50529886 0.5148640000000001 0.027975333333333335
52015765 0.536863 -0.0013433333333333333
53501644 0.5655756666666667 -0.020141
54987523 0.6032143333333333 -0.044728
56473402 0.6560640000000001 -0.082615
57959281 0.7443696666666666 -0.099018
59445160 0.9020363333333333 -0.078218
60931039 0.9980653333333334 -0.048231666666666666
62416918 1.001204 -0.056982666666666675
63902797 1.0040226666666665 -0.06696666666666666
65388676 1.0059226666666667 -0.076634
66874555 1.0080536666666668 -0.072427
68360434 1.0032893333333333 -0.15659966666666666
69846313 1.012891 -0.05008066666666666
71332192 1.015818 -0.04534566666666667
72818071 1.0141643333333332 -0.08864966666666667
74303950 1.0147193333333333 -0.08030633333333333
75789829 1.0171213333333335 -0.013363
77275708 1.0172646666666665 -0.021441666666666668
78761587 1.0155986666666665 -0.015471666666666667
80247466 1.0077876666666665 -0.13278299999999998
81733345 1.0106653333333333 -0.08526066666666667
83219224 1.0066706666666667 -0.09583733333333333
84705103 1.0021753333333334 -0.121348
86190982 1.0045163333333333 0.003225333333333333
87676861 0.9955646666666667 -0.11362166666666666
89162740 0.995606 -0.08834133333333333
90648619 0.9919349999999999 -0.10589966666666667
92134498 0.995548 -0.10463666666666666
93620377 1.0010839999999999 -0.07330133333333333
95106256 1.001819 -0.10002633333333333
96592135 1.0046676666666665 -0.09923366666666666
98078014 1.0059526666666667 -0.09452900000000002
99563893 1.0082393333333333 -0.09192
101049772 1.0096010000000002 -0.10541199999999999
102535651 1.0090766666666666 -0.10633
104021530 1.0097293333333333 -0.10686666666666667
105507409 1.0086583333333332 -0.10911133333333334
106993288 1.0091976666666667 -0.11024866666666666
108479167 1.007532 -0.11003833333333334
109965046 1.0070586666666665 -0.11152833333333333
111450925 1.003954 -0.11226033333333334
112936804 1.0023773333333335 -0.112437
114422683 0.9995076666666667 -0.11354566666666667
115908562 0.9965603333333334 -0.11496866666666666
117394441 0.993274 -0.11442566666666666
118880320 0.9897839999999999 -0.11524566666666668
120366199 0.987354 -0.11775866666666668
121852078 0.9908016666666667 -0.119502
123337957 0.9949179999999999 -0.120518
124823836 0.9988570000000001 -0.12371399999999999
126309715 1.0019186666666666 -0.12496633333333333
127795594 1.0041826666666667 -0.12600333333333333
129281473 1.0081603333333333 -0.12791333333333332
130767352 1.008858 -0.12967233333333336
132253231 1.010047 -0.12923533333333334
133739110 1.0125576666666667 -0.1310623333333333
135224989 0.9970370000000001 -0.14185166666666668
136710868 0.996992 -0.1433016666666667
138196747 0.9968303333333334 -0.14377399999999999
139682626 0.9961869999999999 -0.14356666666666665
141168505 0.9959143333333333 -0.14410833333333334
142654384 0.9932219999999999 -0.14475133333333334
144140263 0.9921503333333334 -0.14591133333333337
145626142 0.9891103333333332 -0.14574866666666667
147112021 0.9871743333333334 -0.14546466666666666
148597900 0.9839476666666668 -0.14640666666666668
150083779 0.9808606666666666 -0.146765
151569658 0.9837116666666667 -0.148626
153055537 0.9869976666666668 -0.15045133333333333
154541416 0.9885736666666668 -0.15272266666666667
156027295 0.9913256666666665 -0.15370866666666666
157513174 0.9929533333333334 -0.15504333333333334
158999053 0.9941426666666667 -0.1562416666666667
160484932 0.996808 -0.15810033333333334
161970811 0.9966876666666667 -0.158971
163456690 0.9972576666666667 -0.16033366666666665
164942569 0.9962976666666666 -0.16124133333333335
166428448 0.995718 -0.162876
167914327 0.994999 -0.1634486666666667
169400206 0.9944419999999999 -0.16473766666666667
170886085 0.9922803333333334 -0.165239
172371964 0.9675929999999999 -0.18771066666666666
173857843 0.9924776666666665 -0.15514466666666668
175343722 0.9938343333333334 -0.14453733333333332
176829601 0.9908733333333334 -0.145667
178315480 0.9839546666666666 -0.15086733333333333
179801359 0.9873966666666667 -0.143431
181287238 0.986201 -0.15065233333333336
182773117 0.9931293333333334 -0.147231
184258996 0.9918490000000001 -0.15342666666666668
185744875 0.99452 -0.15602933333333333
187230754 0.9967393333333333 -0.15645266666666666
188716633 0.9989393333333334 -0.15811833333333333
190202512 0.999371 -0.159756
191688391 1.0005110000000002 -0.16110833333333333
193174270 1.0007593333333333 -0.16254300000000002
194660149 1.000473 -0.16305033333333332
196146028 1.000038 -0.16485
197631907 0.9942843333333333 -0.17810866666666667
199117786 0.9884590000000001 -0.1907553333333333
200603665 0.986198 -0.19214633333333334
202089544 0.9841113333333333 -0.19333233333333336
203575423 0.9815010000000001 -0.19481
205061302 0.9779456666666667 -0.19573966666666665
206547181 0.9747056666666668 -0.19696366666666668
208033060 0.9710283333333333 -0.19929766666666668
209518939 0.9662350000000001 -0.20052033333333333
211004818 0.9675799999999999 -0.2017256666666667
212490697 0.9712663333333333 -0.20472966666666667
213976576 0.9743933333333333 -0.2061103333333333
215462455 0.9771190000000001 -0.20781166666666664
216948334 0.9794893333333333 -0.20912866666666666
218434213 0.9809966666666666 -0.21104166666666668
219920092 0.9822836666666667 -0.21234166666666665
221405971 0.983729 -0.21333000000000002
222891850 0.9836776666666668 -0.2141293333333333
224377729 0.9784966666666667 -0.226889
225863608 0.9764823333333333 -0.2340036666666667
227349487 0.9824936666666666 -0.217471
228835366 0.9807886666666668 -0.21830399999999997
230321245 0.9786863333333334 -0.22012266666666666
231807124 0.9763433333333333 -0.22015166666666666
233293003 0.9735396666666666 -0.22186133333333333
234778882 0.9702160000000001 -0.22321966666666668
236264761 0.9661743333333334 -0.22466866666666666
237750640 0.9617650000000001 -0.22589800000000002
239236519 0.9578220000000001 -0.22795566666666667
240722398 0.9564273333333334 -0.22995633333333332
242208277 0.9609733333333333 -0.231824
243694156 0.9638056666666667 -0.23409433333333332
245180035 0.9674003333333333 -0.23568366666666665
246665914 0.9695010000000001 -0.2374166666666667
248151793 0.9707439999999999 -0.2391363333333333
249637672 0.9727683333333333 -0.24019433333333332
251123551 0.9736626666666667 -0.24144166666666667
252609430 0.9742326666666666 -0.24271333333333334
254095309 0.9736306666666666 -0.24395566666666668
255581188 0.9739143333333334 -0.24459233333333333
257067067 0.9731003333333333 -0.245874
258552946 0.971353 -0.24695866666666666
260038825 0.9715833333333334 -0.24259299999999998
261524704 0.9663936666666667 -0.24824533333333332
263010583 0.9658683333333333 -0.24362966666666666
264496462 0.9604543333333334 -0.25098333333333334
265982341 0.9578703333333333 -0.24551133333333333
267468220 0.9489913333333334 -0.2582803333333333
268954099 0.9491573333333333 -0.24816433333333332
270439978 0.9418380000000001 -0.260588
271925857 0.9504646666666666 -0.2528263333333333
273411736 0.9487003333333334 -0.26583633333333334
274897615 0.957029 -0.257503
276383494 0.9542736666666668 -0.270905
277869373 0.9616939999999999 -0.26175266666666663
279355252 0.9592156666666667 -0.273976
280841131 0.9652083333333333 -0.264309
282327010 0.9606279999999999 -0.2763176666666667
283812889 0.9658950000000001 -0.2676536666666667
285298768 0.9627319999999999 -0.27268633333333336
286784647 0.9647813333333333 -0.269424
288270526 0.9579970000000001 -0.28004233333333334
289756405 0.9609003333333334 -0.26994866666666667
291242284 0.953733 -0.28128933333333334
292728163 0.9551663333333332 -0.27139
294214042 0.9473889999999999 -0.2825763333333333
295699921 0.9471016666666667 -0.273688
297185800 0.9387573333333333 -0.283947
298671679 0.9382303333333334 -0.2743566666666667
300157558 0.9312046666666666 -0.2796526666666667
301643437 0.9357349999999999 -0.282427
303129316 0.9392643333333334 -0.285576
304615195 0.942704 -0.2875753333333333
306101074 0.9448576666666667 -0.2910836666666667
307586953 0.9474130000000001 -0.2923103333333334
309072832 0.948766 -0.29496100000000003
310558711 0.9511023333333334 -0.29534499999999997
312044590 0.9517686666666667 -0.296595
313530469 0.951833 -0.29881766666666665
315016348 0.9509686666666667 -0.29933333333333334
316502227 0.9495056666666667 -0.29991866666666667
317988106 0.9496426666666666 -0.300711
319473985 0.9314813333333333 -0.31577800000000006
320959864 0.9452066666666666 -0.300736
322445743 0.9427629999999999 -0.30165899999999995
323931622 0.9384596666666667 -0.30288999999999994
325417501 0.935003 -0.3015936666666667
326903380 0.930504 -0.3017456666666667
328389259 0.9254316666666668 -0.30278166666666667
329875138 0.9192270000000001 -0.303108
331361017 0.9225566666666666 -0.30579566666666663
332846896 0.9253330000000001 -0.30913366666666664
334332775 0.9290526666666666 -0.31298766666666666
335818654 0.9304103333333332 -0.3151386666666667
337304533 0.932325 -0.316752
338790412 0.9346900000000001 -0.31346966666666665
340276291 0.9346816666666666 -0.31998466666666664
341762170 0.9348593333333334 -0.32194133333333336
343248049 0.935542 -0.3229046666666667
344733928 0.935018 -0.32463766666666666
346219807 0.9338976666666667 -0.3261093333333333
347705686 0.9323323333333334 -0.32561466666666666
349191565 0.9304083333333333 -0.326232
350677444 0.9276986666666667 -0.32778166666666664
352163323 0.9249873333333333 -0.32694033333333333
353649202 0.921576 -0.32738433333333333
355135081 0.9164963333333334 -0.3266813333333333
356620960 0.9135806666666667 -0.3265386666666667
358106839 0.907471 -0.3276406666666667
359592718 0.900989 -0.328048
361078597 0.9030796666666667 -0.3300363333333334
362564476 0.9063279999999999 -0.3335986666666666
364050355 0.9087356666666667 -0.33662600000000004
365536234 0.9112826666666667 -0.33967400000000003
367022113 0.9130950000000001 -0.341744
368507992 0.914268 -0.3433623333333333
369993871 0.9156043333333334 -0.3456126666666666
371479750 0.916795 -0.34650833333333336
372965629 0.9163316666666667 -0.348343
374451508 0.91606 -0.35013066666666665
375937387 0.9158253333333333 -0.3507833333333334
377423266 0.9147003333333333 -0.3518866666666667
378909145 0.9126686666666668 -0.35013500000000003
380395024 0.9109106666666666 -0.35099433333333335
381880903 0.8674293333333333 -0.35386733333333337
383366782 0.9061293333333333 -0.3505746666666667
384852661 0.9025043333333334 -0.3510876666666667
386338540 0.8989343333333334 -0.35031066666666666
387824419 0.894641 -0.3492393333333333
389310298 0.8892883333333333 -0.34899299999999994
390796177 0.889415 -0.3507633333333333
392282056 0.8914086666666666 -0.35488733333333333
393767935 0.8939706666666667 -0.3570343333333333
395253814 0.895825 -0.35996300000000003
396739693 0.8975806666666667 -0.36224966666666664
398225572 0.8984623333333333 -0.36482333333333333
399711451 0.8996270000000001 -0.36693966666666666
401197330 0.900607 -0.3671216666666666
402683209 0.9012813333333334 -0.36842400000000003
404169088 0.9005500000000001 -0.36947800000000003
405654967 0.8999796666666667 -0.37125733333333333
407140846 0.8985546666666666 -0.37214400000000003
408626725 0.8971309999999999 -0.3710166666666666
410112604 0.8957586666666666 -0.3719266666666667
411598483 0.8933336666666666 -0.3710253333333333
413084362 0.890028 -0.37113766666666664
414570241 0.8866013333333332 -0.370749
416056120 0.8833796666666666 -0.370981
417541999 0.8795626666666667 -0.370385
419027878 0.8738763333333334 -0.37117933333333336
420513757 0.8723803333333334 -0.3702016666666667
421999636 0.8745226666666667 -0.37451300000000004
423485515 0.8777703333333333 -0.37663
424971394 0.8786093333333334 -0.37965566666666667
426457273 0.8799973333333334 -0.3829086666666666
427943152 0.8815196666666666 -0.38533466666666666
429429031 0.8821366666666667 -0.3867333333333333
430914910 0.8831313333333334 -0.38753733333333334
432400789 0.8832586666666667 -0.38937099999999997
433886668 0.8832300000000001 -0.3905806666666667
435372547 0.8823690000000001 -0.3914203333333333
436858426 0.881443 -0.3923216666666667
438344305 0.8802673333333333 -0.3920593333333333
439830184 0.8779743333333334 -0.39280833333333337
441316063 0.8756996666666667 -0.39365266666666665
442801942 0.8736929999999999 -0.39210733333333336
444287821 0.8708553333333334 -0.3918646666666667
445773700 0.86685 -0.392079
447259579 0.8626403333333333 -0.39128999999999997
448745458 0.8579886666666666 -0.39202699999999996
450231337 0.8563823333333334 -0.39006433333333335
451717216 0.8579266666666667 -0.3929846666666667
453203095 0.8618016666666666 -0.39454800000000007
454688974 0.8624956666666668 -0.3978953333333333
456174853 0.8654756666666668 -0.40073866666666663
457660732 0.8654069999999999 -0.402509
459146611 0.8668296666666667 -0.4039253333333333
460632490 0.8668513333333333 -0.40344700000000006
462118369 0.8665306666666667 -0.40574366666666667
463604248 0.8657363333333333 -0.4084486666666667
465090127 0.8663373333333334 -0.408274
466576006 0.8651516666666667 -0.40856566666666666
468061885 0.8647480000000001 -0.408194
469547764 0.9140643333333335 -0.4216143333333333
471033643 0.86028 -0.40812333333333334
472519522 0.8581093333333333 -0.40839333333333333
474005401 0.8547386666666666 -0.4085033333333333
475491280 0.8522436666666667 -0.40744766666666665
476977159 0.8223433333333334 -0.41923933333333335
478463038 0.8429053333333333 -0.40719666666666665
479948917 0.838664 -0.40667766666666666
481434796 0.8409833333333333 -0.4092133333333334
482920675 0.8448480000000002 -0.40669466666666665
484406554 0.845847 -0.41372733333333334
485892433 0.846944 -0.4175683333333334
487378312 0.8485963333333334 -0.41864300000000004
488864191 0.8497023333333334 -0.42026800000000003
490350070 0.8487960000000001 -0.426673
491835949 0.8508163333333334 -0.4229603333333333
493321828 0.851759 -0.42374266666666666
494807707 0.8502236666666666 -0.42489266666666664
496293586 0.8493323333333334 -0.4258673333333333
497779465 0.8482363333333334 -0.4256243333333333
499265344 0.8464716666666666 -0.42502466666666666
500751223 0.84445 -0.42540399999999995
502237102 0.8434566666666666 -0.4245746666666667
503722981 0.8388586666666668 -0.42457933333333336
505208860 0.8365153333333333 -0.4242633333333334
506694739 0.8322893333333333 -0.4250206666666667
508180618 0.8288146666666666 -0.42288166666666666
509666497 0.8242403333333334 -0.42239166666666667
511152376 0.8258873333333333 -0.4242883333333333
512638255 0.8281893333333333 -0.4275523333333333
514124134 0.8299173333333333 -0.42996266666666666
515610013 0.8309753333333333 -0.432754
517095892 0.8318256666666666 -0.43400866666666665
518581771 0.8338023333333333 -0.43642766666666666
520067650 0.8347403333333334 -0.43637533333333334
521553529 0.8344406666666666 -0.43865099999999996
523039408 0.8354663333333333 -0.44023966666666664
524525287 0.8344673333333333 -0.4399933333333334
526011166 0.8340960000000001 -0.4404386666666667
527497045 0.8322793333333333 -0.44063633333333335
528982924 0.8308876666666668 -0.44147333333333333
530468803 0.8281106666666668 -0.4408256666666667
531954682 0.825879 -0.44103033333333336
533440561 0.8236089999999999 -0.4402763333333333
534926440 0.819922 -0.43886866666666674
536412319 0.8156576666666666 -0.4406696666666667
537898198 0.813161 -0.4397776666666666
539384077 0.8069486666666666 -0.4388103333333333
540869956 0.8058899999999999 -0.4395126666666666
542355835 0.8095933333333334 -0.441502
543841714 0.8114403333333332 -0.44473500000000005
545327593 0.8128503333333335 -0.4454903333333333
546813472 0.8150683333333334 -0.4470666666666667
548299351 0.815695 -0.44725833333333337
549785230 0.816887 -0.447843
551271109 0.816103 -0.44839199999999996
552756988 0.816491 -0.44800833333333334
554242867 0.8158340000000001 -0.44665599999999994
555728746 0.8152386666666667 -0.4465263333333333
557214625 0.8128716666666667 -0.446039
558700504 0.8113653333333334 -0.4462643333333333
560186383 0.8099246666666667 -0.443975
561672262 0.8067286666666668 -0.4432723333333333
563158141 0.8024026666666666 -0.44343666666666665
564644020 0.7988943333333333 -0.44214100000000006
566129899 0.7955046666666666 -0.440296
567615778 0.7906306666666666 -0.438995
569101657 0.785719 -0.4372696666666666
570587536 0.7821803333333333 -0.4379376666666666
572073415 0.7847446666666666 -0.44223999999999997
573559294 0.7868933333333334 -0.4452853333333333
575045173 0.7884336666666667 -0.4482663333333334
576531052 0.7891366666666667 -0.4528833333333333
578016931 0.7900203333333334 -0.45638833333333334
579502810 0.7909906666666666 -0.4586773333333333
580988689 0.7903493333333333 -0.4596556666666667
582474568 0.7917713333333333 -0.4630883333333333
583960447 0.7903783333333333 -0.4647593333333333
585446326 0.790147 -0.4658546666666667
586932205 0.7891210000000001 -0.46718733333333334
588418084 0.7872846666666667 -0.468302
589903963 0.7867466666666667 -0.46816299999999994
591389842 0.7833453333333334 -0.4697516666666666
592875721 0.7798003333333333 -0.4710993333333333
594361600 0.7779006666666667 -0.470775
595847479 0.7748513333333333 -0.4700423333333334
597333358 0.7714176666666667 -0.4691696666666667
598819237 0.76632 -0.470497
600305116 0.7658983333333333 -0.4691456666666667
601790995 0.7666916666666667 -0.47360700000000006
603276874 0.7699253333333332 -0.47500133333333333
604762753 0.7716886666666666 -0.478548
606248632 0.7731596666666666 -0.4811556666666667
607734511 0.7757303333333333 -0.48349033333333336
609220390 0.774906 -0.48484700000000003
610706269 0.7772963333333333 -0.48663799999999996
612192148 0.7770966666666667 -0.4877046666666667
613678027 0.7773636666666667 -0.48814266666666667
615163906 0.7763246666666667 -0.48826566666666665
616649785 0.776132 -0.4896773333333333
618135664 0.7763896666666666 -0.488995
619621543 0.7654716666666666 -0.4973436666666667
621107422 0.7713836666666666 -0.4894876666666667
622593301 0.7690303333333333 -0.48760333333333333
624079180 0.766309 -0.48691700000000004
625565059 0.7625799999999999 -0.48596766666666663
627050938 0.7602099999999999 -0.4845786666666667
628536817 0.755761 -0.48322833333333337
630022696 0.7507166666666666 -0.482215
631508575 0.7522916666666667 -0.48582
632994454 0.7547533333333333 -0.489057
634480333 0.755941 -0.4918646666666667
635966212 0.7583713333333334 -0.49427933333333335
637452091 0.7586856666666666 -0.4961083333333334
638937970 0.7611370000000001 -0.49785666666666667
640423849 0.7615403333333334 -0.5002583333333334
641909728 0.7618853333333333 -0.5004893333333333
643395607 0.7611216666666666 -0.5016839999999999
644881486 0.7609193333333334 -0.5025516666666667
646367365 0.7607856666666666 -0.5026333333333334
647853244 0.7590370000000001 -0.5019263333333334
649339123 0.75774 -0.5018426666666668
650825002 0.7562030000000001 -0.5012023333333334
652310881 0.754562 -0.49808433333333335
653796760 0.7513569999999999 -0.4984593333333333
655282639 0.7488293333333332 -0.4971316666666667
656768518 0.744723 -0.4952516666666667
658254397 0.7394353333333333 -0.49518
659740276 0.7361303333333332 -0.4919356666666667
661226155 0.7386023333333332 -0.494045
662712034 0.7401723333333333 -0.49730633333333335
664197913 0.7403356666666667 -0.5023909999999999
665683792 0.742508 -0.5022533333333333
667169671 0.7443513333333334 -0.5058443333333332
668655550 0.7449103333333333 -0.506444
670141429 0.7454186666666667 -0.508152
671627308 0.7449283333333333 -0.5072709999999999
673113187 0.7473839999999999 -0.50754
674599066 0.7461066666666668 -0.507899
676084945 0.7465796666666668 -0.507038
677570824 0.7446876666666666 -0.5094950000000001
679056703 0.7431393333333333 -0.5069089999999999
680542582 0.7413690000000001 -0.505935
682028461 0.7399156666666666 -0.5030789999999999
683514340 0.7374343333333333 -0.5039283333333333
685000219 0.7344666666666667 -0.5026430000000001
686486098 0.7306546666666667 -0.5012286666666667
687971977 0.7276569999999999 -0.4978
689457856 0.7230613333333333 -0.4950143333333334
690943735 0.7224146666666668 -0.4989483333333333
692429614 0.7226616666666668 -0.5021456666666667
693915493 0.7241273333333332 -0.5041866666666667
695401372 0.7250673333333334 -0.5068066666666665
696887251 0.7257293333333332 -0.5073386666666666
698373130 0.7264176666666667 -0.5110103333333333
699859009 0.726028 -0.5130426666666666
701344888 0.7266616666666668 -0.5150886666666668
702830767 0.7253316666666666 -0.5153656666666667
704316646 0.7248973333333334 -0.5165209999999999
705802525 0.724533 -0.5162279999999999
707288404 0.7221873333333333 -0.518421
708774283 0.7208343333333334 -0.5177763333333333
710260162 0.7176513333333334 -0.5184719999999999
711746041 0.7159096666666667 -0.5169513333333333
713231920 0.7131563333333334 -0.5165273333333333
714717799 0.7093406666666667 -0.5164369999999999
716203678 0.70666 -0.5152316666666668
717689557 0.7034283333333334 -0.5142206666666667
719175436 0.6993573333333333 -0.5144436666666666
720661315 0.6975243333333334 -0.5156850000000001
722147194 0.7017130000000001 -0.5173083333333334
723633073 0.7010526666666667 -0.521478
725118952 0.701756 -0.5234313333333334
726604831 0.701717 -0.5253773333333333
728090710 0.703319 -0.5282643333333333
729576589 0.7033653333333333 -0.5295893333333334
731062468 0.7037883333333333 -0.52949
732548347 0.7030783333333334 -0.5327853333333333
734034226 0.702921 -0.5313456666666667
735520105 0.7040703333333335 -0.531358
737005984 0.7016490000000001 -0.5328726666666667
738491863 0.7012433333333332 -0.5319896666666666
739977742 0.6998303333333333 -0.5314786666666667
741463621 0.6996276666666666 -0.530342
742949500 0.6952349999999999 -0.530228
744435379 0.6920153333333333 -0.5296533333333332
745921258 0.6892153333333333 -0.5279566666666667
747407137 0.6862543333333333 -0.5268276666666667
748893016 0.6826473333333333 -0.525729
750378895 0.6826606666666667 -0.52353
751864774 0.688339 -0.5234570000000001
753350653 0.6855956666666666 -0.5300599999999999
754836532 0.6889133333333334 -0.5274813333333334
756322411 0.686311 -0.533923
757808290 0.6914993333333334 -0.530242
759294169 0.684898 -0.5404226666666666
760780048 0.6925213333333334 -0.5335049999999999
762265927 0.6844263333333332 -0.5413100000000001
763751806 0.6918316666666667 -0.535453
765237685 0.6819506666666667 -0.5429149999999999
766723564 0.6874256666666666 -0.536169
768209443 0.681167 -0.5415476666666666
769695322 0.689599 -0.532123
771181201 0.6773803333333333 -0.5400336666666666
772667080 0.6812146666666666 -0.5338003333333333
774152959 0.6717033333333333 -0.5390723333333334
775638838 0.6414626666666666 -0.520279
777124717 0.6719226666666667 -0.5306306666666667
778610596 0.6695773333333334 -0.5277623333333333
780096475 0.664393 -0.5281349999999999
781582354 0.666291 -0.5309263333333334
783068233 0.6690726666666666 -0.5328616666666667
784554112 0.6705003333333334 -0.5350426666666667
786039991 0.672832 -0.5364073333333333
787525870 0.6724256666666667 -0.5403606666666666
789011749 0.6741866666666668 -0.5401466666666667
790497628 0.6744883333333332 -0.5415276666666667
791983507 0.6746896666666666 -0.5423296666666667
793469386 0.6736226666666667 -0.5434876666666667
794955265 0.674521 -0.5427473333333334
796441144 0.6738193333333333 -0.5429173333333334
797927023 0.6734439999999999 -0.5416423333333333
799412902 0.67148 -0.5427026666666667
800898781 0.6650999999999999 -0.5459526666666666
802384660 0.662772 -0.5440906666666666
803870539 0.6630250000000001 -0.5409776666666667
805356418 0.6579376666666666 -0.5416573333333333
806842297 0.6559236666666667 -0.5401263333333334
808328176 0.651997 -0.5380243333333333
809814055 0.648918 -0.5360563333333332
811299934 0.6500849999999999 -0.5374450000000001
812785813 0.6509876666666666 -0.5417496666666667
814271692 0.6508430000000001 -0.5449130000000001
815757571 0.6534426666666666 -0.5460873333333334
817243450 0.6540276666666667 -0.5487743333333334
818729329 0.655139 -0.5501733333333333
820215208 0.6536156666666667 -0.5527883333333333
821701087 0.6536583333333333 -0.5537113333333333
823186966 0.6549596666666667 -0.5534823333333333
824672845 0.654176 -0.5543263333333334
826158724 0.6523213333333332 -0.5552883333333334
827644603 0.650833 -0.5556676666666666
829130482 0.6719183333333333 -0.550153
830616361 0.6474026666666667 -0.554464
832102240 0.6453763333333334 -0.553363
833588119 0.6428863333333333 -0.5531480000000001
835073998 0.6404463333333333 -0.5522246666666667
836559877 0.6365043333333333 -0.5511406666666666
838045756 0.6327816666666667 -0.5500039999999999
839531635 0.6286523333333334 -0.5488883333333333
841017514 0.6289123333333334 -0.5500253333333334
842503393 0.630355 -0.554014
843989272 0.6312946666666667 -0.5560626666666667
845475151 0.6331013333333333 -0.5573796666666667
846961030 0.631347 -0.5622003333333333
848446909 0.6343846666666666 -0.5631959999999999
849932788 0.6351366666666666 -0.565022
851418667 0.6351706666666667 -0.5662826666666666
852904546 0.6353993333333333 -0.566287
854390425 0.63436 -0.5671076666666667
855876304 0.633387 -0.5668663333333334
857362183 0.6333423333333333 -0.5653563333333333
858848062 0.6308349999999999 -0.5666083333333334
860333941 0.6308813333333334 -0.5645153333333334
861819820 0.6286026666666666 -0.563449
863305699 0.6258153333333333 -0.5619219999999999
864791578 0.6235750000000001 -0.5592736666666667
866277457 0.6214353333333333 -0.5588673333333333
867763336 0.616616 -0.557485
869249215 0.6135623333333334 -0.5543513333333333
870735094 0.611869 -0.5548963333333333
872220973 0.6146986666666666 -0.5569123333333333
873706852 0.6144686666666667 -0.5614433333333334
875192731 0.6149496666666666 -0.5644193333333334
876678610 0.6165336666666666 -0.5656726666666666
878164489 0.6174473333333333 -0.5685683333333333
879650368 0.618476 -0.5695126666666667
881136247 0.618771 -0.5700973333333333
882622126 0.6176086666666667 -0.5718533333333333
884108005 0.6172656666666667 -0.5718433333333334
885593884 0.6167483333333333 -0.5734353333333334
887079763 0.6162223333333333 -0.573034
888565642 0.6155603333333334 -0.570591
890051521 0.6130666666666666 -0.57047
891537400 0.6122696666666666 -0.5696546666666666
893023279 0.6106643333333334 -0.5667840000000001
894509158 0.6082010000000001 -0.5652736666666667
895995037 0.60458 -0.5646893333333334
897480916 0.6002216666666667 -0.5621846666666667
898966795 0.5990263333333333 -0.56007
900452674 0.5979436666666667 -0.558001
901938553 0.599428 -0.5608620000000001
903424432 0.600151 -0.5646373333333333
904910311 0.6017453333333334 -0.5649906666666668
906396190 0.6018906666666667 -0.5690033333333333
907882069 0.6004756666666667 -0.5722356666666667
909367948 0.6044376666666667 -0.572018
910853827 0.6035 -0.5733726666666666
912339706 0.6025109999999999 -0.5742756666666667
913825585 0.6025063333333334 -0.5756676666666667
915311464 0.6024546666666667 -0.574694
916797343 0.5996480000000001 -0.575265
918283222 0.600477 -0.5728209999999999
919769101 0.5678116666666666 -0.5739569999999999
921254980 0.5981850000000001 -0.5746706666666667
922740859 0.5943246666666666 -0.5701483333333334
924226738 0.5935353333333334 -0.5681249999999999
925712617 0.5910733333333332 -0.5671613333333333
927198496 0.587943 -0.5657966666666667
928684375 0.568038 -0.5689666666666667
930170254 0.5815406666666667 -0.5607836666666667
931656133 0.5834283333333333 -0.5649443333333334
933142012 0.583862 -0.5671683333333334
934627891 0.5861543333333333 -0.5693436666666667
936113770 0.5853443333333334 -0.573646
937599649 0.5870656666666667 -0.5744163333333333
939085528 0.5866126666666666 -0.5761546666666667
940571407 0.5878273333333334 -0.5765986666666666
942057286 0.5880200000000001 -0.577751
943543165 0.587395 -0.578891
945029044 0.588106 -0.5783213333333334
946514923 0.5880773333333333 -0.5773579999999999
948000802 0.5867393333333334 -0.5775313333333334
949486681 0.586335 -0.5761776666666667
950972560 0.5860923333333332 -0.575555
952458439 0.5845563333333333 -0.573334
953944318 0.5824053333333333 -0.572943
955430197 0.582016 -0.5694766666666667
956916076 0.5780076666666667 -0.570113
958401955 0.5773713333333333 -0.5648976666666666
959887834 0.5735020000000001 -0.5633083333333334
961373713 0.5741593333333334 -0.5671326666666667
962859592 0.5750663333333333 -0.5688766666666667
964345471 0.5754783333333333 -0.5718626666666666
965831350 0.5746286666666667 -0.5732036666666666
967317229 0.5759276666666667 -0.5755286666666667
968803108 0.575932 -0.5784616666666667
970288987 0.5757593333333334 -0.5782826666666667
971774866 0.5754903333333333 -0.5792256666666665
973260745 0.574048 -0.5785056666666667
974746624 0.5755503333333333 -0.5807143333333333
976232503 0.5748186666666667 -0.579699
977718382 0.5738303333333333 -0.5804453333333334
979204261 0.571827 -0.580598
980690140 0.5711993333333334 -0.5794396666666667
982176019 0.5696296666666666 -0.580202
983661898 0.567959 -0.5777963333333332
985147777 0.5665056666666667 -0.575684
986633656 0.5621636666666666 -0.5751843333333333
988119535 0.560462 -0.5728386666666666
989605414 0.5577003333333334 -0.5715733333333334
991091293 0.5572516666666667 -0.572458
992577172 0.5577863333333334 -0.5759766666666667
994063051 0.5586466666666666 -0.5762179999999999
995548930 0.560473 -0.5785056666666667
997034809 0.5597373333333334 -0.5800186666666667
998520688 0.560933 -0.5812836666666666
1000006567 0.560239 -0.5821393333333333
1001492446 0.5589096666666667 -0.5840556666666666
1002978325 0.5608013333333334 -0.582936
1004464204 0.5595306666666667 -0.5841283333333332
1005950083 0.5588306666666667 -0.583468
1007435962 0.5582003333333333 -0.5828136666666667
1008921841 0.5578486666666667 -0.582097
1010407720 0.5540133333333332 -0.5820706666666666
1011893599 0.553281 -0.5810160000000001
1013379478 0.551173 -0.5789356666666666
1014865357 0.5503003333333333 -0.576782
1016351236 0.5470449999999999 -0.576275
1017837115 0.5446433333333334 -0.5744246666666667
1019322994 0.5429093333333334 -0.5716910000000001
1020808873 0.5419133333333334 -0.5720766666666667
1022294752 0.542328 -0.5749313333333333
1023780631 0.5428620000000001 -0.577462
1025266510 0.5430486666666666 -0.5799206666666668
1026752389 0.545203 -0.5804330000000001
1028238268 0.544708 -0.5823426666666667
1029724147 0.5461656666666667 -0.5827786666666667
1031210026 0.5449216666666666 -0.5841103333333333
1032695905 0.5435566666666667 -0.5864219999999999
1034181784 0.5435596666666667 -0.5850143333333334
1035667663 0.5439443333333333 -0.5848289999999999
1037153542 0.5422466666666667 -0.58572
1038639421 0.5415763333333333 -0.5838713333333333
1040125300 0.5410966666666667 -0.5828123333333334
1041611179 0.537313 -0.5836213333333333
1043097058 0.5378623333333333 -0.581823
1044582937 0.5349586666666667 -0.5808146666666666
1046068816 0.5336263333333333 -0.5784856666666666
1047554695 0.5303209999999999 -0.5772033333333333
1049040574 0.5271330000000001 -0.5743063333333334
1050526453 0.5289946666666666 -0.5748156666666667
1052012332 0.5287646666666667 -0.5773233333333333
1053498211 0.5307586666666667 -0.57921
1054984090 0.531865 -0.581242
1056469969 0.5328653333333334 -0.5818066666666666
1057955848 0.5343663333333333 -0.5837089999999999
1059441727 0.533217 -0.5857573333333334
1060927606 0.533222 -0.586344
1062413485 0.5350963333333334 -0.5850810000000001
1063899364 0.534729 -0.5874223333333334
1065385243 0.535504 -0.58543
1066871122 0.5321406666666667 -0.588313
1068357001 0.5129463333333334 -0.559316
1069842880 0.5303013333333334 -0.5864063333333333
1071328759 0.5292283333333333 -0.5853983333333334
1072814638 0.5277683333333333 -0.5834356666666666
1074300517 0.5259493333333333 -0.5828296666666667
1075786396 0.5214973333333334 -0.5841316666666666
1077272275 0.5213083333333334 -0.580007
1078758154 0.5169643333333334 -0.579031
1080244033 0.5147266666666667 -0.5775266666666667
1081729912 0.5177709999999999 -0.5796443333333333
1083215791 0.5143903333333334 -0.5846463333333333
1084701670 0.5191126666666667 -0.5843893333333333
1086187549 0.521527 -0.5845306666666668
1087673428 0.5219630000000001 -0.5866783333333333
1089159307 0.5230723333333333 -0.5869543333333334
1090645186 0.5210933333333333 -0.5900439999999999
1092131065 0.5230263333333335 -0.5881436666666667
1093616944 0.521197 -0.589231
1095102823 0.521611 -0.588604
1096588702 0.520029 -0.5900283333333334
1098074581 0.51903 -0.587544
1099560460 0.5187293333333334 -0.5882116666666667
1101046339 0.514158 -0.5860516666666667
1102532218 0.5137103333333334 -0.585479
1104018097 0.5121920000000001 -0.5845453333333334
1105503976 0.509473 -0.581213
1106989855 0.5079116666666667 -0.580369
1108475734 0.5082233333333334 -0.576216
1109961613 0.49912799999999996 -0.5774486666666667
1111447492 0.5066776666666667 -0.5780379999999999
1112933371 0.5037363333333333 -0.5807656666666667
1114419250 0.5062703333333333 -0.5834346666666667
1115905129 0.5038466666666667 -0.5874733333333333
1117391008 0.5086196666666667 -0.5862776666666667
1118876887 0.5071180000000001 -0.5897146666666666
1120362766 0.5087083333333333 -0.5889236666666666
1121848645 0.5367296666666667 -0.605671
1123334524 0.5090253333333333 -0.590539
1124820403 0.5065719999999999 -0.5910116666666667
1126306282 0.508506 -0.5908233333333334
1127792161 0.5047323333333333 -0.5915693333333334
1129278040 0.5061413333333333 -0.5897239999999999
1130763919 0.49911 -0.5901580000000001
1132249798 0.504023 -0.587673
1133735677 0.49829033333333334 -0.5882796666666666
1135221556 0.498951 -0.5841636666666666
1136707435 0.4927953333333333 -0.5848136666666667
1138193314 0.4924833333333334 -0.5828223333333333
1139679193 0.486089 -0.580583
1141165072 0.48913266666666666 -0.583021
1142650951 0.48847599999999997 -0.5866536666666667
1144136830 0.49272066666666664 -0.5861633333333334
1145622709 0.489515 -0.5902050000000001
1147108588 0.494494 -0.5905753333333333
1148594467 0.48792066666666667 -0.5951593333333333
1150080346 0.49361066666666664 -0.591429
1151566225 0.49069999999999997 -0.5958706666666667
1153052104 0.49141966666666664 -0.5954326666666666
1154537983 0.490515 -0.5960613333333332
1156023862 0.48941399999999996 -0.5964826666666667
1157509741 0.4885376666666666 -0.5954506666666667
1158995620 0.48676500000000006 -0.5945653333333333
1160481499 0.4851273333333334 -0.593039
1161967378 0.4840963333333333 -0.5915793333333333
1163453257 0.48308533333333337 -0.5900966666666666
1164939136 0.48003033333333334 -0.5886016666666666
1166425015 0.475587 -0.5867556666666666
1167910894 0.4831193333333333 -0.5781266666666667
1169396773 0.47165100000000004 -0.5823983333333334
1170882652 0.46842433333333333 -0.5842953333333334
1172368531 0.47038433333333335 -0.585306
1173854410 0.471698 -0.588453
1175340289 0.471678 -0.5904046666666667
1176826168 0.47131300000000004 -0.59202
1178312047 0.47250033333333336 -0.5936526666666667
1179797926 0.47228833333333337 -0.5948413333333333
1181283805 0.4717993333333334 -0.5953160000000001
1182769684 0.4723113333333333 -0.5951723333333333
1184255563 0.4704553333333334 -0.5965866666666666
1185741442 0.4709246666666667 -0.5950533333333333
1187227321 0.46978533333333333 -0.5955793333333332
1188713200 0.46935 -0.593857
1190199079 0.4663026666666667 -0.5932696666666667
1191684958 0.4656613333333333 -0.5919563333333333
1193170837 0.4638723333333334 -0.5894503333333333
1194656716 0.460498 -0.5877316666666667
1196142595 0.45629000000000003 -0.5866733333333333
1197628474 0.45459933333333336 -0.5842303333333333
1199114353 0.4519766666666667 -0.5818163333333334
1200600232 0.4535576666666667 -0.580041
1202086111 0.4547616666666667 -0.5836506666666667
1203571990 0.45618733333333333 -0.5857899999999999
1205057869 0.4559283333333333 -0.5898123333333334
1206543748 0.4567216666666667 -0.591089
1208029627 0.45644633333333334 -0.5928816666666666
1209515506 0.45851333333333333 -0.5933716666666667
1211001385 0.456996 -0.5959023333333334
1212487264 0.45998866666666666 -0.5952193333333333
1213973143 0.45968133333333333 -0.5955726666666666
1215459022 0.4577173333333333 -0.5961483333333333
1216944901 0.4590653333333334 -0.5952043333333333
1218430780 0.45848700000000003 -0.593595
1219916659 0.45690366666666665 -0.5933196666666667
1221402538 0.45597533333333334 -0.5917560000000001
1222888417 0.45482833333333333 -0.5911416666666667
1224374296 0.45349033333333333 -0.5895990000000001
1225860175 0.45170466666666664 -0.5863703333333333
1227346054 0.44875933333333334 -0.5846356666666667
1228831933 0.45032999999999995 -0.5838083333333333
1230317812 0.44347200000000003 -0.5824403333333333
1231803691 0.44589799999999996 -0.5822863333333334
1233289570 0.44566733333333336 -0.5853993333333333
1234775449 0.4452496666666667 -0.58811
1236261328 0.44683433333333333 -0.5903316666666667
1237747207 0.44878366666666664 -0.5911076666666667
1239233086 0.44923033333333334 -0.5911326666666666
1240718965 0.4475636666666667 -0.592079
1242204844 0.4479233333333334 -0.5935393333333333
1243690723 0.4501583333333334 -0.5915400000000001
1245176602 0.44900200000000007 -0.5918963333333335
1246662481 0.4474046666666667 -0.5919853333333333
1248148360 0.4426043333333333 -0.5933456666666667
1249634239 0.448593 -0.5891889999999999
1251120118 0.44217466666666666 -0.588548
1252605997 0.4443756666666667 -0.5855063333333334
1254091876 0.44058233333333335 -0.5849473333333334
1255577755 0.44144266666666665 -0.5817136666666666
1257063634 0.43608833333333336 -0.5802796666666666
1258549513 0.43444299999999997 -0.5778776666666666
1260035392 0.43635633333333335 -0.5718016666666667
1261521271 0.43537066666666663 -0.5751656666666667
1263007150 0.4330856666666667 -0.5794833333333334
1264493029 0.4351 -0.5816870000000001
1265978908 0.4350293333333333 -0.5828406666666667
1267464787 0.435624 -0.583874
1268950666 0.43356 -0.586574
1270436545 0.43431266666666674 -0.588028
1271922424 0.4323443333333333 -0.5886669999999999
1273408303 0.43302733333333326 -0.588908
1274894182 0.43236633333333335 -0.5893723333333333
1276380061 0.43203733333333333 -0.5897720000000001
1277865940 0.430811 -0.5891413333333334
1279351819 0.43044600000000005 -0.5877153333333333
1280837698 0.42680500000000005 -0.5877363333333333
1282323577 0.427309 -0.587569
1283809456 0.42480999999999997 -0.5863403333333334
1285295335 0.42422033333333337 -0.584
1286781214 0.4207976666666666 -0.5832113333333333
1288267093 0.41788966666666666 -0.582319
1289752972 0.41750099999999996 -0.5789333333333334
1291238851 0.41784 -0.579938
1292724730 0.4169066666666667 -0.5834566666666666
1294210609 0.4189036666666666 -0.58501
1295696488 0.4199056666666667 -0.5867553333333334
1297182367 0.4216676666666667 -0.588841
1298668246 0.4206516666666667 -0.5894550000000001
1300154125 0.4221776666666666 -0.590499
1301640004 0.42179300000000003 -0.5909593333333333
1303125883 0.42243800000000004 -0.5893753333333334
1304611762 0.4196203333333333 -0.59252
1306097641 0.42199766666666666 -0.5914676666666666
1307583520 0.421238 -0.5905856666666667
1309069399 0.421359 -0.589697
1310555278 0.42044866666666664 -0.5875593333333333
1312041157 0.4220833333333333 -0.5849846666666667
1313527036 0.4185266666666667 -0.5842553333333332
1315012915 0.41903533333333337 -0.5825706666666667
1316498794 0.4152706666666666 -0.5818476666666667
1317984673 0.41655 -0.578401
1319470552 0.415589 -0.5748099999999999
1320956431 0.412885 -0.575602
1322442310 0.4131666666666667 -0.5805513333333333
1323928189 0.41501499999999997 -0.5808593333333333
1325414068 0.4157330000000001 -0.5833456666666667
1326899947 0.41685799999999995 -0.5855946666666667
1328385826 0.419024 -0.5868570000000001
1329871705 0.4159006666666667 -0.5885666666666666
1331357584 0.418377 -0.588851
1332843463 0.417481 -0.5906343333333334
1334329342 0.41609633333333335 -0.5901546666666666
1335815221 0.41613799999999995 -0.5913786666666667
1337301100 0.4151046666666667 -0.5917296666666667
1338786979 0.415835 -0.5888206666666668
1340272858 0.41561933333333334 -0.5886796666666666
1341758737 0.415291 -0.5889676666666667
1343244616 0.41289899999999996 -0.5886373333333333
1344730495 0.41233633333333336 -0.5863186666666667
1346216374 0.41079099999999996 -0.5851640000000001
1347702253 0.409187 -0.5834483333333333
1349188132 0.4059633333333333 -0.582522
1350674011 0.40728566666666666 -0.5810926666666667
1352159890 0.40830900000000003 -0.5830386666666667
1353645769 0.41014633333333333 -0.5839586666666667
1355131648 0.4102223333333333 -0.5840703333333334
1356617527 0.409461 -0.586164
1358103406 0.4086033333333334 -0.5882516666666667
1359589285 0.4062143333333333 -0.5898070000000001
1361075164 0.4071563333333333 -0.5890243333333333
1362561043 0.40435266666666664 -0.5903943333333332
1364046922 0.40517833333333336 -0.589168
1365532801 0.4016723333333334 -0.589876
1367018680 0.40284533333333333 -0.5896566666666666
1368504559 0.40045833333333336 -0.5873759999999999
1369990438 0.4171723333333333 -0.6219066666666667
1371476317 0.39652333333333334 -0.587363
1372962196 0.39863933333333335 -0.5838563333333333
1374448075 0.3955683333333333 -0.583183
1375933954 0.42075900000000005 -0.5888313333333334
1377419833 0.38980400000000004 -0.5803900000000001
1378905712 0.38700633333333334 -0.57737
1380391591 0.38533866666666666 -0.5773513333333333
1381877470 0.3885826666666667 -0.5805646666666666
1383363349 0.38847866666666664 -0.5846453333333334
1384849228 0.389064 -0.5856453333333334
1386335107 0.39199133333333336 -0.5857773333333333
1387820986 0.3973433333333333 -0.586844
1389306865 0.3978273333333333 -0.586864
1390792744 0.4003773333333333 -0.587558
1392278623 0.39970666666666665 -0.58732
1393764502 0.403587 -0.5878416666666666
1395250381 0.40132966666666664 -0.5877923333333334
1396736260 0.3933143333333333 -0.5900393333333334
1398222139 0.3921326666666667 -0.590144
1399708018 0.3905886666666667 -0.5886446666666667
1401193897 0.39208166666666666 -0.5872673333333334
1402679776 0.3920653333333333 -0.5862743333333333
1404165655 0.3924083333333333 -0.5830936666666666
1405651534 0.38898933333333335 -0.5829343333333333
1407137413 0.386759 -0.58225
1408623292 0.3868473333333333 -0.5789333333333332
1410109171 0.3852256666666667 -0.5761743333333333
1411595050 0.38837933333333335 -0.5765656666666666
1413080929 0.38808 -0.580942
1414566808 0.387931 -0.5849833333333333
1416052687 0.3904006666666666 -0.5872993333333333
1417538566 0.3918256666666667 -0.58636
1419024445 0.39117633333333335 -0.588121
1420510324 0.3940143333333333 -0.5894243333333332
1421996203 0.396318 -0.5896426666666668
1423482082 0.3966353333333334 -0.5907083333333333
1424967961 0.39598466666666665 -0.589553
1426453840 0.394186 -0.590701
1427939719 0.3963236666666667 -0.5889473333333334
1429425598 0.3943493333333334 -0.5902776666666666
1430911477 0.394001 -0.587984
1432397356 0.3923446666666666 -0.5870869999999999
1433883235 0.3946543333333334 -0.5849463333333332
1435369114 0.3898246666666667 -0.5846656666666666
1436854993 0.3901343333333333 -0.5818
1438340872 0.3879246666666667 -0.5799093333333333
1439826751 0.38480133333333333 -0.577948
1441312630 0.38503599999999993 -0.5801660000000001
1442798509 0.38548199999999994 -0.5821106666666668
1444284388 0.3879263333333334 -0.584586
1445770267 0.38644833333333334 -0.5857466666666667
1447256146 0.3894703333333333 -0.5849143333333333
1448742025 0.38770666666666664 -0.587252
1450227904 0.38866633333333334 -0.5866396666666667
1451713783 0.38756999999999997 -0.5881663333333332
1453199662 0.3883636666666666 -0.587508
1454685541 0.3877273333333333 -0.587722
1456171420 0.38510700000000003 -0.5880786666666667
1457657299 0.3850766666666667 -0.587103
1459143178 0.3825273333333334 -0.5862856666666666
1460629057 0.38249099999999997 -0.5849030000000001
1462114936 0.381769 -0.5822943333333334
1463600815 0.380461 -0.581038
1465086694 0.37748199999999993 -0.5792443333333334
1466572573 0.374506 -0.579184
1468058452 0.37025233333333335 -0.576874
1469544331 0.3681466666666666 -0.5739026666666667
1471030210 0.367153 -0.5761203333333333
1472516089 0.3691163333333334 -0.5785506666666667
1474001968 0.36959633333333336 -0.580551
1475487847 0.37130033333333334 -0.582635
1476973726 0.3716983333333333 -0.5837176666666667
1478459605 0.373383 -0.5856496666666667
1479945484 0.3751123333333333 -0.5871546666666666
1481431363 0.3723073333333334 -0.5888396666666668
1482917242 0.37517033333333333 -0.5876966666666666
1484403121 0.37498000000000004 -0.5880583333333332
1485889000 0.3765753333333333 -0.5871496666666667
1487374879 0.37547400000000003 -0.587488
1488860758 0.37448433333333336 -0.5857726666666666
1490346637 0.37278100000000003 -0.5856153333333334
1491832516 0.3703193333333334 -0.5841943333333334
1493318395 0.3704766666666666 -0.580939
1494804274 0.3675273333333333 -0.579854
1496290153 0.3673343333333334 -0.5777656666666667
1497776032 0.36449299999999996 -0.5758366666666667
1499261911 0.3622883333333333 -0.5740953333333333
1500747790 0.36396199999999995 -0.5733106666666666
1502233669 0.3625076666666667 -0.5753713333333333
1503719548 0.36136833333333335 -0.5775493333333334
1505205427 0.3655313333333334 -0.5798546666666666
1506691306 0.36446300000000004 -0.5824353333333333
1508177185 0.36266533333333334 -0.5834986666666666
1509663064 0.364778 -0.5846653333333334
1511148943 0.36582200000000004 -0.584577
1512634822 0.36073399999999994 -0.5861133333333334
1514120701 0.364987 -0.5854416666666666
1515606580 0.36467099999999997 -0.5846106666666667
1517092459 0.36323533333333335 -0.5850026666666667
1518578338 0.36105833333333326 -0.5850743333333334
1520064217 0.360109 -0.583365
1521550096 0.3589096666666667 -0.583082
1523035975 0.357934 -0.5807203333333334
1524521854 0.35473166666666667 -0.580474
1526007733 0.35443633333333335 -0.5773013333333333
1527493612 0.34951499999999996 -0.5748053333333333
1528979491 0.3625583333333333 -0.6010876666666666
1530465370 0.34459666666666666 -0.5718040000000001
1531951249 0.3454683333333333 -0.5755816666666667
1533437128 0.349629 -0.5738563333333333
1534923007 0.35358833333333334 -0.5768413333333333
1536408886 0.3535203333333334 -0.5774706666666667
1537894765 0.35438233333333335 -0.5801029999999999
1539380644 0.35315199999999997 -0.5804383333333334
1540866523 0.3527343333333333 -0.5823056666666666
1542352402 0.35230033333333327 -0.581788
1543838281 0.353958 -0.5819043333333332
1545324160 0.3537413333333333 -0.5801176666666666
1546810039 0.355224 -0.5807216666666667
1548295918 0.352757 -0.580847
1549781797 0.35063400000000006 -0.5795586666666667
1551267676 0.3501046666666667 -0.576194
1552753555 0.3493033333333333 -0.575227
1554239434 0.3499293333333333 -0.57278
1555725313 0.34149433333333334 -0.573377
1557211192 0.34110233333333334 -0.5698683333333334
1558697071 0.33973733333333334 -0.5651906666666667
1560182950 0.3342943333333333 -0.5660820000000001
1561668829 0.33612200000000003 -0.568038
1563154708 0.3369993333333334 -0.5706163333333333
1564640587 0.33640500000000007 -0.573621
1566126466 0.3366036666666667 -0.5761273333333333
1567612345 0.3382163333333333 -0.576851
1569098224 0.33714933333333336 -0.5788006666666666
1570584103 0.33718200000000004 -0.5803283333333334
1572069982 0.33781633333333333 -0.5803036666666667
1573555861 0.33994300000000005 -0.5804963333333334
1575041740 0.3358343333333333 -0.582379
1576527619 0.33796733333333334 -0.5810593333333333
1578013498 0.3396206666666666 -0.5782296666666666
1579499377 0.33586733333333335 -0.5801163333333333
1580985256 0.3365453333333333 -0.578
1582471135 0.3340353333333333 -0.5775733333333334
1583957014 0.33141933333333334 -0.5767616666666666
1585442893 0.33493500000000004 -0.571886
1586928772 0.330425 -0.572027
1588414651 0.3279123333333333 -0.5695566666666667
1589900530 0.32509533333333335 -0.5693366666666667
1591386409 0.3264186666666667 -0.569697
1592872288 0.3273983333333333 -0.572952
1594358167 0.32695833333333335 -0.5751153333333333
1595844046 0.3279273333333333 -0.5759583333333333
1597329925 0.32867599999999997 -0.577052
1598815804 0.32786566666666667 -0.578577
1600301683 0.329447 -0.5786363333333333
1601787562 0.32842600000000005 -0.58096
1603273441 0.3289533333333334 -0.5805526666666667
1604759320 0.3269583333333333 -0.581782
1606245199 0.3276573333333333 -0.5814266666666666
1607731078 0.32484566666666664 -0.5811799999999999
1609216957 0.326171 -0.5796570000000001
1610702836 0.32912800000000003 -0.576277
1612188715 0.32556666666666667 -0.5774523333333333
1613674594 0.3248836666666667 -0.5755936666666667
1615160473 0.32369733333333334 -0.5735886666666666
1616646352 0.32384166666666664 -0.570315
1618132231 0.32019666666666663 -0.5688596666666667
1619618110 0.3204473333333333 -0.5652746666666667
1621103989 0.317664 -0.5680623333333333
1622589868 0.3189123333333333 -0.569619
1624075747 0.3204916666666667 -0.5711323333333334
1625561626 0.3187613333333333 -0.5736663333333333
1627047505 0.31950066666666666 -0.5751113333333333
1628533384 0.317799 -0.5768733333333333
1630019263 0.318282 -0.5770586666666666
1631505142 0.31911866666666666 -0.5773843333333334
1632991021 0.3188396666666667 -0.5785506666666667
1634476900 0.316415 -0.5803363333333333
1635962779 0.31726366666666667 -0.578874
1637448658 0.31521233333333337 -0.5794009999999999
1638934537 0.314887 -0.578819
1640420416 0.3143316666666667 -0.5772503333333333
1641906295 0.3124923333333333 -0.5773276666666666
1643392174 0.31229966666666664 -0.5749436666666666
1644878053 0.3109146666666667 -0.574363
1646363932 0.31042233333333336 -0.5721863333333332
1647849811 0.3087046666666667 -0.5706736666666666
1649335690 0.30515566666666666 -0.5689096666666666
1650821569 0.3068393333333333 -0.5688193333333332
1652307448 0.307865 -0.569743
1653793327 0.30657666666666666 -0.5722676666666667
1655279206 0.3083976666666667 -0.5743983333333333
1656765085 0.3071966666666666 -0.5752486666666666
1658250964 0.3084533333333333 -0.5758606666666667
1659736843 0.30793633333333337 -0.5776889999999999
1661222722 0.309545 -0.5771473333333333
1662708601 0.30669266666666667 -0.5772003333333333
1664194480 0.30848966666666666 -0.576868
1665680359 0.30817066666666665 -0.5766783333333333
1667166238 0.30836766666666665 -0.5778146666666667
1668652117 0.3135116666666667 -0.5734083333333334
1670137996 0.30623399999999995 -0.573336
1671623875 0.304954 -0.574007
1673109754 0.30227533333333334 -0.5728353333333333
1674595633 0.302394 -0.5705110000000001
1676081512 0.30137166666666665 -0.5680540000000001
1677567391 0.29901099999999997 -0.5664693333333334
1679053270 0.2979136666666667 -0.5627356666666666
1680539149 0.29623299999999997 -0.5632636666666667
1682025028 0.2970543333333333 -0.566159
1683510907 0.297674 -0.5688913333333333
1684996786 0.2990023333333333 -0.570162
1686482665 0.29897799999999997 -0.5719496666666667
1687968544 0.30039866666666665 -0.5727243333333334
1689454423 0.300621 -0.5741416666666667
1690940302 0.3005233333333333 -0.5748286666666667
1692426181 0.3034216666666667 -0.5749076666666667
1693912060 0.30205299999999996 -0.5760649999999999
1695397939 0.30504200000000004 -0.5749323333333334
1696883818 0.3031333333333333 -0.574619
1698369697 0.302033 -0.5748293333333333
1699855576 0.306342 -0.5702086666666667
1701341455 0.30421133333333333 -0.5713013333333333
1702827334 0.3011893333333333 -0.5705196666666666
1704313213 0.30169466666666667 -0.5690923333333333
1705799092 0.30039699999999997 -0.5685276666666667
1707284971 0.2995286666666667 -0.5657276666666666
1708770850 0.29459033333333334 -0.5653429999999999
1710256729 0.2961496666666667 -0.5615006666666666
1711742608 0.2979986666666667 -0.5655663333333333
1713228487 0.29579466666666665 -0.5659416666666667
1714714366 0.29788566666666666 -0.5673560000000001
1716200245 0.30101500000000003 -0.5681953333333333
1717686124 0.2982956666666667 -0.5699466666666666
1719172003 0.299511 -0.5708823333333334
1720657882 0.30006499999999997 -0.5704086666666667
1722143761 0.301544 -0.5715216666666666
1723629640 0.298417 -0.5724746666666666
1725115519 0.29985866666666666 -0.571229
1726601398 0.29851533333333335 -0.5739976666666666
1728087277 0.2986256666666667 -0.5696673333333333
1729573156 0.29840666666666665 -0.5711020000000001
1731059035 0.280177 -0.5617716666666667
1732544914 0.2952466666666667 -0.5655
1734030793 0.2967106666666666 -0.565159
1735516672 0.29016899999999995 -0.5651386666666666
1737002551 0.2910356666666667 -0.5616396666666666
1738488430 0.28873366666666667 -0.5601153333333334
1739974309 0.28617200000000004 -0.5562306666666667
1741460188 0.28761466666666663 -0.5575136666666666
1742946067 0.28848500000000005 -0.5623456666666667
1744431946 0.28832966666666665 -0.5643199999999999
1745917825 0.290144 -0.5648259999999999
1747403704 0.28988533333333333 -0.568315
1748889583 0.2875796666666667 -0.5701036666666667
1750375462 0.2892276666666667 -0.5699206666666666
1751861341 0.290584 -0.5711243333333332
1753347220 0.2894076666666667 -0.5718466666666666
1754833099 0.2902413333333333 -0.571558
1756318978 0.29241999999999996 -0.5700886666666668
1757804857 0.29224500000000003 -0.570771
1759290736 0.2901223333333333 -0.5693396666666667
1760776615 0.28872000000000003 -0.5698573333333333
1762262494 0.28853599999999996 -0.5666533333333333
1763748373 0.29002666666666665 -0.564254
1765234252 0.28605133333333327 -0.5625996666666667
1766720131 0.28747966666666663 -0.5629556666666667
1768206010 0.2857883333333333 -0.559438
1769691889 0.28304866666666667 -0.5572513333333333
1771177768 0.2835396666666667 -0.5587943333333333
1772663647 0.28154 -0.5622536666666668
1774149526 0.28210833333333335 -0.5639846666666667
1775635405 0.283862 -0.5674386666666668
1777121284 0.28413866666666665 -0.5683269999999999
1778607163 0.28554233333333334 -0.5686826666666667
1780093042 0.28992199999999996 -0.5698533333333334
1781578921 0.287621 -0.569844
1783064800 0.2881606666666667 -0.5709283333333334
1784550679 0.28872633333333336 -0.5711926666666667
1786036558 0.28778333333333334 -0.57048
1787522437 0.28797 -0.5689086666666666
1789008316 0.28931233333333334 -0.5678916666666666
1790494195 0.28878733333333334 -0.566203
1791980074 0.286247 -0.5659066666666667
1793465953 0.287919 -0.5643753333333333
1794951832 0.2864083333333333 -0.5631633333333333
1796437711 0.28585 -0.5596686666666667
1797923590 0.285081 -0.5586720000000001
1799409469 0.2833326666666667 -0.5552843333333334
1800895348 0.2816353333333333 -0.5568486666666667
1802381227 0.28206233333333336 -0.5567693333333333
1803867106 0.28178466666666663 -0.5596566666666667
1805352985 0.2829253333333333 -0.5627963333333333
1806838864 0.285035 -0.5626693333333334
1808324743 0.286269 -0.5645396666666667
1809810622 0.2875663333333333 -0.5643176666666667
1811296501 0.2861076666666667 -0.5644106666666667
1812782380 0.28581266666666666 -0.5636633333333333
1814268259 0.287545 -0.5646916666666667
1815754138 0.2854463333333333 -0.5635936666666667
1817240017 0.2851883333333333 -0.56232
1818725896 0.285202 -0.5622803333333333
1820211775 0.282835 -0.561691
1821697654 0.2846703333333333 -0.5592583333333333
1823183533 0.2821656666666667 -0.5575343333333334
1824669412 0.2787513333333333 -0.5569810000000001
1826155291 0.27640933333333334 -0.5530873333333334
1827641170 0.27063366666666666 -0.5573676666666666
1829127049 0.2684606666666667 -0.5495273333333334
1830612928 0.2718586666666667 -0.548707
1832098807 0.2680956666666667 -0.551304
1833584686 0.271272 -0.554403
1835070565 0.27196166666666666 -0.5574693333333333
1836556444 0.272833 -0.5582563333333334
1838042323 0.270874 -0.559414
1839528202 0.270307 -0.5614903333333333
1841014081 0.27352733333333334 -0.55945
1842499960 0.27027 -0.5632523333333334
1843985839 0.2708893333333333 -0.5639403333333334
1845471718 0.2740666666666667 -0.563575
1846957597 0.27096133333333333 -0.562179
1848443476 0.272597 -0.5599293333333333
1849929355 0.26827366666666663 -0.5620189999999999
1851415234 0.267824 -0.5615106666666667
1852901113 0.26971366666666663 -0.5581143333333333
1854386992 0.2742046666666667 -0.5587556666666668
1855872871 0.266055 -0.5562513333333333
1857358750 0.26898666666666665 -0.5544606666666666
1858844629 0.26690300000000006 -0.5535880000000001
1860330508 0.2665663333333333 -0.5501756666666666
1861816387 0.26593466666666665 -0.552688
1863302266 0.26910133333333336 -0.5549986666666666
1864788145 0.26661399999999996 -0.556937
1866274024 0.2652353333333333 -0.559442
1867759903 0.26851200000000003 -0.55946
1869245782 0.26784066666666667 -0.562322
1870731661 0.27109666666666665 -0.5616283333333333
1872217540 0.26948900000000003 -0.5623456666666667
1873703419 0.2695476666666667 -0.5629893333333333
1875189298 0.268519 -0.5636616666666666
1876675177 0.26992299999999997 -0.5625253333333333
1878161056 0.268861 -0.562897
1879646935 0.269851 -0.5604396666666667
1881132814 0.27016466666666666 -0.560555
1882618693 0.2674003333333333 -0.5580983333333333
1884104572 0.2659823333333334 -0.558126
1885590451 0.26702699999999996 -0.554764
1887076330 0.264351 -0.5533313333333333
1888562209 0.264776 -0.5499293333333334
1890048088 0.26215866666666665 -0.5496333333333333
1891533967 0.26164499999999996 -0.5505403333333333
1893019846 0.26601 -0.5526646666666667
1894505725 0.26230099999999995 -0.5537846666666667
1895991604 0.26429 -0.557162
1897477483 0.267555 -0.5552333333333334
1898963362 0.262431 -0.5593156666666667
1900449241 0.2648413333333333 -0.5555089999999999
1901935120 0.267473 -0.5570913333333334
1903420999 0.26352533333333333 -0.5567840000000001
1904906878 0.263641 -0.5572146666666666
1906392757 0.263371 -0.5581836666666667
1907878636 0.26327800000000007 -0.5554973333333333
1909364515 0.266395 -0.5541173333333334
1910850394 0.26283300000000004 -0.5534656666666667
1912336273 0.260741 -0.5509913333333334
1913822152 0.2607813333333333 -0.5496953333333333
1915308031 0.255088 -0.5490913333333333
1916793910 0.25768566666666665 -0.545554
1918279789 0.2576173333333333 -0.542751
1919765668 0.2546103333333333 -0.5392833333333334
1921251547 0.2573826666666667 -0.5414013333333333
1922737426 0.2541946666666667 -0.5437016666666666
1924223305 0.255339 -0.5459956666666667
1925709184 0.2554163333333333 -0.5473766666666667
1927195063 0.25602566666666665 -0.5505426666666667
1928680942 0.25543199999999994 -0.550554
1930166821 0.2580746666666667 -0.5504683333333333
1931652700 0.2567773333333333 -0.5519303333333333
1933138579 0.2544706666666667 -0.5544413333333333
1934624458 0.25442533333333334 -0.553899
1936110337 0.25314233333333336 -0.5542496666666668
1937596216 0.25538533333333335 -0.554574
1939082095 0.25686366666666666 -0.5519229999999999
1940567974 0.25527133333333335 -0.5510066666666668
1942053853 0.253262 -0.55206
1943539732 0.25056799999999996 -0.5488240000000001
1945025611 0.25113233333333335 -0.5479623333333333
1946511490 0.24776966666666667 -0.5479096666666666
1947997369 0.24787166666666668 -0.5449203333333333
1949483248 0.24580666666666665 -0.5435976666666668
1950969127 0.24775133333333335 -0.5431603333333334
1952455006 0.24753266666666665 -0.5455896666666668
1953940885 0.24686133333333335 -0.5473709999999999
1955426764 0.24910599999999997 -0.5480023333333334
1956912643 0.24679966666666667 -0.5489933333333333
1958398522 0.248888 -0.5488223333333333
1959884401 0.24849266666666667 -0.5512156666666667
1961370280 0.24669633333333332 -0.552301
1962856159 0.248305 -0.5517299999999999
1964342038 0.2456493333333333 -0.5533256666666667
1965827917 0.24787800000000001 -0.551314
1967313796 0.24567000000000003 -0.551495
1968799675 0.24368066666666666 -0.5514156666666666
1970285554 0.24068900000000001 -0.549846
1971771433 0.238225 -0.5498570000000002
1973257312 0.237459 -0.547589
1974743191 0.248717 -0.5697
1976229070 0.23645099999999997 -0.543461
1977714949 0.234455 -0.5424683333333333
1979200828 0.231994 -0.5406433333333333
1980686707 0.232525 -0.5411653333333333
1982172586 0.23019833333333337 -0.5427116666666666
1983658465 0.23536866666666664 -0.5427213333333333
1985144344 0.233905 -0.5454636666666667
1986630223 0.23402799999999999 -0.546063
1988116102 0.23339366666666664 -0.5484416666666666
1989601981 0.23138166666666668 -0.5548833333333333
1991087860 0.23512366666666665 -0.549564
1992573739 0.2341873333333333 -0.5494693333333333
1994059618 0.23421566666666668 -0.5491306666666667
1995545497 0.23855233333333334 -0.5488240000000001
1997031376 0.2391373333333333 -0.548751
1998517255 0.2381913333333333 -0.5472576666666668
2000003134 0.23758500000000002 -0.5479596666666667
2001489013 0.23696133333333336 -0.5457216666666667
2002974892 0.23462666666666668 -0.5452473333333333
2004460771 0.233386 -0.5438139999999999
2005946650 0.23288699999999998 -0.5412186666666666
2007432529 0.23152799999999998 -0.5398923333333333
2008918408 0.22983033333333336 -0.536356
2010404287 0.22803366666666666 -0.537102
2011890166 0.231406 -0.5370560000000001
2013376045 0.231096 -0.5397406666666668
2014861924 0.22901300000000002 -0.5427216666666667
2016347803 0.231731 -0.5430766666666668
2017833682 0.23134000000000002 -0.5453709999999999
2019319561 0.23079766666666665 -0.546043
2020805440 0.23347099999999998 -0.5471563333333332
2022291319 0.23882866666666666 -0.5420833333333334
2023777198 0.23376 -0.5483196666666666
2025263077 0.23254933333333336 -0.546745
2026748956 0.2350013333333333 -0.544641
2028234835 0.231065 -0.5478563333333333
2029720714 0.22882433333333332 -0.5485536666666667
2031206593 0.230772 -0.54425
2032692472 0.22790266666666667 -0.5443083333333334
2034178351 0.23126899999999997 -0.5412946666666666
2035664230 0.229606 -0.5401900000000001
2037150109 0.2289536666666667 -0.5375536666666667
2038635988 0.22744333333333333 -0.5354880000000001
2040121867 0.22563166666666667 -0.5350943333333334
2041607746 0.22717900000000002 -0.535616
2043093625 0.22692566666666666 -0.5370176666666667
2044579504 0.22830366666666668 -0.5372896666666666
2046065383 0.223121 -0.5432453333333332
2047551262 0.22496233333333335 -0.5428956666666668
2049037141 0.22574933333333333 -0.5425460000000001
2050523020 0.22456466666666666 -0.5432743333333333
2052008899 0.2251453333333333 -0.5437413333333333
2053494778 0.224818 -0.5439926666666667
2054980657 0.22395666666666666 -0.5428656666666667
2056466536 0.22332100000000002 -0.5421006666666667
2057952415 0.22424033333333335 -0.5416106666666666
2059438294 0.22172133333333333 -0.539451
2060924173 0.221611 -0.539414
2062410052 0.22098166666666672 -0.5383056666666667
2063895931 0.22226466666666667 -0.535518
2065381810 0.21978466666666666 -0.5340043333333333
2066867689 0.21455866666666668 -0.533419
2068353568 0.21504933333333334 -0.5306093333333334
2069839447 0.21357033333333333 -0.5282213333333333
2071325326 0.21250433333333332 -0.5306873333333333
2072811205 0.214997 -0.5331926666666668
2074297084 0.21355099999999996 -0.5342743333333334
2075782963 0.214018 -0.5372693333333333
2077268842 0.21537566666666666 -0.5383156666666666
2078754721 0.21707900000000002 -0.5383650000000001
2080240600 0.21812733333333334 -0.5386319999999999
2081726479 0.21732433333333334 -0.5413916666666667
2083212358 0.21657366666666666 -0.5411556666666667
2084698237 0.21761233333333332 -0.5422116666666666
2086184116 0.21935933333333332 -0.5414696666666666
2087669995 0.21868133333333337 -0.5411026666666666
2089155874 0.21963733333333335 -0.5401753333333333
2090641753 0.21866299999999997 -0.537988
2092127632 0.21772666666666665 -0.5367463333333333
2093613511 0.21573966666666666 -0.5373726666666667
2095099390 0.216589 -0.5352283333333333
2096585269 0.21666333333333335 -0.5335610000000001
2098071148 0.21586133333333332 -0.531892
2099557027 0.21292333333333335 -0.5289403333333333
2101042906 0.21384566666666668 -0.5297486666666668
2102528785 0.21541166666666667 -0.532924
2104014664 0.21503366666666668 -0.5346806666666667
2105500543 0.21474233333333334 -0.5357930000000001
2106986422 0.21685433333333334 -0.538846
2108472301 0.21628100000000003 -0.5393849999999999
2109958180 0.213796 -0.5391916666666666
2111444059 0.213935 -0.5404356666666666
2112929938 0.21612733333333334 -0.5407173333333333
2114415817 0.216871 -0.541996
2115901696 0.21645533333333333 -0.5416543333333333
2117387575 0.21444966666666665 -0.540604
2118873454 0.215271 -0.5396956666666667
2120359333 0.2179696666666667 -0.5389623333333334
2121845212 0.217353 -0.5371843333333334
2123331091 0.21484466666666668 -0.5369946666666667
2124816970 0.20416533333333334 -0.5255920000000001
2126302849 0.21019633333333335 -0.533289
2127788728 0.21014033333333335 -0.530881
2129274607 0.209596 -0.5298866666666667
2130760486 0.20811633333333335 -0.5290073333333333
2132246365 0.20803000000000002 -0.5305503333333333
2133732244 0.209407 -0.532271
2135218123 0.207923 -0.5361883333333334
2136704002 0.21110199999999998 -0.536908
2138189881 0.20833800000000002 -0.5373716666666666
2139675760 0.20997433333333335 -0.5394073333333332
2141161639 0.210894 -0.5399503333333334
2142647518 0.208927 -0.539794
2144133397 0.20695466666666665 -0.5404336666666666
2145619276 0.206186 -0.5399013333333333
2147105155 0.20705300000000001 -0.538945
2148591034 0.208178 -0.5384803333333333
2150076913 0.20708333333333337 -0.537689
2151562792 0.203723 -0.5377016666666666
2153048671 0.20471266666666668 -0.5362779999999999
2154534550 0.20110933333333333 -0.535694
2156020429 0.20423033333333332 -0.5329203333333333
2157506308 0.19912033333333334 -0.531856
2158992187 0.19923166666666667 -0.5301243333333333
2160478066 0.19886633333333334 -0.5303883333333334
2161963945 0.199609 -0.5325786666666666
2163449824 0.198989 -0.5331353333333334
2164935703 0.198349 -0.5348656666666667
2166421582 0.20012 -0.5378463333333333
2167907461 0.199446 -0.540184
2169393340 0.20271733333333333 -0.5387386666666666
2170879219 0.20255900000000002 -0.53889
2172365098 0.19718166666666667 -0.5397166666666666
2173850977 0.202045 -0.540953
2175336856 0.20283533333333334 -0.5388206666666667
2176822735 0.20411766666666667 -0.5388343333333333
2178308614 0.221069 -0.5543536666666666
2179794493 0.203892 -0.5366646666666667
2181280372 0.2033856666666667 -0.5378113333333333
2182766251 0.20336200000000001 -0.5351506666666667
2184252130 0.20193266666666665 -0.5328930000000001
2185738009 0.20247666666666667 -0.5327280000000001
2187223888 0.20198533333333332 -0.529658
2188709767 0.20132533333333333 -0.52768
2190195646 0.20082966666666668 -0.5262576666666666
2191681525 0.20184833333333332 -0.5296569999999999
2193167404 0.201658 -0.5298466666666667
2194653283 0.201132 -0.532059
2196139162 0.20274033333333333 -0.5324343333333333
2197625041 0.20340633333333333 -0.5347143333333333
2199110920 0.205659 -0.53544
2200596799 0.20267899999999997 -0.5350999999999999
2202082678 0.205273 -0.5335886666666667
2203568557 0.2060793333333333 -0.5341873333333332
2205054436 0.20619966666666667 -0.5340786666666667
2206540315 0.20488900000000002 -0.5347926666666667
2208026194 0.18974966666666668 -0.538346
2209512073 0.2060396666666667 -0.5324783333333334
2210997952 0.20664333333333332 -0.5313716666666667
2212483831 0.20577800000000002 -0.5290696666666667
2213969710 0.207539 -0.5277936666666666
2215455589 0.20457 -0.5241633333333334
2216941468 0.20546899999999998 -0.5239006666666667
2218427347 0.19897 -0.52325
2219913226 0.20177866666666666 -0.5199573333333333
2221399105 0.2029716666666667 -0.5205613333333333
2222884984 0.20258233333333334 -0.5213326666666667
2224370863 0.20090333333333332 -0.5237533333333333
2225856742 0.20401333333333335 -0.5271153333333333
2227342621 0.20380999999999996 -0.5270796666666667
2228828500 0.20124133333333336 -0.5290863333333333
2230314379 0.2022763333333333 -0.5305076666666667
2231800258 0.20310833333333334 -0.5311009999999999
2233286137 0.20590999999999995 -0.5311493333333334
2234772016 0.20283566666666666 -0.529343
2236257895 0.20635466666666666 -0.5333953333333333
2237743774 0.20504733333333333 -0.5305956666666667
2239229653 0.20204166666666667 -0.530674
2240715532 0.20350033333333337 -0.5309193333333334
2242201411 0.20094433333333336 -0.5301456666666667
2243687290 0.20527366666666666 -0.5272973333333334
2245173169 0.20097166666666666 -0.5263863333333334
2246659048 0.197403 -0.5252933333333334
2248144927 0.20283733333333331 -0.5236423333333334
2249630806 0.19911933333333334 -0.522204
2251116685 0.201728 -0.5220940000000001
2252602564 0.19821933333333333 -0.5239656666666667
2254088443 0.20026133333333332 -0.5255299999999999
2255574322 0.20249099999999998 -0.5262920000000001
2257060201 0.202014 -0.527046
2258546080 0.199063 -0.5277053333333334
2260031959 0.19787133333333332 -0.5283256666666666
2261517838 0.196635 -0.5277496666666667
2263003717 0.19834300000000002 -0.5282693333333334
2264489596 0.19519633333333333 -0.5270353333333334
2265975475 0.199198 -0.5273526666666667
2267461354 0.19243266666666667 -0.5271929999999999
2268947233 0.190182 -0.539548
2270433112 0.19438233333333332 -0.5262716666666667
2271918991 0.194806 -0.5252389999999999
2273404870 0.1936496666666667 -0.5253836666666666
2274890749 0.197721 -0.521626
2276376628 0.19157900000000003 -0.5202330000000001
2277862507 0.191173 -0.5197923333333333
2279348386 0.19172066666666665 -0.5179056666666666
2280834265 0.18912166666666666 -0.5168416666666668
2282320144 0.19147866666666666 -0.5208293333333334
2283806023 0.187327 -0.5207863333333334
2285291902 0.190835 -0.5219536666666666
2286777781 0.19356366666666666 -0.5232423333333334
2288263660 0.1928713333333333 -0.5244773333333334
2289749539 0.192156 -0.5250496666666666
2291235418 0.18954733333333332 -0.5243983333333333
2292721297 0.191438 -0.5235073333333333
2294207176 0.19049766666666668 -0.5251253333333333
2295693055 0.18998700000000002 -0.5236386666666667
2297178934 0.19218000000000002 -0.5254236666666667
2298664813 0.193269 -0.523076
2300150692 0.18839400000000003 -0.5231933333333333
2301636571 0.19066566666666665 -0.5224606666666667
2303122450 0.19465866666666667 -0.5200416666666666
2304608329 0.18464099999999997 -0.5186736666666666
2306094208 0.192854 -0.5172133333333333
2307580087 0.18907533333333335 -0.5162883333333332
2309065966 0.18604833333333334 -0.5139626666666667
2310551845 0.18824133333333334 -0.513146
2312037724 0.187208 -0.517131
2313523603 0.19058799999999998 -0.5177406666666666
2315009482 0.18777166666666667 -0.5210126666666667
2316495361 0.187319 -0.520495
2317981240 0.19051966666666664 -0.5226999999999999
2319467119 0.19388233333333335 -0.5227706666666667
2320952998 0.188688 -0.5243723333333333
2322438877 0.210662 -0.5343753333333333
2323924756 0.191789 -0.525243
2325410635 0.19295700000000002 -0.5258536666666668
2326896514 0.191072 -0.5239366666666666
2328382393 0.19063166666666667 -0.52415
2329868272 0.190026 -0.525261
2331354151 0.19088799999999997 -0.5237873333333333
2332840030 0.19050200000000003 -0.5218966666666667
2334325909 0.18715 -0.520433
2335811788 0.19083866666666668 -0.5195933333333334
2337297667 0.18633333333333332 -0.520048
2338783546 0.18615366666666666 -0.518104
2340269425 0.1888776666666667 -0.5163423333333333
2341755304 0.18846833333333335 -0.5180936666666667
2343241183 0.184042 -0.5214316666666666
2344727062 0.18821000000000002 -0.522627
2346212941 0.1857696666666667 -0.5257649999999999
2347698820 0.18846700000000002 -0.5247163333333335
2349184699 0.183164 -0.5261876666666666
2350670578 0.186856 -0.5214123333333333
2352156457 0.18722666666666665 -0.5235433333333334
2353642336 0.183782 -0.5258246666666667
2355128215 0.184697 -0.5249126666666667
2356614094 0.186182 -0.5270549999999999
2358099973 0.18330833333333332 -0.5247313333333333
2359585852 0.17922366666666667 -0.5253983333333333
2361071731 0.179291 -0.523212
2362557610 0.17940866666666666 -0.5214203333333334
2364043489 0.17696766666666666 -0.5221566666666667
2365529368 0.17338866666666666 -0.5222916666666667
2367015247 0.17540633333333333 -0.517515
2368501126 0.17511766666666664 -0.517918
2369987005 0.171412 -0.512867
2371472884 0.171454 -0.5166756666666666
2372958763 0.174692 -0.5183686666666666
2374444642 0.1749423333333333 -0.5200626666666667
2375930521 0.175296 -0.5238416666666666
2377416400 0.17513866666666666 -0.5239963333333333
2378902279 0.18111333333333332 -0.5212433333333334
2380388158 0.17581100000000002 -0.5250973333333334
2381874037 0.17639133333333332 -0.523675
2383359916 0.18175 -0.5232363333333333
2384845795 0.179354 -0.5227493333333334
2386331674 0.17832266666666666 -0.5230670000000001
2387817553 0.17847733333333335 -0.5222693333333334
2389303432 0.18069466666666667 -0.520616
2390789311 0.17967166666666667 -0.5194596666666667
2392275190 0.17799733333333334 -0.5200296666666667
2393761069 0.17655099999999999 -0.5171193333333334
2395246948 0.179768 -0.5119366666666667
2396732827 0.17730100000000001 -0.5095586666666666
2398218706 0.174175 -0.5097443333333334
2399704585 0.17581233333333332 -0.5064123333333334
2401190464 0.17429433333333333 -0.5071363333333333
2402676343 0.17605966666666664 -0.5076806666666666
2404162222 0.17275966666666664 -0.5141856666666667
2405648101 0.17245600000000003 -0.5151016666666667
2407133980 0.17616733333333334 -0.5140956666666666
2408619859 0.17134566666666665 -0.5208556666666667
2410105738 0.17278833333333332 -0.5199536666666666
2411591617 0.17203733333333335 -0.5197176666666666
2413077496 0.1754186666666667 -0.5219253333333334
2414563375 0.17366633333333334 -0.5177996666666668
2416049254 0.17236566666666664 -0.516791
2417535133 0.1733566666666667 -0.5189503333333333
2419021012 0.173013 -0.5175213333333333
2420506891 0.1691396666666667 -0.5209496666666668
2421992770 0.16937800000000003 -0.5167206666666667
2423478649 0.16846266666666665 -0.5165593333333334
2424964528 0.16861099999999998 -0.5167606666666665
2426450407 0.18360766666666664 -0.5232706666666668
2427936286 0.16433633333333333 -0.5138250000000001
2429422165 0.16316633333333333 -0.5119373333333334
2430908044 0.16175366666666668 -0.5135333333333333
2432393923 0.16386866666666666 -0.5122253333333333
2433879802 0.163704 -0.5151096666666666
2435365681 0.16431566666666667 -0.5183803333333333
2436851560 0.16384 -0.5174883333333334
2438337439 0.16825366666666666 -0.519101
2439823318 0.16468466666666667 -0.5199086666666667
2441309197 0.16470666666666667 -0.5164409999999999
2442795076 0.16682266666666667 -0.5158356666666667
2444280955 0.16699933333333336 -0.5181520000000001
2445766834 0.16515499999999997 -0.52041
2447252713 0.16637566666666667 -0.5168423333333333
2448738592 0.16339499999999998 -0.5178046666666667
2450224471 0.16413766666666665 -0.5154526666666667
2451710350 0.16145566666666666 -0.513313
2453196229 0.16339733333333334 -0.5108026666666666
2454682108 0.16267600000000002 -0.50821
2456167987 0.16362600000000002 -0.507289
2457653866 0.16147133333333333 -0.5066956666666668
2459139745 0.15961733333333336 -0.5003753333333334
2460625624 0.15779833333333335 -0.5041163333333333
2462111503 0.156193 -0.5052433333333334
2463597382 0.158051 -0.5076066666666668
2465083261 0.15820666666666666 -0.5059653333333333
2466569140 0.15608 -0.5112913333333333
2468055019 0.155008 -0.5115729999999999
2469540898 0.159857 -0.5116783333333333
2471026777 0.15917666666666666 -0.512414
2472512656 0.16057133333333332 -0.511599
2473998535 0.15642599999999998 -0.5132629999999999
2475484414 0.15974833333333333 -0.5130006666666667
2476970293 0.158976 -0.5125656666666667
2478456172 0.15861866666666669 -0.5109963333333334
2479942051 0.157151 -0.5094283333333334
2481427930 0.15798266666666666 -0.5076483333333334
2482913809 0.15629099999999999 -0.5076026666666666
2484399688 0.15737666666666666 -0.5052226666666666
2485885567 0.1547 -0.5064893333333332
2487371446 0.15506966666666666 -0.503393
2488857325 0.150404 -0.5001163333333333
2490343204 0.15383966666666668 -0.5005603333333334
2491829083 0.15204866666666667 -0.5017426666666667
2493314962 0.154431 -0.503513
2494800841 0.15487766666666666 -0.5074960000000001
2496286720 0.15412433333333334 -0.5072863333333334
2497772599 0.155627 -0.5085913333333334
2499258478 0.15700999999999998 -0.5101433333333333
2500744357 0.15740033333333334 -0.5101650000000001
2502230236 0.1587046666666667 -0.5101226666666667
2503716115 0.158476 -0.5111073333333334
2505201994 0.15850466666666665 -0.5114533333333333
2506687873 0.16080666666666665 -0.510554
2508173752 0.161 -0.5098646666666666
2509659631 0.1625966666666667 -0.50927
2511145510 0.158394 -0.5078976666666667
2512631389 0.158841 -0.507016
2514117268 0.159933 -0.5060483333333333
2515603147 0.16314366666666666 -0.504522
2517089026 0.15985300000000002 -0.501362
2518574905 0.16283933333333334 -0.500822
2520060784 0.15810966666666668 -0.4974
2521546663 0.15738233333333332 -0.5022353333333333
2523032542 0.157141 -0.502692
2524518421 0.15438700000000002 -0.50322
2526004300 0.15754566666666667 -0.504657
2527490179 0.15718600000000002 -0.5063846666666667
2528976058 0.15879233333333334 -0.5076036666666667
2530461937 0.16191066666666667 -0.5088683333333334
2531947816 0.15664166666666668 -0.5085666666666667
2533433695 0.1616713333333333 -0.508118
2534919574 0.1599556666666667 -0.510366
2536405453 0.15747866666666668 -0.5082046666666665
2537891332 0.1554303333333333 -0.5083196666666666
2539377211 0.15844766666666665 -0.5084933333333334
2540863090 0.15542466666666668 -0.5089763333333334
2542348969 0.15660366666666667 -0.5080873333333332
2543834848 0.15090866666666666 -0.5061433333333333
2545320727 0.15415133333333333 -0.5033156666666667
2546806606 0.14972266666666667 -0.5039876666666666
2548292485 0.15374633333333332 -0.5028999999999999
2549778364 0.15087799999999998 -0.49926033333333336
2551264243 0.15005433333333332 -0.5028963333333333
2552750122 0.14620666666666668 -0.5046309999999999
2554236001 0.151284 -0.5058296666666666
2555721880 0.14868266666666666 -0.5063373333333333
2557207759 0.15044833333333332 -0.5108860000000001
2558693638 0.14832166666666666 -0.5090279999999999
2560179517 0.14834899999999998 -0.5125316666666667
2561665396 0.15096833333333334 -0.5110013333333333
2563151275 0.15091600000000002 -0.51283
2564637154 0.15105 -0.511845
2566123033 0.15082933333333334 -0.51419
2567608912 0.14891666666666667 -0.5127013333333333
2569094791 0.155648 -0.5155536666666666
2570580670 0.14791633333333334 -0.5133913333333333
2572066549 0.14546366666666666 -0.5120796666666667
2573552428 0.14671700000000001 -0.5110629999999999
2575038307 0.147624 -0.5095023333333334
2576524186 0.148307 -0.5366096666666667
2578010065 0.14346033333333333 -0.508416
2579495944 0.14556733333333333 -0.5057516666666667
2580981823 0.14227599999999999 -0.5046806666666667
2582467702 0.14154966666666666 -0.5070946666666666
2583953581 0.14263 -0.506241
2585439460 0.14466766666666667 -0.5036076666666666
2586925339 0.14836966666666665 -0.508028
2588411218 0.14449900000000002 -0.5060273333333334
2589897097 0.14869200000000002 -0.5056086666666667
2591382976 0.14846366666666666 -0.5076463333333333
2592868855 0.14518566666666666 -0.506946
2594354734 0.144037 -0.502925
2595840613 0.1447706666666667 -0.49987
2597326492 0.14244933333333332 -0.5018086666666667
2598812371 0.15048599999999998 -0.5048803333333334
2600298250 0.14591333333333334 -0.49670466666666674
2601784129 0.14208233333333334 -0.4956106666666667
2603270008 0.141749 -0.4947203333333334
2604755887 0.14705900000000002 -0.4949953333333333
2606241766 0.14022500000000002 -0.493503
2607727645 0.14485366666666669 -0.49033533333333335
2609213524 0.141517 -0.48853233333333335
2610699403 0.14330166666666666 -0.49025566666666665
2612185282 0.13898666666666668 -0.48902633333333334
2613671161 0.13919499999999999 -0.4911826666666667
2615157040 0.14006866666666665 -0.4907186666666667
2616642919 0.14074033333333333 -0.49273833333333333
2618128798 0.14490033333333333 -0.49559900000000007
2619614677 0.13973100000000002 -0.4932913333333333
2621100556 0.13936566666666667 -0.4971383333333333
2622586435 0.143528 -0.49446966666666664
2624072314 0.142749 -0.497566
2625558193 0.14345733333333333 -0.49395833333333333
2627044072 0.14475633333333335 -0.4958213333333334
2628529951 0.14232466666666668 -0.4947646666666667
2630015830 0.14053666666666667 -0.49448966666666666
2631501709 0.14231866666666668 -0.4953083333333333
2632987588 0.1532106666666667 -0.5151526666666667
2634473467 0.1381176666666667 -0.489783
2635959346 0.141074 -0.49132366666666666
2637445225 0.13650466666666666 -0.48972066666666664
2638931104 0.13749266666666668 -0.48660600000000004
2640416983 0.139607 -0.48720366666666665
2641902862 0.137592 -0.48909766666666665
2643388741 0.13633166666666666 -0.49128166666666667
2644874620 0.137706 -0.495212
2646360499 0.134829 -0.4940606666666667
2647846378 0.14001 -0.498845
2649332257 0.139876 -0.501583
2650818136 0.13719933333333334 -0.5007806666666667
2652304015 0.13633066666666668 -0.500039
2653789894 0.14156333333333332 -0.502617
2655275773 0.13668100000000002 -0.49968866666666667
2656761652 0.13864999999999997 -0.49982733333333335
2658247531 0.13497499999999998 -0.5032396666666666
2659733410 0.136931 -0.5017816666666667
2661219289 0.13937166666666667 -0.5037553333333333
2662705168 0.13934466666666667 -0.5032343333333333
2664191047 0.13684866666666665 -0.502424
2665676926 0.13611000000000004 -0.5007573333333334
2667162805 0.13684266666666667 -0.4998466666666667
2668648684 0.13815633333333333 -0.49922266666666665
2670134563 0.130664 -0.49774366666666664
2671620442 0.13708033333333333 -0.4995623333333334
2673106321 0.13853400000000002 -0.5011696666666667
2674592200 0.13975100000000001 -0.500347
2676078079 0.13598333333333332 -0.5035616666666667
2677563958 0.13816366666666666 -0.5035153333333333
2679049837 0.13951666666666665 -0.5043243333333333
2680535716 0.14318566666666668 -0.504357
2682021595 0.14237200000000003 -0.5046853333333333
2683507474 0.141668 -0.502606
2684993353 0.14409633333333333 -0.503562
2686479232 0.13820733333333335 -0.5031859999999999
2687965111 0.14162233333333332 -0.5057853333333333
2689450990 0.14532 -0.5019680000000001
2690936869 0.14062533333333332 -0.498
2692422748 0.1429923333333333 -0.49751266666666666
2693908627 0.14307933333333334 -0.49651433333333334
2695394506 0.13887433333333335 -0.4938213333333333
2696880385 0.13798633333333335 -0.49183533333333335
2698366264 0.13911966666666667 -0.4895616666666667
2699852143 0.13736833333333331 -0.486867
2701338022 0.13295066666666666 -0.4873
2702823901 0.13612466666666667 -0.49269433333333335
2704309780 0.14081333333333332 -0.4948603333333333
2705795659 0.14201633333333333 -0.49261099999999997
2707281538 0.14186 -0.4953633333333333
2708767417 0.14515999999999998 -0.4939523333333333
2710253296 0.14646100000000004 -0.4942586666666666
2711739175 0.15004266666666666 -0.49585966666666664
2713225054 0.14769066666666666 -0.495932
2714710933 0.148811 -0.49669500000000005
2716196812 0.15251933333333334 -0.4952493333333334
2717682691 0.14640966666666666 -0.4960343333333333
2719168570 0.148587 -0.4957196666666667
2720654449 0.15235333333333334 -0.49108799999999997
2722140328 0.15222666666666665 -0.49017099999999997
2723626207 0.14389266666666667 -0.49004899999999996
2725112086 0.14818333333333333 -0.48749633333333336
2726597965 0.12005699999999998 -0.45327333333333336
2728083844 0.15415466666666666 -0.48199433333333336
2729569723 0.144807 -0.4784386666666667
2731055602 0.14292400000000002 -0.48047
2732541481 0.13845466666666667 -0.4839423333333334
2734027360 0.14267433333333335 -0.4838773333333333
2735513239 0.13645766666666667 -0.49115
2736999118 0.14428966666666668 -0.48695400000000005
2738484997 0.14095566666666667 -0.4942606666666667
2739970876 0.13266833333333333 -0.4954076666666667
2741456755 0.13400933333333334 -0.496202
2742942634 0.1369423333333333 -0.4948626666666667
2744428513 0.135296 -0.4999836666666666
2745914392 0.14631266666666665 -0.49858800000000003
2747400271 0.13567700000000002 -0.49848566666666666
2748886150 0.13592733333333332 -0.49740433333333334
2750372029 0.1363 -0.49867066666666665
2751857908 0.133429 -0.5013743333333333
2753343787 0.1348636666666667 -0.4988883333333334
2754829666 0.130164 -0.49978866666666666
2756315545 0.129626 -0.499138
2757801424 0.13381766666666667 -0.4984193333333333
2759287303 0.1280186666666667 -0.49829666666666667
2760773182 0.126052 -0.499113
2762259061 0.12773400000000001 -0.49936766666666665
2763744940 0.12959133333333334 -0.5023203333333333
2765230819 0.13086466666666666 -0.5042533333333333
2766716698 0.13448800000000002 -0.504287
2768202577 0.13476600000000002 -0.5035106666666667
2769688456 0.133302 -0.5065083333333332
2771174335 0.13213933333333336 -0.5046903333333334
2772660214 0.14023699999999997 -0.503391
2774146093 0.145766 -0.5028009999999999
2775631972 0.13421899999999998 -0.506781
2777117851 0.13781933333333332 -0.5055926666666667
2778603730 0.14111833333333335 -0.4995616666666667
2780089609 0.15447866666666665 -0.50906
2781575488 0.14032533333333333 -0.49915166666666666
2783061367 0.139377 -0.5003416666666666
2784547246 0.14262333333333332 -0.49928766666666663
2786033125 0.14091099999999998 -0.49404833333333337
2787519004 0.14148833333333335 -0.490915
2789004883 0.13519033333333333 -0.49097133333333337
2790490762 0.13910266666666668 -0.48666366666666666
2791976641 0.13688866666666666 -0.485819
2793462520 0.133574 -0.49079566666666663
2794948399 0.14050366666666667 -0.49521066666666663
2796434278 0.139701 -0.4937183333333333
2797920157 0.13790166666666667 -0.494259
2799406036 0.14018166666666665 -0.49649433333333337
2800891915 0.133631 -0.4973573333333334
2802377794 0.137935 -0.49399233333333337
2803863673 0.13666633333333333 -0.49711833333333333
2805349552 0.133579 -0.497848
2806835431 0.13646833333333333 -0.4972473333333334
2808321310 0.13844966666666667 -0.4955366666666667
2809807189 0.13477933333333333 -0.49690666666666666
2811293068 0.13625466666666666 -0.494888
2812778947 0.13009400000000002 -0.496619
2814264826 0.129609 -0.4921623333333333
2815750705 0.13038733333333333 -0.4887593333333333
2817236584 0.13290633333333335 -0.4903756666666666
2818722463 0.12394299999999998 -0.4916743333333333
2820208342 0.125627 -0.48421699999999995
2821694221 0.131194 -0.49027666666666664
2823180100 0.129522 -0.4956586666666667
2824665979 0.12890933333333332 -0.498078
2826151858 0.131773 -0.498295
2827637737 0.13198866666666667 -0.4936913333333333
2829123616 0.13116766666666665 -0.49123466666666665
2830609495 0.13261366666666669 -0.49363599999999996
2832095374 0.12791899999999998 -0.4902493333333333
2833581253 0.127338 -0.49566666666666664
2835067132 0.13153233333333333 -0.49653166666666665
2836553011 0.13492400000000002 -0.49007
2838038890 0.13355066666666668 -0.4936153333333333
2839524769 0.13360166666666665 -0.49397033333333334
2841010648 0.13156733333333334 -0.48741233333333334
2842496527 0.13167966666666667 -0.4842763333333333
2843982406 0.13350733333333334 -0.48832233333333336
2845468285 0.13448433333333332 -0.48069933333333337
2846954164 0.128872 -0.47747866666666666
2848440043 0.12727233333333335 -0.4756183333333333
2849925922 0.12473233333333333 -0.4718166666666666
2851411801 0.12736066666666668 -0.472043
2852897680 0.125179 -0.4735023333333333
2854383559 0.13033733333333333 -0.47678166666666666
2855869438 0.13029533333333332 -0.4824833333333333
2857355317 0.12773866666666667 -0.4777613333333333
2858841196 0.12800666666666669 -0.4826223333333333
2860327075 0.12848533333333334 -0.48011333333333334
2861812954 0.131907 -0.48221866666666663
2863298833 0.13135233333333332 -0.48002666666666666
2864784712 0.13131266666666666 -0.4815386666666666
2866270591 0.13186833333333334 -0.48011033333333336
2867756470 0.13223 -0.48315833333333336
2869242349 0.1446896666666667 -0.5003173333333334
2870728228 0.127335 -0.4799733333333333
2872214107 0.13399899999999998 -0.4784196666666667
2873699986 0.13034833333333332 -0.475074
2875185865 0.13421566666666665 -0.47574999999999995
2876671744 0.13592 -0.47333800000000004
2878157623 0.12761699999999998 -0.47020233333333333
2879643502 0.13205966666666666 -0.4671346666666667
2881129381 0.13414733333333334 -0.4705633333333334
2882615260 0.13010366666666665 -0.47532733333333327
2884101139 0.12852366666666667 -0.47123866666666664
2885587018 0.13124233333333332 -0.4748346666666667
2887072897 0.13030766666666665 -0.473673
2888558776 0.12949966666666668 -0.47978933333333335
2890044655 0.13322333333333333 -0.4776176666666667
2891530534 0.13145733333333331 -0.4777343333333333
2893016413 0.13165000000000002 -0.48008633333333334
2894502292 0.13400433333333334 -0.4810623333333333
2895988171 0.13200033333333333 -0.479733
2897474050 0.13134566666666667 -0.4797456666666666
2898959929 0.1336246666666667 -0.47779
2900445808 0.130267 -0.47845733333333335
2901931687 0.13234766666666667 -0.476887
2903417566 0.12870733333333334 -0.4756756666666666
2904903445 0.13045266666666666 -0.474215
2906389324 0.13078366666666666 -0.47348833333333334
2907875203 0.12870966666666667 -0.4725793333333333
2909361082 0.12949966666666665 -0.470902
2910846961 0.13074166666666667 -0.470893
2912332840 0.12927 -0.47160833333333335
2913818719 0.12825933333333334 -0.47446699999999997
2915304598 0.12727933333333333 -0.4759173333333333
2916790477 0.12585 -0.4759256666666667
2918276356 0.12503733333333333 -0.47733099999999995
2919762235 0.12772333333333333 -0.47740900000000003
2921248114 0.12650633333333336 -0.4788403333333333
2922733993 0.12257066666666666 -0.48031966666666664
2924219872 0.12384766666666669 -0.47838033333333335
2925705751 0.12265833333333333 -0.47931300000000004
2927191630 0.13732933333333333 -0.483039
2928677509 0.12175866666666667 -0.478903
2930163388 0.11880833333333334 -0.4785223333333333
2931649267 0.12104999999999999 -0.478535
2933135146 0.12060666666666668 -0.476231
2934621025 0.11853999999999999 -0.475512
2936106904 0.11579966666666668 -0.47576799999999997
2937592783 0.11534166666666666 -0.47296866666666676
2939078662 0.11556099999999998 -0.4731446666666666
2940564541 0.11349966666666667 -0.4723383333333333
2942050420 0.11501066666666666 -0.47283766666666666
2943536299 0.11697366666666668 -0.47421633333333335
2945022178 0.11729833333333334 -0.4757603333333333
2946508057 0.115236 -0.4769373333333333
2947993936 0.11528299999999998 -0.479577
2949479815 0.11769366666666665 -0.4780153333333333
2950965694 0.11679933333333332 -0.4794603333333333
2952451573 0.11766866666666666 -0.477319
2953937452 0.11719800000000001 -0.4775216666666666
2955423331 0.11598166666666666 -0.478669
2956909210 0.11787733333333333 -0.4785916666666667
2958395089 0.11771966666666667 -0.476774
2959880968 0.11720333333333333 -0.4749573333333334
2961366847 0.11966733333333333 -0.4752113333333334
2962852726 0.11718 -0.47341133333333335
2964338605 0.11933933333333334 -0.47068166666666666
2965824484 0.11625833333333334 -0.4713963333333333
2967310363 0.11600300000000001 -0.4709436666666667
2968796242 0.11825000000000001 -0.46470700000000004
2970282121 0.117964 -0.4622013333333334
2971768000 0.11760999999999999 -0.4656823333333333
2973253879 0.11571366666666666 -0.4679326666666667
2974739758 0.11768933333333333 -0.4701866666666666
2976225637 0.11691033333333334 -0.4678636666666667
2977711516 0.117609 -0.4688373333333333
2979197395 0.117568 -0.468877
2980683274 0.11678766666666666 -0.472035
2982169153 0.11913699999999999 -0.47357266666666664
2983655032 0.11974733333333332 -0.47009799999999996
2985140911 0.12083166666666667 -0.469091
2986626790 0.12022833333333333 -0.47066
2988112669 0.11878533333333334 -0.46975000000000006
2989598548 0.12056433333333333 -0.46607233333333326
2991084427 0.12360266666666665 -0.467161
2992570306 0.12091866666666666 -0.46427033333333334
2994056185 0.12214566666666665 -0.46313133333333334
2995542064 0.11835833333333334 -0.4617443333333333
2997027943 0.117688 -0.459446
2998513822 0.120815 -0.458671
2999999701 0.12191333333333332 -0.4573946666666666
