# HZ S RI R 50
10000 1.0713706666666667 -0.14975433333333335
1495879 0.87841 1.453386
2981758 0.5769153333333333 0.6920343333333333
4467637 0.5817559999999999 0.3272333333333333
5953516 0.6512383333333334 0.13766366666666666
7439395 0.743472 0.012344333333333332
8925274 1.0575089999999998 -0.061821999999999995
10411153 1.0971936666666668 0.036942333333333334
11897032 1.0854646666666667 0.16835566666666668
13382911 1.018617 0.291912
14868790 0.9158736666666667 0.380396
16354669 0.8037586666666666 0.427813
17840548 0.6993356666666667 0.442375
19326427 0.610055 0.43586299999999994
20812306 0.5360816666666666 0.41771733333333333
22298185 0.47709766666666664 0.39350733333333326
23784064 0.429041 0.3675866666666667
25269943 0.390391 0.34162966666666666
26755822 0.3586473333333333 0.31656966666666664
28241701 0.332807 0.2931843333333333
29727580 0.31038699999999997 0.2703173333333333
31213459 0.3210676666666667 0.25591800000000003
32699338 0.3377113333333333 0.241466
34185217 0.35290400000000005 0.22814600000000004
35671096 0.36846533333333326 0.212072
37156975 0.3837 0.19360633333333332
38642854 0.3976906666666667 0.17683866666666667
40128733 0.41215766666666664 0.153873
41614612 0.42483899999999997 0.14196899999999998
43100491 0.43838499999999997 0.12028499999999999
44586370 0.45160833333333333 0.10206199999999999
46072249 0.4653353333333334 0.078831
47558128 0.4801073333333334 0.061975999999999996
49044007 0.4962493333333333 0.044940666666666663
50529886 0.515266 0.030492000000000002
52015765 0.5370776666666667 0.0013416666666666666
53501644 0.5658593333333334 -0.016943333333333335
54987523 0.604041 -0.04121833333333333
56473402 0.656827 -0.07879833333333335
57959281 0.7448623333333333 -0.09415266666666666
59445160 0.9027029999999999 -0.07174233333333332
60931039 0.9975256666666666 -0.040243
62416918 1.00073 -0.049904666666666674
63902797 1.003649 -0.05838966666666667
65388676 1.0074633333333334 -0.067537
66874555 1.0093583333333334 -0.06327366666666667
68360434 1.0037226666666665 -0.14779166666666665
69846313 1.013318 -0.040695
71332192 1.0154360000000002 -0.03477366666666667
72818071 1.0144983333333333 -0.07960433333333333
74303950 1.0155456666666667 -0.070616
75789829 1.0170043333333334 -0.0032556666666666667
77275708 1.01671 -0.011841666666666667
78761587 1.0156486666666666 -0.005970333333333334
80247466 1.0078103333333333 -0.12285666666666667
81733345 1.0105413333333333 -0.07447566666666666
83219224 1.0079506666666667 -0.084895
84705103 1.0031613333333333 -0.11049033333333334
86190982 1.003388 0.014124999999999999
87676861 0.9974026666666668 -0.10174266666666666
89162740 0.994494 -0.07656266666666665
90648619 0.992451 -0.094576
92134498 0.996447 -0.09175266666666666
93620377 1.0012616666666665 -0.061136
95106256 1.0020116666666665 -0.08765833333333332
96592135 1.004429 -0.08657966666666667
98078014 1.0071383333333335 -0.08159933333333334
99563893 1.0081743333333335 -0.07893800000000001
101049772 1.0093363333333334 -0.09260466666666667
102535651 1.0092256666666666 -0.09383033333333335
104021530 1.0097096666666667 -0.09408533333333334
105507409 1.0096403333333333 -0.09585566666666667
106993288 1.0093180000000002 -0.09543433333333333
108479167 1.0080186666666666 -0.09576066666666666
109965046 1.006902 -0.09575033333333333
111450925 1.0050183333333333 -0.09693800000000001
112936804 1.003071 -0.09741166666666666
114422683 0.9995603333333333 -0.097908
115908562 0.9967943333333333 -0.09848166666666668
117394441 0.9935109999999999 -0.09908933333333332
118880320 0.989567 -0.099424
120366199 0.9872373333333333 -0.101038
121852078 0.9914909999999999 -0.10223333333333333
123337957 0.99528 -0.10486733333333333
124823836 0.9994233333333332 -0.10583133333333333
126309715 1.0023506666666666 -0.10771966666666666
127795594 1.0049723333333334 -0.10889866666666666
129281473 1.007034 -0.10953099999999999
130767352 1.010044 -0.11155633333333333
132253231 1.0112513333333333 -0.11175566666666666
133739110 1.012766 -0.11236
135224989 0.9972856666666666 -0.12433033333333332
136710868 0.9974053333333334 -0.12436833333333334
138196747 0.9968076666666666 -0.125684
139682626 0.9965786666666666 -0.12540033333333334
141168505 0.9950276666666668 -0.125201
142654384 0.9939296666666667 -0.1264253333333333
144140263 0.992143 -0.12628633333333333
145626142 0.9896706666666667 -0.12603366666666668
147112021 0.9871793333333333 -0.12674833333333335
148597900 0.984156 -0.12717566666666666
150083779 0.9809256666666667 -0.12693
151569658 0.9840106666666667 -0.12938966666666668
153055537 0.987269 -0.13054433333333335
154541416 0.9894686666666667 -0.132377
156027295 0.9916833333333334 -0.13413133333333335
157513174 0.9932136666666667 -0.13498766666666664
158999053 0.9949243333333332 -0.13602099999999998
160484932 0.996298 -0.13778566666666667
161970811 0.9973256666666667 -0.13879
163456690 0.9971513333333334 -0.139066
164942569 0.9971263333333332 -0.1395563333333333
166428448 0.9966166666666666 -0.141463
167914327 0.9953546666666666 -0.14169233333333334
169400206 0.9948246666666667 -0.14190333333333335
170886085 0.9934483333333334 -0.144033
172371964 0.990408 -0.14458933333333332
173857843 0.9886483333333334 -0.144122
175343722 0.985195 -0.14553966666666668
176829601 0.9833483333333334 -0.14674099999999998
178315480 0.978301 -0.147691
179801359 1.0012526666666666 -0.12445433333333333
181287238 0.9766360000000001 -0.15076166666666668
182773117 0.9796823333333333 -0.15227566666666667
184258996 0.9827456666666666 -0.15385566666666667
185744875 0.9851053333333333 -0.15518533333333331
187230754 0.9868160000000001 -0.156611
188716633 0.9894286666666666 -0.15148066666666668
190202512 0.9896313333333332 -0.15939166666666668
191688391 0.9908073333333333 -0.16005333333333335
193174270 0.991156 -0.16060933333333333
194660149 0.9918663333333333 -0.16214966666666666
196146028 0.9907283333333333 -0.16233133333333336
197631907 0.9895566666666666 -0.164385
199117786 0.9883446666666665 -0.16461933333333334
200603665 0.9861939999999999 -0.16519233333333336
202089544 0.9842686666666666 -0.16676066666666667
203575423 0.9818533333333334 -0.1678206666666667
205061302 0.9781823333333334 -0.16818066666666667
206547181 0.9751993333333333 -0.16966299999999998
208033060 0.9720203333333334 -0.17056366666666667
209518939 0.9673603333333333 -0.17301933333333333
211004818 0.9690976666666667 -0.17462199999999997
212490697 0.9717586666666667 -0.17618566666666666
213976576 0.9741050000000001 -0.17713800000000002
215462455 0.977796 -0.17917166666666665
216948334 0.9786433333333333 -0.18062766666666666
218434213 0.9817976666666667 -0.18169400000000002
219920092 0.9836736666666667 -0.18243600000000001
221405971 0.9839540000000001 -0.183473
222891850 0.9844050000000001 -0.18460833333333335
224377729 0.984756 -0.18530666666666665
225863608 0.9839673333333332 -0.18593066666666666
227349487 0.98216 -0.18650666666666668
228835366 0.9755670000000002 -0.19891166666666668
230321245 0.9798923333333334 -0.18911266666666662
231807124 0.9772616666666667 -0.19010266666666667
233293003 0.9735820000000001 -0.19117333333333333
234778882 0.9704156666666667 -0.19185833333333335
236264761 0.9663943333333332 -0.19318466666666667
237750640 0.9627346666666666 -0.194396
239236519 0.9580096666666668 -0.19691366666666665
240722398 0.9577313333333334 -0.197452
242208277 0.9609403333333333 -0.19974533333333333
243694156 0.9643743333333333 -0.2011436666666667
245180035 0.9677703333333333 -0.20206333333333334
246665914 0.9699580000000001 -0.203982
248151793 0.972482 -0.20508566666666664
249637672 0.9736006666666667 -0.2064256666666667
251123551 0.9748066666666667 -0.20754400000000003
252609430 0.9746783333333333 -0.20787166666666668
254095309 0.9747980000000002 -0.20980533333333332
255581188 0.9744830000000001 -0.21048199999999997
257067067 0.9736686666666667 -0.210256
258552946 0.9720749999999999 -0.21174933333333334
260038825 0.9707346666666666 -0.21162499999999998
261524704 0.9680903333333334 -0.21254333333333333
263010583 0.9646493333333334 -0.2131293333333333
264496462 0.9608586666666667 -0.21468833333333334
265982341 0.9568226666666667 -0.21550366666666668
267468220 0.9529960000000001 -0.2165796666666667
268954099 0.9476819999999999 -0.2174866666666667
270439978 0.945537 -0.218633
271925857 0.9491793333333334 -0.221873
273411736 0.9531540000000001 -0.22335000000000002
274897615 0.956414 -0.22598566666666667
276383494 0.9586863333333334 -0.22781633333333332
277869373 0.960092 -0.22898466666666664
279355252 0.9629886666666666 -0.22920700000000002
280841131 0.964134 -0.23065433333333338
282327010 0.9650983333333333 -0.2319973333333333
283812889 0.9647366666666667 -0.232532
285298768 0.964546 -0.23280599999999999
286784647 0.9636013333333334 -0.2341386666666667
288270526 0.9621973333333332 -0.234241
289756405 0.9601863333333333 -0.23495533333333332
291242284 0.9580396666666666 -0.23516633333333334
292728163 0.9544833333333335 -0.23672533333333334
294214042 0.9516779999999999 -0.23695
295699921 0.9474863333333333 -0.23772533333333334
297185800 0.9422953333333334 -0.23746333333333333
298671679 0.9370713333333334 -0.238904
300157558 0.9342233333333333 -0.23912133333333332
301643437 0.9376183333333333 -0.240918
303129316 0.9419883333333333 -0.244448
304615195 0.9448636666666667 -0.2457406666666667
306101074 0.9472686666666666 -0.24839466666666668
307586953 0.9492043333333333 -0.24983066666666667
309072832 0.9513476666666666 -0.2516683333333333
310558711 0.9525543333333332 -0.2526733333333333
312044590 0.9530519999999999 -0.254206
313530469 0.9538639999999999 -0.254349
315016348 0.953655 -0.2548946666666667
316502227 0.952818 -0.2567473333333333
317988106 0.951985 -0.25605666666666665
319473985 0.94957 -0.25616733333333336
320959864 0.947381 -0.25652966666666666
322445743 0.9450943333333334 -0.2564056666666667
323931622 0.941539 -0.2563143333333333
325417501 0.9374783333333334 -0.2567886666666667
326903380 0.932671 -0.25688
328389259 0.9157190000000001 -0.267061
329875138 0.927264 -0.24770233333333333
331361017 0.9304640000000001 -0.2500866666666666
332846896 0.933887 -0.253306
334332775 0.9361423333333333 -0.2547966666666666
335818654 0.938008 -0.25742533333333334
337304533 0.9412593333333333 -0.25983033333333333
338790412 0.9427713333333334 -0.26196633333333336
340276291 0.9426033333333333 -0.26259600000000005
341762170 0.9434 -0.2640153333333333
343248049 0.9431806666666667 -0.2651616666666667
344733928 0.942609 -0.26596633333333336
346219807 0.9426073333333332 -0.26708466666666664
347705686 0.9416216666666667 -0.26702633333333337
349191565 0.9388893333333334 -0.2669966666666667
350677444 0.9361583333333333 -0.267029
352163323 0.933336 -0.26763233333333336
353649202 0.9244823333333333 -0.2779953333333333
355135081 0.9205333333333333 -0.2776613333333333
356620960 0.9168513333333334 -0.27793333333333337
358106839 0.9111256666666666 -0.278563
359592718 0.905766 -0.27826333333333336
361078597 0.9068753333333334 -0.2801036666666667
362564476 0.9100423333333333 -0.283823
364050355 0.912655 -0.2860993333333333
365536234 0.9152849999999999 -0.2889673333333333
367022113 0.9175570000000001 -0.29002999999999995
368507992 0.9192406666666667 -0.2920993333333333
369993871 0.9199353333333334 -0.2935696666666667
371479750 0.9211226666666666 -0.29501133333333335
372965629 0.9239943333333333 -0.2902993333333333
374451508 0.9212826666666668 -0.29665933333333333
375937387 0.919795 -0.29769966666666664
377423266 0.9186196666666667 -0.2976353333333333
378909145 0.9185903333333334 -0.29774066666666665
380395024 0.913153 -0.30228933333333335
381880903 0.9132726666666667 -0.2977863333333334
383366782 0.9100953333333334 -0.29760166666666665
384852661 0.9069096666666666 -0.2964
386338540 0.9039876666666666 -0.2962133333333333
387824419 0.8994030000000001 -0.2961956666666667
389310298 0.89451 -0.29510033333333335
390796177 0.8941623333333334 -0.296203
392282056 0.8961956666666667 -0.3003056666666667
393767935 0.8981119999999999 -0.302495
395253814 0.9005130000000001 -0.30452033333333334
396739693 0.9029906666666667 -0.30707733333333337
398225572 0.903994 -0.3086756666666666
399711451 0.9050316666666668 -0.3092
401197330 0.905669 -0.31114
402683209 0.9060423333333333 -0.31222600000000006
404169088 0.906125 -0.3127343333333334
405654967 0.9057106666666668 -0.31404633333333337
407140846 0.9031376666666667 -0.3141526666666667
408626725 0.9030083333333333 -0.313675
410112604 0.9015236666666667 -0.31369766666666665
411598483 0.8986153333333333 -0.3142066666666667
413084362 0.8952416666666667 -0.314314
414570241 0.8932446666666666 -0.31274599999999997
416056120 0.8896163333333332 -0.312033
417541999 0.8846506666666666 -0.312429
419027878 0.881084 -0.3116856666666667
420513757 0.8792433333333333 -0.31179833333333334
421999636 0.881005 -0.315507
423485515 0.8833676666666667 -0.31707766666666665
424971394 0.885335 -0.32047966666666666
426457273 0.8868943333333332 -0.32305366666666663
427943152 0.8882473333333333 -0.32369266666666663
429429031 0.889352 -0.32500799999999996
430914910 0.8899526666666667 -0.32660866666666666
432400789 0.8902450000000001 -0.32805833333333334
433886668 0.890502 -0.32821933333333336
435372547 0.8899386666666667 -0.32907933333333333
436858426 0.888607 -0.32980433333333337
438344305 0.8880896666666667 -0.32953866666666665
439830184 0.8854606666666666 -0.3290496666666667
441316063 0.8839346666666668 -0.3300976666666667
442801942 0.8801026666666667 -0.3301473333333333
444287821 0.8786696666666666 -0.3291123333333333
445773700 0.87423 -0.32808733333333334
447259579 0.8700366666666666 -0.32823399999999997
448745458 0.8666813333333333 -0.32819466666666663
450231337 0.8635653333333333 -0.3273523333333333
451717216 0.86646 -0.3295646666666667
453203095 0.8679726666666666 -0.33116799999999996
454688974 0.8702646666666666 -0.33420133333333335
456174853 0.8726676666666666 -0.334463
457660732 0.8739933333333334 -0.3366283333333333
459146611 0.8756853333333332 -0.3372486666666667
460632490 0.8754596666666666 -0.3390963333333333
462118369 0.875314 -0.34024566666666667
463604248 0.874442 -0.3422986666666667
465090127 0.874658 -0.34207666666666664
466576006 0.8736609999999999 -0.3414553333333334
468061885 0.8728980000000001 -0.342071
469547764 0.8707843333333334 -0.34204999999999997
471033643 0.8686796666666666 -0.34148033333333333
472519522 0.866301 -0.34105800000000003
474005401 0.8636840000000001 -0.34057166666666666
475491280 0.8604843333333334 -0.33978766666666665
476977159 0.8140716666666666 -0.324121
478463038 0.851886 -0.339985
479948917 0.847354 -0.3389706666666667
481434796 0.8498563333333333 -0.3418933333333333
482920675 0.8529270000000001 -0.34386099999999997
484406554 0.8552059999999999 -0.34633
485892433 0.8565836666666667 -0.34671500000000005
487378312 0.8585063333333333 -0.348223
488864191 0.859841 -0.3503526666666667
490350070 0.8599366666666667 -0.351507
491835949 0.860504 -0.35308999999999996
493321828 0.8605746666666666 -0.3528786666666666
494807707 0.8602943333333334 -0.353596
496293586 0.8593273333333333 -0.3536376666666667
497779465 0.8589553333333333 -0.35284000000000004
499265344 0.857281 -0.35392533333333337
500751223 0.854622 -0.35418
502237102 0.8533593333333332 -0.3538856666666667
503722981 0.8507673333333333 -0.35245033333333337
505208860 0.84651 -0.3524353333333334
506694739 0.842548 -0.353188
508180618 0.8392529999999999 -0.3522346666666667
509666497 0.8355526666666666 -0.34980866666666666
511152376 0.8360219999999999 -0.35331399999999996
512638255 0.8382033333333334 -0.35547700000000004
514124134 0.8410319999999999 -0.35622800000000004
515610013 0.8424353333333334 -0.359826
517095892 0.8443603333333334 -0.360193
518581771 0.8447916666666667 -0.362358
520067650 0.8461776666666666 -0.36326300000000006
521553529 0.8457443333333333 -0.363343
523039408 0.8466526666666666 -0.3641886666666667
524525287 0.8464329999999999 -0.3653916666666666
526011166 0.8451180000000001 -0.3664423333333333
527497045 0.8449589999999999 -0.3647106666666666
528982924 0.8437723333333333 -0.36463433333333334
530468803 0.8401953333333333 -0.3656843333333333
531954682 0.8386986666666667 -0.36471433333333336
533440561 0.8352273333333334 -0.36351700000000003
534926440 0.8324983333333335 -0.364685
536412319 0.8287323333333334 -0.36377
537898198 0.8238633333333333 -0.364023
539384077 0.8197706666666668 -0.36375566666666664
540869956 0.8198706666666666 -0.36404966666666666
542355835 0.8222876666666666 -0.36521166666666666
543841714 0.8248806666666667 -0.36672466666666664
545327593 0.8258073333333332 -0.36774900000000005
546813472 0.8283546666666667 -0.368246
548299351 0.8278516666666667 -0.3686196666666666
549785230 0.8295593333333334 -0.3689013333333333
551271109 0.8298036666666667 -0.3693583333333333
552756988 0.8285086666666667 -0.36912300000000003
554242867 0.8283126666666667 -0.368444
555728746 0.827814 -0.36730166666666664
557214625 0.8255376666666666 -0.36662633333333333
558700504 0.8246106666666666 -0.36697266666666667
560186383 0.8214746666666666 -0.36581633333333335
561672262 0.817141 -0.36573433333333333
563158141 0.8157169999999999 -0.3635893333333333
564644020 0.8112256666666666 -0.36286466666666667
566129899 0.8070456666666667 -0.36167066666666664
567615778 0.8037343333333333 -0.36055333333333334
569101657 0.7978446666666666 -0.3603673333333333
570587536 0.7960949999999999 -0.35995166666666667
572073415 0.7976826666666667 -0.3632553333333333
573559294 0.8015673333333334 -0.3646293333333333
575045173 0.8024663333333333 -0.36950533333333335
576531052 0.8041086666666667 -0.37160433333333337
578016931 0.8059986666666665 -0.37340799999999996
579502810 0.8057850000000001 -0.37683466666666665
580988689 0.8066916666666666 -0.37839433333333333
582474568 0.8067056666666668 -0.38045999999999996
583960447 0.806546 -0.38243333333333335
585446326 0.8072133333333333 -0.3821766666666666
586932205 0.8047613333333333 -0.38513533333333333
588418084 0.804736 -0.385237
589903963 0.8032793333333333 -0.3846863333333333
591389842 0.8003996666666667 -0.3858953333333333
592875721 0.79793 -0.3871073333333333
594361600 0.7951493333333333 -0.3865906666666667
595847479 0.7921706666666667 -0.38630433333333336
597333358 0.7881776666666666 -0.387305
598819237 0.7839236666666666 -0.3864826666666667
600305116 0.7828166666666666 -0.38644833333333334
601790995 0.784588 -0.39059
603276874 0.786509 -0.39259299999999997
604762753 0.7889163333333333 -0.39604666666666666
606248632 0.7917879999999999 -0.39769000000000004
607734511 0.7927803333333333 -0.398805
609220390 0.7940209999999999 -0.40088066666666666
610706269 0.7952896666666667 -0.40103533333333335
612192148 0.7962466666666668 -0.40152566666666667
613678027 0.797114 -0.4024543333333333
615163906 0.7955653333333332 -0.40341233333333326
616649785 0.7949173333333333 -0.4037113333333333
618135664 0.7944713333333334 -0.40289933333333333
619621543 0.8376623333333334 -0.4211223333333333
621107422 0.7903266666666666 -0.402504
622593301 0.788819 -0.4001886666666667
624079180 0.7852030000000001 -0.39991033333333337
625565059 0.7829656666666667 -0.39878600000000003
627050938 0.7780440000000001 -0.397317
628536817 0.785184 -0.38738033333333327
630022696 0.7703536666666667 -0.39575266666666664
631508575 0.7730079999999999 -0.39760633333333334
632994454 0.7753133333333334 -0.4014356666666667
634480333 0.7766113333333333 -0.4036953333333333
635966212 0.7791959999999999 -0.40638599999999997
637452091 0.7810353333333332 -0.40593233333333334
638937970 0.781762 -0.4103946666666667
640423849 0.7824356666666666 -0.40946699999999997
641909728 0.782946 -0.41115433333333334
643395607 0.7827213333333334 -0.410982
644881486 0.7823753333333334 -0.4100916666666667
646367365 0.78239 -0.41124866666666665
647853244 0.7810290000000001 -0.41129
649339123 0.7810276666666667 -0.41042533333333336
650825002 0.7772260000000001 -0.4109253333333333
652310881 0.7762153333333334 -0.4091723333333334
653796760 0.7725056666666666 -0.4089066666666666
655282639 0.7690736666666668 -0.407311
656768518 0.7660273333333333 -0.4050116666666666
658254397 0.7622263333333335 -0.403872
659740276 0.757734 -0.40346
661226155 0.7597056666666666 -0.4047786666666667
662712034 0.7618723333333334 -0.40770333333333336
664197913 0.7631356666666665 -0.4095183333333334
665683792 0.7653596666666668 -0.4112226666666667
667169671 0.7679426666666668 -0.4109696666666667
668655550 0.7693536666666666 -0.4123853333333333
670141429 0.768328 -0.414372
671627308 0.7689806666666666 -0.41492633333333334
673113187 0.7694916666666667 -0.41443199999999997
674599066 0.7696253333333333 -0.414709
676084945 0.7688316666666667 -0.4136773333333334
677570824 0.769746 -0.4128593333333333
679056703 0.7674783333333334 -0.41209866666666667
680542582 0.7656426666666666 -0.411505
682028461 0.7631453333333335 -0.40919966666666663
683514340 0.7605556666666667 -0.40853433333333333
685000219 0.758552 -0.4071633333333333
686486098 0.7541636666666666 -0.4049506666666667
687971977 0.7502956666666666 -0.4038426666666666
689457856 0.7447976666666666 -0.40208466666666665
690943735 0.7460873333333332 -0.40296933333333335
692429614 0.747341 -0.408371
693915493 0.7488616666666665 -0.40871966666666665
695401372 0.7495803333333333 -0.4115246666666667
696887251 0.7502106666666667 -0.4140553333333334
698373130 0.752367 -0.41351733333333335
699859009 0.7495886666666666 -0.416903
701344888 0.7510963333333334 -0.4189939999999999
702830767 0.7503936666666666 -0.41977233333333336
704316646 0.750174 -0.42055033333333336
705802525 0.750803 -0.4201876666666666
707288404 0.7484583333333333 -0.4190296666666667
708774283 0.746749 -0.4198836666666667
710260162 0.7454056666666666 -0.42024100000000003
711746041 0.742013 -0.4207183333333333
713231920 0.7395993333333334 -0.42030733333333337
714717799 0.7388876666666667 -0.42025599999999996
716203678 0.7348539999999999 -0.4182223333333333
717689557 0.7305796666666667 -0.4177756666666667
719175436 0.727586 -0.41733966666666666
720661315 0.725266 -0.417716
722147194 0.7282606666666668 -0.419594
723633073 0.7292160000000001 -0.4222246666666667
725118952 0.7312249999999999 -0.42448233333333335
726604831 0.7318836666666666 -0.42636366666666664
728090710 0.7325386666666667 -0.42861299999999997
729576589 0.7334716666666666 -0.4293106666666667
731062468 0.733412 -0.42966966666666667
732548347 0.7335116666666667 -0.4301506666666666
734034226 0.734321 -0.4304026666666667
735520105 0.732746 -0.4318406666666667
737005984 0.7306483333333333 -0.4319656666666667
738491863 0.730967 -0.43184266666666665
739977742 0.7311466666666666 -0.4291123333333333
741463621 0.726772 -0.4301186666666667
742949500 0.7260146666666666 -0.428466
744435379 0.7235386666666667 -0.42907133333333336
745921258 0.719398 -0.42829266666666665
747407137 0.7173466666666667 -0.42620233333333335
748893016 0.7142503333333333 -0.42490866666666666
750378895 0.7125303333333334 -0.42704533333333333
751864774 0.7128816666666666 -0.4289903333333333
753350653 0.7141510000000001 -0.43278633333333333
754836532 0.7166916666666667 -0.43277866666666664
756322411 0.7174076666666666 -0.43538499999999997
757808290 0.7174293333333334 -0.4379106666666666
759294169 0.7179533333333333 -0.437802
760780048 0.718463 -0.438809
762265927 0.7174373333333334 -0.4383823333333334
763751806 0.7190826666666666 -0.43815033333333336
765237685 0.7173513333333333 -0.43971800000000005
766723564 0.7171556666666667 -0.43884433333333334
768209443 0.7149503333333334 -0.439662
769695322 0.716274 -0.4347723333333333
771181201 0.7114376666666667 -0.43817033333333333
772667080 0.7091336666666667 -0.4384146666666666
774152959 0.7062336666666665 -0.43712799999999996
775638838 0.703611 -0.4356156666666666
777124717 0.7019086666666666 -0.43334599999999995
778610596 0.6966506666666668 -0.433087
780096475 0.693155 -0.43182666666666664
781582354 0.6953606666666667 -0.4345486666666667
783068233 0.696453 -0.4369256666666666
784554112 0.6990873333333333 -0.43944933333333336
786039991 0.7006513333333334 -0.44059333333333334
787525870 0.7024986666666667 -0.44097933333333333
789011749 0.7038243333333334 -0.44242266666666663
790497628 0.7027360000000001 -0.4435576666666667
791983507 0.7046833333333332 -0.445824
793469386 0.7049853333333335 -0.443449
794955265 0.7041826666666666 -0.44525166666666666
796441144 0.7036340000000001 -0.44322333333333336
797927023 0.7036696666666667 -0.4432746666666667
799412902 0.7017476666666665 -0.44357899999999995
800898781 0.6995693333333334 -0.4405026666666667
802384660 0.6980396666666667 -0.4409003333333334
803870539 0.6960466666666667 -0.4402223333333333
805356418 0.6936283333333334 -0.43863500000000005
806842297 0.6899453333333333 -0.43775800000000004
808328176 0.686782 -0.43529799999999996
809814055 0.6831680000000001 -0.4348346666666667
811299934 0.684901 -0.43499899999999997
812785813 0.6864076666666667 -0.4385303333333333
814271692 0.6872063333333333 -0.44105833333333333
815757571 0.6876726666666667 -0.4439473333333333
817243450 0.6900186666666667 -0.444891
818729329 0.6902803333333333 -0.44703566666666666
820215208 0.6910803333333334 -0.44810066666666665
821701087 0.6899646666666666 -0.44944866666666666
823186966 0.6914206666666667 -0.4491363333333333
824672845 0.6897506666666667 -0.4500766666666667
826158724 0.689974 -0.450007
827644603 0.691103 -0.45020233333333337
829130482 0.686356 -0.45083399999999996
830616361 0.6848956666666668 -0.4498533333333334
832102240 0.6834313333333334 -0.44935733333333333
833588119 0.6816826666666667 -0.44820400000000005
835073998 0.6792306666666666 -0.4464426666666666
836559877 0.6755483333333334 -0.4460916666666667
838045756 0.6711503333333333 -0.44632933333333336
839531635 0.6644266666666666 -0.4478326666666667
841017514 0.6668430000000001 -0.4460423333333334
842503393 0.6654643333333333 -0.4519703333333333
843989272 0.6717556666666665 -0.4507486666666667
845475151 0.6703756666666667 -0.4557366666666667
846961030 0.6733946666666667 -0.4555556666666667
848446909 0.670531 -0.459586
849932788 0.675541 -0.4575
851418667 0.6713233333333334 -0.46197166666666667
852904546 0.6758256666666668 -0.45767800000000003
854390425 0.6727536666666666 -0.4608656666666667
855876304 0.674214 -0.460175
857362183 0.6722333333333333 -0.46113033333333336
858848062 0.6724786666666667 -0.4588046666666667
860333941 0.6683326666666667 -0.46012866666666663
861819820 0.6694450000000001 -0.4560253333333333
863305699 0.6636813333333333 -0.457406
864791578 0.6657133333333333 -0.45221666666666666
866277457 0.6593260000000001 -0.454062
867763336 0.6585593333333334 -0.4496213333333334
869249215 0.6511693333333334 -0.45280366666666666
870735094 0.6551116666666666 -0.44900233333333334
872220973 0.651578 -0.45702466666666663
873706852 0.6560923333333334 -0.45527933333333337
875192731 0.6559533333333333 -0.460177
876678610 0.6595970000000001 -0.4595183333333333
878164489 0.6579566666666667 -0.46332466666666666
879650368 0.6607956666666667 -0.46139633333333335
881136247 0.661936 -0.461169
882622126 0.661734 -0.46404266666666666
884108005 0.6613226666666666 -0.4634673333333333
885593884 0.6615186666666667 -0.46153466666666665
887079763 0.6603463333333334 -0.462561
888565642 0.6603696666666666 -0.4616146666666667
890051521 0.6583236666666666 -0.45905166666666664
891537400 0.655387 -0.4609296666666667
893023279 0.6547043333333332 -0.45818633333333336
894509158 0.6507733333333333 -0.4589016666666667
895995037 0.6492056666666667 -0.4543403333333333
897480916 0.6462693333333335 -0.45387500000000003
898966795 0.6424966666666667 -0.45146400000000003
900452674 0.639776 -0.4541026666666667
901938553 0.641124 -0.45585566666666666
903424432 0.6439803333333334 -0.45745366666666665
904910311 0.6444333333333333 -0.459393
906396190 0.6449033333333333 -0.46323
907882069 0.6469506666666667 -0.46379400000000004
909367948 0.6470563333333333 -0.465478
910853827 0.648509 -0.46446133333333334
912339706 0.6456886666666667 -0.46614599999999995
913825585 0.6466673333333334 -0.467558
915311464 0.6465073333333334 -0.46747333333333335
916797343 0.6460206666666667 -0.46744499999999994
918283222 0.6433353333333334 -0.46735233333333337
919769101 0.6432829999999999 -0.46557699999999996
921254980 0.6430283333333333 -0.463728
922740859 0.6405483333333334 -0.4631673333333333
924226738 0.6373203333333334 -0.46076066666666665
925712617 0.6356266666666667 -0.46011700000000005
927198496 0.6314903333333334 -0.45897366666666667
928684375 0.5980679999999999 -0.45556599999999997
930170254 0.6258973333333334 -0.4562576666666667
931656133 0.6277466666666666 -0.457953
933142012 0.629485 -0.4598086666666667
934627891 0.6314566666666667 -0.4623643333333334
936113770 0.631615 -0.463197
937599649 0.6329516666666667 -0.46559
939085528 0.6326073333333334 -0.4660956666666667
940571407 0.6342610000000001 -0.467505
942057286 0.6350703333333333 -0.467233
943543165 0.6367406666666667 -0.4682783333333333
945029044 0.634556 -0.46911299999999995
946514923 0.6353276666666666 -0.46891766666666673
948000802 0.6330833333333333 -0.46889700000000006
949486681 0.6338333333333334 -0.4670803333333333
950972560 0.6326896666666667 -0.46546366666666666
952458439 0.6316940000000001 -0.46393766666666664
953944318 0.629436 -0.4627153333333333
955430197 0.6283143333333333 -0.46011266666666667
956916076 0.624146 -0.4593486666666666
958401955 0.6224103333333334 -0.45850433333333335
959887834 0.6205809999999999 -0.455532
961373713 0.6204826666666667 -0.4573743333333333
962859592 0.6211023333333333 -0.46048433333333333
964345471 0.6215643333333333 -0.46300533333333327
965831350 0.6232686666666667 -0.46286933333333335
967317229 0.6233050000000001 -0.465582
968803108 0.6241453333333333 -0.467208
970288987 0.6239896666666667 -0.468134
971774866 0.619398 -0.4736293333333334
973260745 0.6236843333333333 -0.47026999999999997
974746624 0.6243799999999999 -0.469376
976232503 0.6242709999999999 -0.46857499999999996
977718382 0.6225586666666666 -0.4689623333333333
979204261 0.6215456666666667 -0.4684553333333333
980690140 0.6200126666666667 -0.46950200000000003
982176019 0.616989 -0.46731033333333327
983661898 0.6161456666666666 -0.4668056666666667
985147777 0.6154706666666666 -0.46429733333333334
986633656 0.612658 -0.46354266666666666
988119535 0.6095556666666666 -0.4632336666666667
989605414 0.6067170000000001 -0.4601746666666667
991091293 0.6069913333333333 -0.460928
992577172 0.6099506666666666 -0.46161566666666665
994063051 0.6098846666666667 -0.46411966666666665
995548930 0.6111260000000001 -0.4655843333333334
997034809 0.611177 -0.46783899999999995
998520688 0.6123316666666666 -0.4688126666666667
1000006567 0.6116813333333334 -0.4703873333333333
1001492446 0.6116436666666667 -0.4698533333333333
1002978325 0.6123756666666667 -0.46984766666666666
1004464204 0.6118986666666667 -0.46973366666666666
1005950083 0.611091 -0.4704453333333333
1007435962 0.610184 -0.4703043333333334
1008921841 0.6092046666666667 -0.46963566666666673
1010407720 0.6088460000000001 -0.4682516666666667
1011893599 0.6072353333333333 -0.4668613333333333
1013379478 0.6040306666666667 -0.466442
1014865357 0.601763 -0.46593799999999996
1016351236 0.6006883333333333 -0.46360699999999994
1017837115 0.596664 -0.46167766666666665
1019322994 0.5945983333333333 -0.45981866666666665
1020808873 0.5927846666666666 -0.4618733333333333
1022294752 0.5949543333333333 -0.46155266666666667
1023780631 0.5958116666666666 -0.4640146666666667
1025266510 0.597167 -0.465597
1026752389 0.5970813333333332 -0.4689433333333333
1028238268 0.5996116666666668 -0.46790333333333334
1029724147 0.5992863333333333 -0.46911433333333336
1031210026 0.5996769999999999 -0.4691486666666667
1032695905 0.5989806666666667 -0.470572
1034181784 0.5981963333333334 -0.4714226666666667
1035667663 0.5976066666666666 -0.4719246666666666
1037153542 0.5971886666666667 -0.4704796666666667
1038639421 0.5970883333333333 -0.4706076666666667
1040125300 0.595157 -0.4691023333333333
1041611179 0.5929983333333334 -0.4696916666666667
1043097058 0.5920599999999999 -0.46715033333333333
1044582937 0.5916713333333333 -0.46612866666666664
1046068816 0.5879876666666667 -0.465683
1047554695 0.5850296666666668 -0.46474966666666667
1049040574 0.5828433333333334 -0.4641553333333333
1050526453 0.5844433333333333 -0.46207133333333333
1052012332 0.583177 -0.4671616666666667
1053498211 0.5838263333333332 -0.4686573333333333
1054984090 0.585454 -0.4716863333333334
1056469969 0.5871946666666666 -0.4717466666666667
1057955848 0.587529 -0.47250566666666666
1059441727 0.587858 -0.4728966666666667
1060927606 0.5893816666666666 -0.4743726666666666
1062413485 0.5881649999999999 -0.4753583333333333
1063899364 0.5894676666666667 -0.47431799999999996
1065385243 0.5874023333333334 -0.47494866666666663
1066871122 0.5885586666666667 -0.4750243333333333
1068357001 0.5590003333333332 -0.46300366666666665
1069842880 0.5859083333333333 -0.474076
1071328759 0.5854103333333334 -0.47222566666666665
1072814638 0.5840656666666667 -0.47184099999999995
1074300517 0.5795509999999999 -0.47231400000000007
1075786396 0.5778806666666666 -0.47029899999999997
1077272275 0.5759973333333334 -0.467386
1078758154 0.575968 -0.464167
1080244033 0.575497 -0.463322
1081729912 0.5763433333333333 -0.4663473333333334
1083215791 0.57438 -0.4707223333333333
1084701670 0.5750263333333333 -0.47264633333333333
1086187549 0.5778183333333334 -0.4729463333333333
1087673428 0.5778213333333334 -0.47370966666666664
1089159307 0.5784193333333333 -0.47538833333333336
1090645186 0.579041 -0.473829
1092131065 0.5793273333333334 -0.4752883333333333
1093616944 0.5804503333333333 -0.475567
1095102823 0.5795089999999999 -0.4751633333333333
1096588702 0.5776469999999999 -0.47484866666666664
1098074581 0.578784 -0.473719
1099560460 0.5764536666666668 -0.4732436666666667
1101046339 0.5740569999999999 -0.47269133333333335
1102532218 0.571785 -0.47206100000000006
1104018097 0.5699193333333333 -0.470626
1105503976 0.5676436666666667 -0.469681
1106989855 0.566565 -0.46762433333333336
1108475734 0.563855 -0.4659166666666667
1109961613 0.5599983333333333 -0.4641093333333333
1111447492 0.5622933333333333 -0.46674733333333335
1112933371 0.5623693333333333 -0.4696843333333333
1114419250 0.5646300000000001 -0.47179
1115905129 0.5651973333333333 -0.472953
1117391008 0.566176 -0.474686
1118876887 0.566083 -0.4765363333333333
1120362766 0.5667333333333333 -0.476813
1121848645 0.5950483333333333 -0.476168
1123334524 0.5675076666666667 -0.47743866666666673
1124820403 0.5661906666666666 -0.476275
1126306282 0.5679449999999999 -0.4777283333333333
1127792161 0.5662633333333335 -0.4761933333333333
1129278040 0.5638396666666666 -0.47734666666666664
1130763919 0.5638306666666667 -0.475918
1132249798 0.5609526666666668 -0.4761146666666667
1133735677 0.5604779999999999 -0.47444833333333336
1135221556 0.5550109999999999 -0.4747713333333334
1136707435 0.5531146666666666 -0.473414
1138193314 0.5522356666666667 -0.470051
1139679193 0.549379 -0.4692713333333333
1141165072 0.5499746666666666 -0.468872
1142650951 0.5517926666666667 -0.47359766666666664
1144136830 0.552604 -0.47489933333333334
1145622709 0.553702 -0.475422
1147108588 0.5536566666666666 -0.47817966666666667
1148594467 0.5542073333333333 -0.478797
1150080346 0.5531353333333333 -0.47935966666666663
1151566225 0.5572369999999999 -0.4791273333333333
1153052104 0.5551776666666667 -0.4792016666666667
1154537983 0.5543429999999999 -0.4800603333333333
1156023862 0.5527586666666666 -0.4818806666666666
1157509741 0.5538356666666666 -0.47875200000000007
1158995620 0.5534063333333333 -0.4792076666666667
1160481499 0.5497543333333333 -0.479006
1161967378 0.5496563333333332 -0.476535
1163453257 0.5476723333333333 -0.47608
1164939136 0.5460680000000001 -0.47426566666666664
1166425015 0.5423733333333334 -0.4734373333333333
1167910894 0.5393323333333334 -0.47127433333333335
1169396773 0.5356783333333334 -0.470032
1170882652 0.5354303333333333 -0.4715736666666667
1172368531 0.5352573333333334 -0.4735196666666666
1173854410 0.537797 -0.4752206666666667
1175340289 0.5387983333333334 -0.47684533333333334
1176826168 0.5398946666666666 -0.477935
1178312047 0.5396596666666666 -0.47965300000000005
1179797926 0.5389393333333333 -0.479465
1181283805 0.541108 -0.4798796666666667
1182769684 0.5394216666666667 -0.480923
1184255563 0.5403603333333334 -0.47975366666666663
1185741442 0.5388273333333333 -0.4812686666666666
1187227321 0.5368173333333334 -0.481535
1188713200 0.5365203333333333 -0.47963933333333336
1190199079 0.5346086666666666 -0.47985066666666665
1191684958 0.5334563333333334 -0.47861666666666663
1193170837 0.5313913333333334 -0.47685666666666665
1194656716 0.5277683333333333 -0.4753416666666667
1196142595 0.5260866666666667 -0.47254033333333334
1197628474 0.5213010000000001 -0.4728853333333333
1199114353 0.5199843333333334 -0.4706676666666667
1200600232 0.5145479999999999 -0.47619066666666665
1202086111 0.5171783333333333 -0.47812600000000005
1203571990 0.5191743333333334 -0.4804923333333333
1205057869 0.5211593333333333 -0.481822
1206543748 0.5203756666666667 -0.48456266666666664
1208029627 0.5225176666666668 -0.4851986666666666
1209515506 0.5237036666666667 -0.4859246666666667
1211001385 0.524476 -0.485415
1212487264 0.5239006666666666 -0.48735333333333336
1213973143 0.5251266666666666 -0.48805133333333334
1215459022 0.5262220000000001 -0.4860366666666667
1216944901 0.5247376666666667 -0.48723999999999995
1218430780 0.524004 -0.4861896666666667
1219916659 0.525035 -0.48498066666666667
1221402538 0.5294023333333333 -0.4799913333333334
1222888417 0.520632 -0.4819346666666667
1224374296 0.5200153333333333 -0.48003666666666667
1225860175 0.5184006666666666 -0.477343
1227346054 0.5157600000000001 -0.4759
1228831933 0.5104533333333333 -0.47439766666666666
1230317812 0.5122076666666667 -0.4725643333333333
1231803691 0.512376 -0.47413833333333333
1233289570 0.5125736666666666 -0.4781793333333333
1234775449 0.5150163333333334 -0.4791806666666667
1236261328 0.5160246666666666 -0.48131199999999996
1237747207 0.5138716666666666 -0.4840716666666667
1239233086 0.5146510000000001 -0.483547
1240718965 0.5161276666666668 -0.483649
1242204844 0.518176 -0.4824676666666667
1243690723 0.51613 -0.4851816666666667
1245176602 0.5161153333333334 -0.48269399999999996
1246662481 0.517327 -0.4815863333333333
1248148360 0.5150523333333333 -0.48113233333333333
1249634239 0.513967 -0.4807273333333333
1251120118 0.5138206666666667 -0.4781876666666667
1252605997 0.5119353333333333 -0.4763276666666667
1254091876 0.5099723333333334 -0.47561366666666666
1255577755 0.5085743333333334 -0.47303266666666666
1257063634 0.5047433333333333 -0.4719526666666667
1258549513 0.5014 -0.469002
1260035392 0.500577 -0.4645976666666667
1261521271 0.5016056666666667 -0.46846133333333334
1263007150 0.5020216666666667 -0.47007266666666664
1264493029 0.5011276666666666 -0.47377166666666665
1265978908 0.5024 -0.47544600000000004
1267464787 0.502939 -0.4771446666666667
1268950666 0.499603 -0.4803206666666667
1270436545 0.5040779999999999 -0.478119
1271922424 0.5019196666666667 -0.4804923333333333
1273408303 0.5020726666666667 -0.48050166666666666
1274894182 0.501553 -0.4801883333333333
1276380061 0.5039956666666666 -0.47859399999999996
1277865940 0.4995586666666667 -0.4822276666666667
1279351819 0.503249 -0.47775833333333334
1280837698 0.496102 -0.4821586666666667
1282323577 0.49869466666666673 -0.47737266666666667
1283809456 0.49289833333333327 -0.4803766666666667
1285295335 0.5219383333333334 -0.477168
1286781214 0.4880706666666667 -0.47836166666666663
1288267093 0.49223766666666663 -0.47083633333333336
1289752972 0.48277566666666666 -0.4753366666666667
1291238851 0.48999566666666666 -0.4720413333333333
1292724730 0.483439 -0.480216
1294210609 0.4925813333333333 -0.475023
1295696488 0.48696266666666665 -0.48202733333333336
1297182367 0.49481366666666665 -0.47816600000000004
1298668246 0.488396 -0.484783
1300154125 0.4968596666666667 -0.4802613333333334
1301640004 0.4915036666666667 -0.48406866666666665
1303125883 0.4981093333333333 -0.48000899999999996
1304611762 0.4903253333333333 -0.4844633333333334
1306097641 0.49750300000000003 -0.47817
1307583520 0.49064099999999994 -0.4827333333333333
1309069399 0.49595799999999995 -0.4777753333333334
1310555278 0.48944433333333337 -0.4814853333333333
1312041157 0.4949063333333334 -0.47494600000000003
1313527036 0.48580266666666666 -0.47823533333333335
1315012915 0.4914 -0.471262
1316498794 0.48489066666666664 -0.473292
1317984673 0.4885683333333333 -0.4672213333333333
1319470552 0.4822773333333334 -0.46788066666666667
1320956431 0.48972600000000005 -0.46500199999999997
1322442310 0.48234533333333335 -0.473484
1323928189 0.4919986666666667 -0.46723166666666666
1325414068 0.48653933333333327 -0.4729546666666667
1326899947 0.48738566666666666 -0.47503233333333333
1328385826 0.48711866666666664 -0.4773483333333333
1329871705 0.48864599999999997 -0.47803799999999996
1331357584 0.4869333333333333 -0.4813883333333333
1332843463 0.490321 -0.478165
1334329342 0.48857899999999993 -0.4781056666666667
1335815221 0.48829300000000003 -0.47978799999999994
1337301100 0.48902700000000004 -0.477593
1338786979 0.488223 -0.48158233333333333
1340272858 0.48685633333333334 -0.47914966666666664
1341758737 0.4865383333333333 -0.4791123333333333
1343244616 0.48469133333333336 -0.4782026666666666
1344730495 0.483976 -0.47530433333333333
1346216374 0.48341900000000004 -0.4755146666666667
1347702253 0.4805086666666667 -0.47288033333333335
1349188132 0.480249 -0.4707746666666666
1350674011 0.47900600000000004 -0.473193
1352159890 0.4775306666666667 -0.475887
1353645769 0.478345 -0.47604533333333326
1355131648 0.47991999999999996 -0.4766713333333334
1356617527 0.478345 -0.47870799999999997
1358103406 0.47836366666666663 -0.4802036666666667
1359589285 0.47841766666666663 -0.48105400000000004
1361075164 0.477454 -0.4830753333333333
1362561043 0.47638733333333333 -0.48116133333333333
1364046922 0.476216 -0.48377899999999996
1365532801 0.4737203333333333 -0.48244099999999995
1367018680 0.4730506666666667 -0.48394633333333337
1368504559 0.47297300000000003 -0.482794
1369990438 0.46826866666666667 -0.481636
1371476317 0.469592 -0.4804623333333333
1372962196 0.4662283333333333 -0.47971933333333333
1374448075 0.4670863333333333 -0.47711566666666666
1375933954 0.46490666666666663 -0.475404
1377419833 0.4600526666666667 -0.47462
1378905712 0.48562599999999995 -0.4875566666666667
1380391591 0.45524899999999996 -0.47511466666666663
1381877470 0.4578123333333333 -0.4766326666666667
1383363349 0.455798 -0.4811463333333334
1384849228 0.45919266666666664 -0.48177166666666665
1386335107 0.46006566666666665 -0.4836306666666667
1387820986 0.4649703333333333 -0.48085466666666665
1389306865 0.46848599999999996 -0.4803516666666667
1390792744 0.4679763333333333 -0.480928
1392278623 0.47031033333333333 -0.48001033333333337
1393764502 0.47011833333333336 -0.48120466666666667
1395250381 0.47257566666666667 -0.4798263333333333
1396736260 0.47211733333333333 -0.47836000000000006
1398222139 0.47177399999999997 -0.4797583333333333
1399708018 0.47062033333333336 -0.4774076666666667
1401193897 0.4705443333333333 -0.476119
1402679776 0.47032333333333326 -0.47480100000000003
1404165655 0.4688306666666667 -0.47382366666666664
1405651534 0.4645523333333333 -0.47463133333333335
1407137413 0.46563133333333334 -0.47129333333333334
1408623292 0.46166866666666667 -0.46960033333333334
1410109171 0.46295966666666666 -0.4675993333333333
1411595050 0.46323999999999993 -0.47041466666666665
1413080929 0.46789233333333335 -0.4710806666666667
1414566808 0.462972 -0.4766343333333333
1416052687 0.46911033333333335 -0.4728153333333333
1417538566 0.46700633333333336 -0.47758966666666663
1419024445 0.47102533333333335 -0.4759906666666667
1420510324 0.4658086666666667 -0.4801513333333334
1421996203 0.47300433333333336 -0.4765513333333333
1423482082 0.47192033333333333 -0.4789320000000001
1424967961 0.47529133333333334 -0.4774133333333333
1426453840 0.47219066666666665 -0.47844766666666666
1427939719 0.47452200000000005 -0.4767413333333333
1429425598 0.47099399999999997 -0.478429
1430911477 0.4716133333333334 -0.476513
1432397356 0.46506866666666663 -0.47603066666666666
1433883235 0.46709399999999995 -0.4751973333333333
1435369114 0.4664393333333334 -0.47363933333333336
1436854993 0.4660686666666667 -0.47197533333333336
1438340872 0.46329033333333336 -0.47017200000000003
1439826751 0.46031200000000005 -0.46932166666666664
1441312630 0.463525 -0.468551
1442798509 0.463303 -0.47134733333333334
1444284388 0.467602 -0.47001566666666666
1445770267 0.4654443333333333 -0.4737803333333333
1447256146 0.464515 -0.4768853333333333
1448742025 0.464982 -0.47595133333333334
1450227904 0.464814 -0.47607299999999997
1451713783 0.46536833333333333 -0.477403
1453199662 0.46498233333333333 -0.476545
1454685541 0.46563933333333335 -0.47655766666666666
1456171420 0.4644776666666666 -0.47595933333333335
1457657299 0.4616583333333333 -0.47581466666666666
1459143178 0.4610046666666667 -0.474529
1460629057 0.46080899999999997 -0.47275033333333333
1462114936 0.4568913333333333 -0.47302500000000003
1463600815 0.45608099999999996 -0.47170200000000007
1465086694 0.4532103333333333 -0.4706646666666667
1466572573 0.4517963333333333 -0.468437
1468058452 0.44927133333333336 -0.4664786666666667
1469544331 0.44614433333333325 -0.46540066666666663
1471030210 0.445761 -0.46721133333333337
1472516089 0.446596 -0.4697436666666667
1474001968 0.44741933333333334 -0.4722953333333333
1475487847 0.4502166666666667 -0.47273933333333334
1476973726 0.45051500000000005 -0.47557366666666673
1478459605 0.45366100000000004 -0.4743186666666667
1479945484 0.45210666666666666 -0.4765646666666667
1481431363 0.45331633333333327 -0.47732100000000005
1482917242 0.45482566666666663 -0.4759263333333334
1484403121 0.45478199999999996 -0.47574466666666665
1485889000 0.45510266666666666 -0.4761706666666667
1487374879 0.4537426666666667 -0.47638766666666665
1488860758 0.45207900000000006 -0.47543033333333334
1490346637 0.452239 -0.47342833333333334
1491832516 0.4516473333333333 -0.47181066666666666
1493318395 0.450235 -0.47089133333333333
1494804274 0.4466053333333333 -0.4706436666666667
1496290153 0.446696 -0.46867400000000004
1497776032 0.444048 -0.46715833333333334
1499261911 0.4394913333333334 -0.4665563333333333
1500747790 0.44303766666666666 -0.46454700000000004
1502233669 0.44198200000000004 -0.4680663333333334
1503719548 0.4451576666666666 -0.4691583333333333
1505205427 0.4425426666666667 -0.47196
1506691306 0.44611333333333336 -0.4731323333333333
1508177185 0.4475826666666667 -0.4732446666666667
1509663064 0.44572666666666666 -0.47471033333333335
1511148943 0.4470316666666667 -0.47455099999999995
1512634822 0.4454993333333333 -0.4746143333333333
1514120701 0.44687133333333334 -0.4752323333333333
1515606580 0.4463763333333333 -0.476134
1517092459 0.446381 -0.4745636666666666
1518578338 0.4460496666666667 -0.474512
1520064217 0.4417473333333333 -0.47465566666666664
1521550096 0.4418486666666666 -0.473039
1523035975 0.4399096666666667 -0.47233600000000003
1524521854 0.4398056666666667 -0.470095
1526007733 0.43562666666666666 -0.4675943333333333
1527493612 0.43308833333333335 -0.46815
1528979491 0.43061499999999997 -0.46463766666666667
1530465370 0.4270063333333333 -0.4662116666666667
1531951249 0.4292743333333333 -0.4683300000000001
1533437128 0.431167 -0.46792100000000003
1534923007 0.4336613333333334 -0.4689913333333333
1536408886 0.431711 -0.47251899999999997
1537894765 0.4333533333333333 -0.47478466666666663
1539380644 0.43571566666666667 -0.47378533333333334
1540866523 0.4347523333333334 -0.47489133333333333
1542352402 0.4346736666666666 -0.47561533333333333
1543838281 0.43587766666666666 -0.47483600000000004
1545324160 0.43488333333333334 -0.4749853333333333
1546810039 0.4346396666666667 -0.47380099999999997
1548295918 0.43420333333333333 -0.47285400000000005
1549781797 0.43094266666666664 -0.47227900000000006
1551267676 0.430666 -0.4696723333333333
1552753555 0.4326923333333334 -0.468507
1554239434 0.42807033333333333 -0.4674873333333333
1555725313 0.42768300000000004 -0.46432566666666664
1557211192 0.4239473333333333 -0.462974
1558697071 0.4225753333333333 -0.4594996666666667
1560182950 0.41880633333333334 -0.4596206666666667
1561668829 0.4203653333333333 -0.461628
1563154708 0.42202 -0.463265
1564640587 0.42199366666666666 -0.4665046666666666
1566126466 0.4238693333333334 -0.46724366666666667
1567612345 0.4228416666666666 -0.4691353333333333
1569098224 0.4234523333333333 -0.47074733333333335
1570584103 0.424339 -0.4711463333333333
1572069982 0.42741200000000007 -0.472895
1573555861 0.42445200000000005 -0.4726953333333333
1575041740 0.42354833333333336 -0.473191
1576527619 0.42433733333333334 -0.4735566666666667
1578013498 0.42481266666666667 -0.472382
1579499377 0.4241436666666667 -0.47163533333333335
1580985256 0.4223476666666666 -0.471074
1582471135 0.4216423333333334 -0.4692403333333333
1583957014 0.4193006666666667 -0.46917433333333336
1585442893 0.4202896666666667 -0.4639356666666667
1586928772 0.4169766666666666 -0.4648813333333333
1588414651 0.4130213333333333 -0.46374866666666664
1589900530 0.4127283333333333 -0.458946
1591386409 0.4131366666666667 -0.46335533333333334
1592872288 0.412952 -0.46632466666666667
1594358167 0.415168 -0.46720200000000006
1595844046 0.41637300000000005 -0.46844833333333336
1597329925 0.4168256666666667 -0.4684786666666667
1598815804 0.4167653333333334 -0.47226866666666667
1600301683 0.4181046666666666 -0.47166966666666665
1601787562 0.4153626666666666 -0.4736763333333333
1603273441 0.41693966666666665 -0.47319333333333335
1604759320 0.4175586666666667 -0.47276866666666667
1606245199 0.417533 -0.4736536666666667
1607731078 0.41730400000000006 -0.47234499999999996
1609216957 0.41647100000000004 -0.47153533333333336
1610702836 0.41644233333333336 -0.469217
1612188715 0.41518499999999997 -0.4686346666666667
1613674594 0.4134096666666667 -0.4669163333333333
1615160473 0.4136893333333333 -0.4644106666666667
1616646352 0.40987633333333334 -0.4641313333333333
1618132231 0.40839 -0.46259
1619618110 0.40642700000000004 -0.458974
1621103989 0.40778200000000003 -0.4595416666666667
1622589868 0.4073306666666667 -0.4628446666666666
1624075747 0.40614066666666665 -0.4661153333333334
1625561626 0.40488133333333337 -0.469252
1627047505 0.407368 -0.46763366666666667
1628533384 0.408 -0.4686356666666667
1630019263 0.40867566666666666 -0.4693313333333333
1631505142 0.40864666666666666 -0.47138566666666665
1632991021 0.40779066666666663 -0.4705236666666666
1634476900 0.4088146666666666 -0.47006466666666663
1635962779 0.4089403333333333 -0.47108533333333336
1637448658 0.40771766666666664 -0.4715856666666667
1638934537 0.4067016666666667 -0.4697546666666667
1640420416 0.40529400000000004 -0.46964133333333336
1641906295 0.40516100000000005 -0.46815233333333334
1643392174 0.40396699999999996 -0.46791699999999997
1644878053 0.40206366666666665 -0.4656993333333333
1646363932 0.4004323333333333 -0.4640953333333333
1647849811 0.39801133333333333 -0.46342533333333336
1649335690 0.39638366666666663 -0.4621133333333334
1650821569 0.39653266666666664 -0.459948
1652307448 0.3982556666666666 -0.4625963333333334
1653793327 0.3987566666666667 -0.4655053333333334
1655279206 0.3981843333333333 -0.46664900000000004
1656765085 0.4002223333333333 -0.4678446666666667
1658250964 0.4008873333333334 -0.4667463333333333
1659736843 0.3998346666666667 -0.469417
1661222722 0.4002403333333333 -0.469651
1662708601 0.399306 -0.47086266666666665
1664194480 0.3995583333333333 -0.4704026666666666
1665680359 0.399524 -0.4704823333333333
1667166238 0.3982186666666667 -0.4703
1668652117 0.39765866666666666 -0.46991166666666667
1670137996 0.39659266666666665 -0.468516
1671623875 0.397125 -0.465738
1673109754 0.398778 -0.46219666666666664
1674595633 0.39611966666666665 -0.462748
1676081512 0.39395566666666665 -0.46191200000000004
1677567391 0.393025 -0.4585143333333333
1679053270 0.39165733333333336 -0.45522899999999994
1680539149 0.39119 -0.456351
1682025028 0.38999733333333336 -0.4592986666666666
1683510907 0.3927293333333333 -0.46038399999999996
1684996786 0.39493333333333336 -0.4600693333333334
1686482665 0.39515833333333333 -0.463466
1687968544 0.39235100000000006 -0.4688893333333333
1689454423 0.3914413333333333 -0.46853799999999995
1690940302 0.39609300000000003 -0.467099
1692426181 0.395286 -0.469004
1693912060 0.392355 -0.4687313333333334
1695397939 0.39730966666666667 -0.468809
1696883818 0.39457133333333333 -0.46620066666666665
1698369697 0.394796 -0.4669733333333333
1699855576 0.39551033333333335 -0.46609300000000004
1701341455 0.39580566666666667 -0.46449500000000005
1702827334 0.39341833333333337 -0.46488100000000004
1704313213 0.3927796666666667 -0.464081
1705799092 0.39419133333333334 -0.459547
1707284971 0.3905666666666667 -0.45873400000000003
1708770850 0.3902206666666667 -0.45727199999999996
1710256729 0.3899996666666667 -0.45576733333333336
1711742608 0.38918933333333333 -0.4577
1713228487 0.3911033333333333 -0.45956133333333327
1714714366 0.390525 -0.46130566666666667
1716200245 0.3912136666666666 -0.4617016666666666
1717686124 0.39089033333333334 -0.46232233333333334
1719172003 0.39362199999999997 -0.4627776666666667
1720657882 0.39231499999999997 -0.46373099999999995
1722143761 0.39372566666666664 -0.4641146666666667
1723629640 0.3952183333333334 -0.4615226666666667
1725115519 0.392866 -0.4648763333333334
1726601398 0.3925076666666667 -0.4621186666666666
1728087277 0.3913156666666667 -0.46169333333333334
1729573156 0.3888116666666666 -0.46254
1731059035 0.390393 -0.4598503333333333
1732544914 0.3889903333333333 -0.45915899999999993
1734030793 0.3867146666666667 -0.45811266666666667
1735516672 0.385891 -0.45561499999999994
1737002551 0.3844163333333333 -0.453918
1738488430 0.3803773333333333 -0.45211
1739974309 0.37860099999999997 -0.4508283333333334
1741460188 0.37958699999999995 -0.4528503333333333
1742946067 0.38150766666666663 -0.45537200000000005
1744431946 0.38261199999999995 -0.45592999999999995
1745917825 0.3863836666666667 -0.45859333333333335
1747403704 0.3840226666666666 -0.46042000000000005
1748889583 0.384147 -0.46017633333333335
1750375462 0.38627833333333333 -0.4619993333333334
1751861341 0.3845223333333334 -0.4633063333333333
1753347220 0.388177 -0.46263566666666667
1754833099 0.38701366666666664 -0.4620136666666667
1756318978 0.38668399999999997 -0.46192866666666665
1757804857 0.3841763333333333 -0.4627746666666667
1759290736 0.38705233333333333 -0.460964
1760776615 0.3850976666666666 -0.4604703333333333
1762262494 0.38448299999999996 -0.45736533333333335
1763748373 0.3810116666666667 -0.4595086666666666
1765234252 0.38191366666666665 -0.45617899999999995
1766720131 0.3795473333333333 -0.4544973333333333
1768206010 0.38006233333333334 -0.4535106666666667
1769691889 0.377423 -0.45230233333333336
1771177768 0.3755023333333334 -0.45357800000000004
1772663647 0.37782033333333337 -0.4567006666666667
1774149526 0.3812196666666667 -0.4549916666666667
1775635405 0.382283 -0.457333
1777121284 0.3825053333333333 -0.4585056666666667
1778607163 0.38349166666666673 -0.46011566666666665
1780093042 0.38203800000000004 -0.459223
1781578921 0.38427133333333335 -0.46075466666666665
1783064800 0.38739433333333334 -0.4604696666666667
1784550679 0.38542699999999996 -0.46046433333333336
1786036558 0.3844096666666666 -0.4603076666666667
1787522437 0.38647733333333334 -0.45897699999999997
1789008316 0.3833136666666667 -0.45924633333333337
1790494195 0.384857 -0.457649
1791980074 0.38259533333333334 -0.4562026666666667
1793465953 0.38374299999999995 -0.45353333333333334
1794951832 0.38295999999999997 -0.45287966666666674
1796437711 0.38203766666666666 -0.4510726666666667
1797923590 0.37893299999999996 -0.4501376666666667
1799409469 0.37559133333333333 -0.4482626666666667
1800895348 0.3768373333333333 -0.4477466666666667
1802381227 0.37712666666666667 -0.44941733333333334
1803867106 0.38020933333333334 -0.45173933333333327
1805352985 0.3803066666666666 -0.45211833333333334
1806838864 0.38095999999999997 -0.4530153333333334
1808324743 0.3845256666666667 -0.45389100000000004
1809810622 0.38241533333333333 -0.4540313333333333
1811296501 0.38389200000000007 -0.4546336666666666
1812782380 0.38297933333333334 -0.45643900000000004
1814268259 0.3828416666666667 -0.455071
1815754138 0.38097633333333336 -0.454633
1817240017 0.38157033333333334 -0.453092
1818725896 0.38206633333333334 -0.45185666666666663
1820211775 0.3826766666666666 -0.450479
1821697654 0.38045799999999996 -0.45039333333333337
1823183533 0.37823900000000005 -0.45029566666666665
1824669412 0.378319 -0.4475173333333333
1826155291 0.39457233333333336 -0.44753133333333334
1827641170 0.3736383333333333 -0.4454736666666667
1829127049 0.3684516666666667 -0.442906
1830612928 0.37027133333333334 -0.44199733333333335
1832098807 0.371384 -0.44371333333333335
1833584686 0.3731816666666667 -0.4460766666666666
1835070565 0.368284 -0.4489913333333333
1836556444 0.373176 -0.4502373333333334
1838042323 0.3730476666666667 -0.4514026666666667
1839528202 0.3755490000000001 -0.452246
1841014081 0.37397433333333335 -0.45380466666666663
1842499960 0.37667133333333336 -0.4533753333333333
1843985839 0.37413300000000005 -0.45418933333333333
1845471718 0.3760033333333333 -0.4541656666666667
1846957597 0.37524599999999997 -0.452814
1848443476 0.3730336666666667 -0.4544563333333333
1849929355 0.374201 -0.4522633333333334
1851415234 0.372635 -0.4498666666666667
1852901113 0.36822133333333334 -0.45048299999999997
1854386992 0.3697823333333334 -0.4494293333333333
1855872871 0.3675456666666667 -0.44893333333333335
1857358750 0.36603600000000003 -0.44836866666666664
1858844629 0.36426733333333333 -0.44538300000000003
1860330508 0.3645156666666667 -0.4450733333333334
1861816387 0.36280833333333334 -0.44693733333333335
1863302266 0.365914 -0.4481273333333333
1864788145 0.36634066666666665 -0.450479
1866274024 0.36788466666666664 -0.45064
1867759903 0.36908266666666667 -0.45262
1869245782 0.370713 -0.453298
1870731661 0.370126 -0.45248700000000003
1872217540 0.37029466666666666 -0.4531766666666666
1873703419 0.37008066666666667 -0.45473800000000003
1875189298 0.37107466666666666 -0.45498866666666665
1876675177 0.37362133333333336 -0.4511096666666667
1878161056 0.3713676666666667 -0.45363033333333336
1879646935 0.3725093333333333 -0.4538933333333333
1881132814 0.37007366666666663 -0.4509633333333333
1882618693 0.3655823333333334 -0.4508723333333333
1884104572 0.3676006666666667 -0.447616
1885590451 0.36663633333333334 -0.44646800000000003
1887076330 0.36426766666666666 -0.44464
1888562209 0.36299533333333334 -0.4431233333333333
1890048088 0.3632773333333333 -0.44053500000000007
1891533967 0.36162066666666665 -0.44370333333333334
1893019846 0.3643533333333333 -0.44454299999999997
1894505725 0.36381066666666667 -0.4460186666666666
1895991604 0.36563799999999996 -0.44915600000000006
1897477483 0.36455433333333337 -0.44890499999999994
1898963362 0.3661856666666667 -0.44819633333333336
1900449241 0.36824199999999996 -0.4477373333333334
1901935120 0.3675603333333333 -0.4480786666666667
1903420999 0.3693946666666667 -0.4474213333333334
1904906878 0.36705133333333334 -0.448175
1906392757 0.367648 -0.448891
1907878636 0.366463 -0.4468573333333334
1909364515 0.3641206666666667 -0.44709400000000005
1910850394 0.3658436666666667 -0.44364833333333326
1912336273 0.36472499999999997 -0.4424586666666667
1913822152 0.36166499999999996 -0.44097800000000004
1915308031 0.36103700000000005 -0.43930766666666665
1916793910 0.3606906666666667 -0.43671599999999994
1918279789 0.35627633333333336 -0.43745933333333326
1919765668 0.354306 -0.43315466666666663
1921251547 0.35567400000000005 -0.4363803333333333
1922737426 0.357169 -0.4367216666666667
1924223305 0.35700366666666666 -0.4405666666666666
1925709184 0.35508933333333337 -0.44238833333333333
1927195063 0.358659 -0.44097633333333336
1928680942 0.357988 -0.44371133333333335
1930166821 0.3583313333333334 -0.4453506666666667
1931652700 0.3612333333333333 -0.44430466666666674
1933138579 0.35921833333333336 -0.44549466666666665
1934624458 0.35794966666666667 -0.4447666666666667
1936110337 0.3592576666666667 -0.44373466666666667
1937596216 0.35486733333333337 -0.44597366666666666
1939082095 0.3571816666666667 -0.44536233333333336
1940567974 0.3573903333333333 -0.443266
1942053853 0.35698433333333335 -0.44232
1943539732 0.35593699999999995 -0.44228666666666666
1945025611 0.3564233333333333 -0.4381713333333333
1946511490 0.3524623333333334 -0.43914566666666666
1947997369 0.3500256666666666 -0.4388536666666667
1949483248 0.34771366666666664 -0.436262
1950969127 0.3502983333333333 -0.4364653333333333
1952455006 0.3522093333333333 -0.43701366666666663
1953940885 0.3505743333333333 -0.4394563333333333
1955426764 0.35284066666666664 -0.44007799999999997
1956912643 0.352976 -0.44163100000000005
1958398522 0.3535356666666667 -0.44021
1959884401 0.35452766666666663 -0.4419823333333333
1961370280 0.3539163333333333 -0.44375600000000004
1962856159 0.3549893333333333 -0.4428626666666666
1964342038 0.3549013333333333 -0.44217733333333337
1965827917 0.35567166666666666 -0.44170099999999995
1967313796 0.35300899999999996 -0.4427526666666666
1968799675 0.35655100000000006 -0.4435736666666667
1970285554 0.352241 -0.441036
1971771433 0.3528736666666667 -0.43896766666666664
1973257312 0.3501653333333333 -0.43792133333333333
1974743191 0.3493003333333333 -0.437328
1976229070 0.34636666666666666 -0.4367843333333334
1977714949 0.34292833333333334 -0.4366816666666667
1979200828 0.3445099999999999 -0.43225833333333336
1980686707 0.343243 -0.4317856666666667
1982172586 0.34197866666666665 -0.4352663333333333
1983658465 0.34269533333333335 -0.43782533333333334
1985144344 0.346881 -0.43629866666666667
1986630223 0.34531500000000004 -0.4392046666666667
1988116102 0.347115 -0.4381453333333334
1989601981 0.3462483333333333 -0.4479353333333333
1991087860 0.3465376666666667 -0.440119
1992573739 0.3442903333333333 -0.442246
1994059618 0.3476323333333333 -0.43831333333333333
1995545497 0.3473946666666667 -0.44123599999999996
1997031376 0.346999 -0.4405346666666667
1998517255 0.342073 -0.4418136666666667
2000003134 0.34670500000000004 -0.438837
2001489013 0.3449423333333333 -0.4378676666666667
2002974892 0.3440733333333334 -0.43678333333333336
2004460771 0.3413023333333334 -0.4356143333333333
2005946650 0.33960999999999997 -0.43510566666666667
2007432529 0.3392306666666666 -0.43328000000000005
2008918408 0.33617199999999997 -0.4315553333333333
2010404287 0.3372036666666667 -0.43092899999999995
2011890166 0.33704933333333337 -0.43247366666666665
2013376045 0.3390929999999999 -0.4338936666666667
2014861924 0.33787133333333336 -0.4371426666666667
2016347803 0.3409506666666666 -0.4349733333333334
2017833682 0.341197 -0.4374093333333333
2019319561 0.340757 -0.43917433333333333
2020805440 0.3429123333333333 -0.44087699999999996
2022291319 0.34208766666666673 -0.439948
2023777198 0.3422206666666667 -0.4417433333333333
2025263077 0.34149366666666664 -0.44139766666666663
2026748956 0.343178 -0.44054733333333335
2028234835 0.3439126666666667 -0.4378326666666667
2029720714 0.34265666666666666 -0.43663266666666667
2031206593 0.34254566666666664 -0.4356173333333333
2032692472 0.3393566666666667 -0.437438
2034178351 0.3429013333333333 -0.43162199999999995
2035664230 0.33896733333333334 -0.43287800000000004
2037150109 0.3387213333333334 -0.4316516666666667
2038635988 0.3385816666666667 -0.42648100000000005
2040121867 0.336644 -0.428351
2041607746 0.3364843333333334 -0.42956600000000006
2043093625 0.3339993333333333 -0.4333103333333333
2044579504 0.33657266666666663 -0.4321056666666667
2046065383 0.33639033333333335 -0.43349733333333335
2047551262 0.3379813333333333 -0.43438333333333334
2049037141 0.3383593333333333 -0.43610433333333337
2050523020 0.33773866666666663 -0.43647966666666665
2052008899 0.33670466666666665 -0.436323
2053494778 0.33714099999999997 -0.4329616666666667
2054980657 0.33549633333333334 -0.4366636666666667
2056466536 0.3359263333333333 -0.43410299999999996
2057952415 0.33601366666666665 -0.43457866666666667
2059438294 0.3350436666666667 -0.43397233333333335
2060924173 0.33330433333333337 -0.434953
2062410052 0.33351033333333335 -0.4320543333333333
2063895931 0.3315936666666666 -0.428926
2065381810 0.33001966666666666 -0.4299496666666667
2066867689 0.32786666666666664 -0.42601266666666665
2068353568 0.32468833333333336 -0.42762133333333335
2069839447 0.3232706666666667 -0.42547633333333335
2071325326 0.3238256666666666 -0.42660866666666664
2072811205 0.32404099999999997 -0.429706
2074297084 0.32653666666666664 -0.43006900000000003
2075782963 0.32655433333333334 -0.43167133333333335
2077268842 0.32880233333333336 -0.4321713333333333
2078754721 0.3283876666666667 -0.4338296666666667
2080240600 0.329393 -0.43472299999999997
2081726479 0.3297933333333333 -0.4343766666666667
2083212358 0.32989966666666665 -0.43486
2084698237 0.331342 -0.43491799999999997
2086184116 0.3317623333333333 -0.43451233333333333
2087669995 0.3302796666666667 -0.43326933333333334
2089155874 0.3320563333333333 -0.43429500000000004
2090641753 0.33107233333333336 -0.43210566666666667
2092127632 0.3282956666666667 -0.431742
2093613511 0.328028 -0.42978266666666665
2095099390 0.3286183333333333 -0.42879466666666666
2096585269 0.32794033333333333 -0.4268633333333334
2098071148 0.327418 -0.4266273333333334
2099557027 0.32314 -0.42483633333333337
2101042906 0.323687 -0.42648766666666665
2102528785 0.32383633333333334 -0.42886
2104014664 0.327093 -0.43022199999999994
2105500543 0.32669866666666664 -0.43023733333333336
2106986422 0.3289283333333333 -0.4317326666666667
2108472301 0.3288893333333333 -0.434404
2109958180 0.32885499999999995 -0.435605
2111444059 0.32813533333333333 -0.4355339999999999
2112929938 0.33021866666666666 -0.436304
2114415817 0.3300396666666667 -0.43610333333333334
2115901696 0.3325913333333333 -0.4335473333333333
2117387575 0.3306826666666667 -0.4343876666666666
2118873454 0.3313893333333333 -0.43348000000000003
2120359333 0.32942866666666665 -0.433659
2121845212 0.32970166666666667 -0.431536
2123331091 0.3264626666666666 -0.4317786666666667
2124816970 0.34781966666666664 -0.4375546666666667
2126302849 0.32584433333333335 -0.4286826666666667
2127788728 0.3211273333333333 -0.4277393333333334
2129274607 0.324348 -0.425456
2130760486 0.32201433333333335 -0.42495499999999997
2132246365 0.32516199999999995 -0.427333
2133732244 0.32350833333333334 -0.4284296666666667
2135218123 0.32554733333333336 -0.4289976666666666
2136704002 0.32488 -0.4310343333333333
2138189881 0.32380733333333334 -0.43211333333333335
2139675760 0.32362466666666667 -0.43229333333333325
2141161639 0.32499266666666665 -0.43515600000000004
2142647518 0.32342766666666667 -0.433352
2144133397 0.32467766666666664 -0.4344866666666667
2145619276 0.323648 -0.4349896666666666
2147105155 0.325075 -0.433418
2148591034 0.32117066666666666 -0.433984
2150076913 0.32345566666666664 -0.43323933333333337
2151562792 0.3199086666666667 -0.4330346666666667
2153048671 0.32020766666666667 -0.429487
2154534550 0.3181173333333333 -0.4312293333333334
2156020429 0.31685166666666664 -0.42966299999999996
2157506308 0.31366733333333335 -0.4271103333333333
2158992187 0.312692 -0.427492
2160478066 0.310224 -0.4267913333333333
2161963945 0.3152553333333334 -0.42658833333333335
2163449824 0.3147143333333333 -0.42838266666666663
2164935703 0.314277 -0.4306446666666666
2166421582 0.3156096666666666 -0.43280433333333335
2167907461 0.3168296666666667 -0.43376499999999996
2169393340 0.317338 -0.43529033333333333
2170879219 0.3181136666666667 -0.4352553333333333
2172365098 0.3209396666666667 -0.4341006666666667
2173850977 0.318458 -0.43553333333333333
2175336856 0.3182566666666667 -0.4343376666666667
2176822735 0.3197143333333334 -0.4353926666666667
2178308614 0.32314966666666667 -0.43234100000000003
2179794493 0.319067 -0.43378633333333333
2181280372 0.318699 -0.43299966666666667
2182766251 0.31699066666666664 -0.43024199999999996
2184252130 0.31756399999999996 -0.43013799999999996
2185738009 0.3164956666666667 -0.42866000000000004
2187223888 0.31590066666666666 -0.4252993333333333
2188709767 0.3143223333333333 -0.424333
2190195646 0.313345 -0.42260000000000003
2191681525 0.313667 -0.4248173333333333
2193167404 0.31607599999999997 -0.42550333333333334
2194653283 0.3174966666666667 -0.428312
2196139162 0.31839733333333337 -0.4284833333333333
2197625041 0.3205766666666667 -0.42863
2199110920 0.32269533333333333 -0.4290586666666667
2200596799 0.31991933333333333 -0.4320813333333333
2202082678 0.32279433333333335 -0.42699166666666666
2203568557 0.3205843333333333 -0.4297856666666666
2205054436 0.3238843333333333 -0.429934
2206540315 0.32256 -0.424591
2208026194 0.302722 -0.4218296666666667
2209512073 0.3225 -0.42636399999999997
2210997952 0.322019 -0.4245063333333334
2212483831 0.3200076666666667 -0.424861
2213969710 0.3191916666666667 -0.4213026666666666
2215455589 0.318586 -0.420484
2216941468 0.3172443333333333 -0.42041233333333333
2218427347 0.31767166666666663 -0.41998566666666665
2219913226 0.317587 -0.41454433333333335
2221399105 0.31459200000000004 -0.4183866666666667
2222884984 0.31512866666666667 -0.42026366666666665
2224370863 0.3156046666666667 -0.4201436666666667
2225856742 0.31576333333333334 -0.42288533333333334
2227342621 0.3182466666666666 -0.4230103333333333
2228828500 0.31667133333333336 -0.4247349999999999
2230314379 0.3178543333333333 -0.4271446666666667
2231800258 0.3174633333333334 -0.42636199999999996
2233286137 0.31524366666666664 -0.42679666666666666
2234772016 0.3202466666666666 -0.42775266666666667
2236257895 0.319058 -0.42663333333333336
2237743774 0.3192633333333333 -0.428664
2239229653 0.3165496666666667 -0.4287016666666667
2240715532 0.32042266666666663 -0.4270403333333333
2242201411 0.31526966666666667 -0.42983333333333335
2243687290 0.3180846666666666 -0.4248906666666667
2245173169 0.315737 -0.41946600000000006
2246659048 0.31502233333333335 -0.42057100000000003
2248144927 0.312942 -0.42042766666666664
2249630806 0.31242666666666663 -0.4179656666666666
2251116685 0.31304099999999996 -0.41986866666666667
2252602564 0.31438533333333335 -0.42278466666666664
2254088443 0.31451566666666664 -0.42297333333333337
2255574322 0.314116 -0.42255766666666666
2257060201 0.31513433333333335 -0.4243546666666667
2258546080 0.31237033333333336 -0.42391599999999996
2260031959 0.3138296666666667 -0.42603199999999997
2261517838 0.31412433333333334 -0.425883
2263003717 0.3118993333333333 -0.4260156666666666
2264489596 0.3100793333333333 -0.424858
2265975475 0.31060933333333335 -0.425057
2267461354 0.31019500000000005 -0.4254293333333334
2268947233 0.31347533333333333 -0.42658766666666664
2270433112 0.310007 -0.42339600000000005
2271918991 0.30730799999999997 -0.424135
2273404870 0.30618966666666664 -0.4212396666666667
2274890749 0.28783366666666665 -0.40877366666666665
2276376628 0.304382 -0.4206006666666666
2277862507 0.306244 -0.4178123333333333
2279348386 0.30193766666666666 -0.4171553333333333
2280834265 0.29982133333333333 -0.41719466666666666
2282320144 0.30365766666666666 -0.417391
2283806023 0.3023943333333334 -0.42222866666666664
2285291902 0.3050463333333333 -0.418861
2286777781 0.3042083333333333 -0.4215016666666666
2288263660 0.304598 -0.42006666666666664
2289749539 0.30946633333333334 -0.4214033333333333
2291235418 0.308383 -0.421192
2292721297 0.3075236666666667 -0.4231373333333333
2294207176 0.308362 -0.42074733333333336
2295693055 0.30646833333333334 -0.4217053333333333
2297178934 0.30551733333333336 -0.420758
2298664813 0.30706666666666665 -0.4213653333333333
2300150692 0.308375 -0.42113700000000004
2301636571 0.3054503333333333 -0.4176246666666667
2303122450 0.30598733333333333 -0.41925066666666666
2304608329 0.30993933333333334 -0.4146703333333333
2306094208 0.30391433333333334 -0.4173616666666667
2307580087 0.29868266666666665 -0.41206133333333334
2309065966 0.30291333333333337 -0.4130023333333333
2310551845 0.30340266666666665 -0.411916
2312037724 0.3041496666666667 -0.41469500000000004
2313523603 0.301798 -0.4168516666666666
2315009482 0.3036953333333334 -0.417221
2316495361 0.3075573333333333 -0.418261
2317981240 0.3029726666666666 -0.4205383333333333
2319467119 0.30551033333333333 -0.4195446666666667
2320952998 0.30630766666666664 -0.42126933333333333
2322438877 0.311029 -0.42011766666666667
2323924756 0.3096586666666667 -0.4220413333333333
2325410635 0.306773 -0.42149666666666663
2326896514 0.3065906666666667 -0.42035266666666665
2328382393 0.31419833333333336 -0.4224966666666667
2329868272 0.30755566666666667 -0.4200083333333333
2331354151 0.30955666666666665 -0.419899
2332840030 0.31193933333333335 -0.419247
2334325909 0.306222 -0.4175046666666667
2335811788 0.30579933333333337 -0.4169523333333333
2337297667 0.30564299999999994 -0.417324
2338783546 0.30452266666666666 -0.41558300000000004
2340269425 0.301438 -0.4159353333333333
2341755304 0.30489866666666665 -0.41443566666666665
2343241183 0.30173866666666666 -0.4196343333333334
2344727062 0.307933 -0.41674799999999995
2346212941 0.309055 -0.41692633333333334
2347698820 0.3022573333333333 -0.4221163333333333
2349184699 0.30602100000000004 -0.4203966666666667
2350670578 0.30771533333333334 -0.4186703333333333
2352156457 0.30952833333333335 -0.42206366666666667
2353642336 0.308587 -0.4201976666666667
2355128215 0.30466233333333337 -0.4215913333333334
2356614094 0.30803200000000003 -0.4205843333333333
2358099973 0.302583 -0.4221953333333333
2359585852 0.300802 -0.42194466666666663
2361071731 0.30239900000000003 -0.422186
2362557610 0.300344 -0.42180633333333334
2364043489 0.29596766666666663 -0.4214626666666667
2365529368 0.29583133333333334 -0.420574
2367015247 0.295472 -0.41991333333333336
2368501126 0.293237 -0.41911733333333334
2369987005 0.29452933333333337 -0.414229
2371472884 0.29306899999999997 -0.41565233333333335
2372958763 0.2942416666666667 -0.42037433333333335
2374444642 0.29699433333333336 -0.418469
2375930521 0.29896433333333333 -0.42011466666666664
2377416400 0.30002599999999996 -0.4236513333333334
2378902279 0.29955233333333336 -0.4234853333333333
2380388158 0.29845866666666665 -0.422063
2381874037 0.3004016666666666 -0.4226273333333333
2383359916 0.3015636666666666 -0.41886700000000004
2384845795 0.3014003333333333 -0.41917133333333334
2386331674 0.30299766666666667 -0.420394
2387817553 0.30162266666666665 -0.420735
2389303432 0.2999516666666666 -0.420004
2390789311 0.29911533333333334 -0.418136
2392275190 0.301658 -0.41411166666666666
2393761069 0.299737 -0.41376566666666664
2395246948 0.29873 -0.41373433333333337
2396732827 0.2974853333333333 -0.4113223333333333
2398218706 0.29620066666666667 -0.4100536666666667
2399704585 0.2978676666666667 -0.40673333333333334
2401190464 0.29561866666666664 -0.40845266666666663
2402676343 0.3000426666666667 -0.4114173333333333
2404162222 0.29618833333333333 -0.41159133333333325
2405648101 0.2956806666666667 -0.418204
2407133980 0.299648 -0.41695499999999996
2408619859 0.298761 -0.41524366666666673
2410105738 0.29994000000000004 -0.4152636666666667
2411591617 0.30086700000000005 -0.416331
2413077496 0.3016736666666667 -0.4151646666666666
2414563375 0.29420766666666665 -0.41898366666666664
2416049254 0.2959136666666667 -0.41802266666666665
2417535133 0.29587566666666665 -0.4196676666666666
2419021012 0.297407 -0.41769999999999996
2420506891 0.2945736666666667 -0.42150166666666666
2421992770 0.29634133333333335 -0.416925
2423478649 0.29527 -0.41412833333333327
2424964528 0.28620433333333334 -0.41939299999999996
2426450407 0.2949 -0.41369866666666666
2427936286 0.28541799999999995 -0.41950466666666664
2429422165 0.283261 -0.4150486666666667
2430908044 0.2845516666666667 -0.4146556666666667
2432393923 0.28576966666666664 -0.41739733333333334
2433879802 0.287343 -0.417257
2435365681 0.286995 -0.4197733333333334
2436851560 0.28927600000000003 -0.417454
2438337439 0.28844533333333333 -0.4195533333333333
2439823318 0.28760366666666665 -0.4220256666666667
2441309197 0.28900966666666666 -0.41932400000000003
2442795076 0.28841833333333333 -0.41904433333333335
2444280955 0.288346 -0.4173976666666667
2445766834 0.288009 -0.41802266666666665
2447252713 0.286657 -0.42072166666666666
2448738592 0.28664 -0.4187963333333333
2450224471 0.28955100000000006 -0.4128513333333333
2451710350 0.28437466666666666 -0.41861433333333337
2453196229 0.28902666666666665 -0.4131223333333333
2454682108 0.28586266666666665 -0.4108533333333333
2456167987 0.284947 -0.40689333333333333
2457653866 0.28181833333333334 -0.408174
2459139745 0.2820206666666667 -0.40543233333333334
2460625624 0.27941366666666667 -0.406342
2462111503 0.28301466666666664 -0.4035776666666666
2463597382 0.27962299999999995 -0.4077713333333333
2465083261 0.28426599999999996 -0.40853199999999995
2466569140 0.282771 -0.41272933333333334
2468055019 0.2860506666666667 -0.412071
2469540898 0.2842266666666667 -0.411306
2471026777 0.2863113333333333 -0.413429
2472512656 0.280671 -0.4129396666666667
2473998535 0.2884776666666667 -0.4131006666666666
2475484414 0.2849023333333333 -0.41466000000000003
2476970293 0.28756033333333336 -0.41032399999999997
2478456172 0.28313933333333335 -0.41122566666666666
2479942051 0.28711400000000004 -0.40937633333333334
2481427930 0.28167766666666666 -0.4105473333333334
2482913809 0.28677833333333336 -0.4074416666666667
2484399688 0.2808853333333334 -0.4101266666666667
2485885567 0.28514233333333333 -0.40425933333333336
2487371446 0.27486266666666664 -0.40748566666666663
2488857325 0.2810646666666667 -0.401974
2490343204 0.27413533333333334 -0.40365500000000004
2491829083 0.27982333333333337 -0.4032926666666667
2493314962 0.2758756666666667 -0.4099243333333334
2494800841 0.284046 -0.4067186666666667
2496286720 0.28048 -0.40802266666666664
2497772599 0.28613533333333335 -0.4068243333333334
2499258478 0.2812033333333333 -0.413416
2500744357 0.28986566666666663 -0.4103693333333333
2502230236 0.2834096666666666 -0.4119633333333333
2503716115 0.2873603333333334 -0.412752
2505201994 0.28388300000000005 -0.41389500000000007
2506687873 0.2868306666666667 -0.41300333333333333
2508173752 0.2888523333333333 -0.41200666666666663
2509659631 0.2877376666666667 -0.4114966666666667
2511145510 0.2873246666666667 -0.4105033333333334
2512631389 0.28621633333333335 -0.4082333333333333
2514117268 0.28621499999999994 -0.4078276666666667
2515603147 0.2846296666666666 -0.40587666666666666
2517089026 0.28703133333333336 -0.4027243333333333
2518574905 0.28418066666666664 -0.40168633333333337
2520060784 0.2828066666666667 -0.40197733333333335
2521546663 0.2833916666666667 -0.4014333333333333
2523032542 0.281447 -0.404098
2524518421 0.28329866666666664 -0.404906
2526004300 0.2830536666666667 -0.40706
2527490179 0.28460833333333335 -0.4068483333333333
2528976058 0.2841616666666667 -0.409416
2530461937 0.28509733333333337 -0.40932199999999996
2531947816 0.2856746666666667 -0.4087073333333333
2533433695 0.286061 -0.4091850000000001
2534919574 0.288178 -0.40913133333333335
2536405453 0.284922 -0.41064933333333337
2537891332 0.2860756666666667 -0.4083893333333333
2539377211 0.2832193333333333 -0.409152
2540863090 0.28366033333333335 -0.40691900000000003
2542348969 0.28274400000000005 -0.4088063333333333
2543834848 0.27993566666666664 -0.40640766666666667
2545320727 0.27906566666666666 -0.4053913333333334
2546806606 0.27719733333333335 -0.4041383333333333
2548292485 0.27966766666666665 -0.4020316666666666
2549778364 0.27516066666666666 -0.4018169999999999
2551264243 0.27807166666666666 -0.40434
2552750122 0.2768566666666667 -0.4057943333333333
2554236001 0.27792733333333336 -0.40602933333333335
2555721880 0.27790133333333333 -0.40770666666666666
2557207759 0.27971133333333337 -0.40948199999999996
2558693638 0.27916633333333335 -0.41176666666666667
2560179517 0.27613933333333335 -0.41273733333333334
2561665396 0.2759773333333333 -0.4142063333333333
2563151275 0.278796 -0.41249633333333335
2564637154 0.27903966666666663 -0.41506899999999997
2566123033 0.2795086666666667 -0.41439733333333334
2567608912 0.27740533333333334 -0.415356
2569094791 0.2781223333333333 -0.414691
2570580670 0.275312 -0.4165573333333334
2572066549 0.27427866666666667 -0.4156956666666667
2573552428 0.27464400000000005 -0.41320333333333337
2575038307 0.27537033333333333 -0.4143653333333333
2576524186 0.290759 -0.426513
2578010065 0.27032833333333334 -0.41147399999999995
2579495944 0.2722516666666666 -0.4108293333333333
2580981823 0.271648 -0.41251433333333337
2582467702 0.2759273333333333 -0.41094766666666666
2583953581 0.275495 -0.41149600000000003
2585439460 0.2751983333333334 -0.41241733333333336
2586925339 0.276869 -0.4120893333333333
2588411218 0.27608333333333335 -0.410963
2589897097 0.275485 -0.4118983333333333
2591382976 0.27724333333333334 -0.40777599999999997
2592868855 0.277328 -0.4099603333333333
2594354734 0.27832566666666664 -0.40775866666666666
2595840613 0.27740500000000007 -0.4093606666666667
2597326492 0.2781766666666667 -0.40814833333333334
2598812371 0.2746443333333333 -0.40609199999999995
2600298250 0.27369166666666667 -0.4054473333333333
2601784129 0.27355666666666667 -0.40415133333333336
2603270008 0.2765843333333333 -0.400607
2604755887 0.268913 -0.4002286666666666
2606241766 0.272335 -0.3979190000000001
2607727645 0.2678333333333333 -0.3960793333333334
2609213524 0.2689783333333333 -0.39180300000000007
2610699403 0.2660286666666667 -0.39262100000000005
2612185282 0.26950199999999996 -0.391019
2613671161 0.26956566666666665 -0.39421866666666666
2615157040 0.2709066666666667 -0.39839866666666673
2616642919 0.26852 -0.39755233333333334
2618128798 0.26865833333333333 -0.39796733333333334
2619614677 0.26944833333333335 -0.399926
2621100556 0.27343399999999995 -0.3995896666666667
2622586435 0.2690143333333333 -0.39774233333333336
2624072314 0.2721706666666666 -0.3996026666666667
2625558193 0.27097533333333335 -0.396808
2627044072 0.2717696666666667 -0.3996746666666667
2628529951 0.2711973333333333 -0.3997996666666667
2630015830 0.27127433333333334 -0.399847
2631501709 0.2689643333333333 -0.398253
2632987588 0.271341 -0.400904
2634473467 0.2810003333333333 -0.3988753333333334
2635959346 0.27230966666666667 -0.39807733333333334
2637445225 0.269806 -0.39197466666666664
2638931104 0.26788866666666666 -0.39487033333333327
2640416983 0.26631833333333327 -0.39166100000000004
2641902862 0.2662933333333333 -0.3971806666666666
2643388741 0.2669843333333333 -0.39832133333333336
2644874620 0.26705766666666664 -0.400391
2646360499 0.26920666666666665 -0.40252499999999997
2647846378 0.26949533333333336 -0.4044826666666667
2649332257 0.2733593333333333 -0.40239766666666665
2650818136 0.27135333333333334 -0.40492766666666674
2652304015 0.26717699999999994 -0.4039823333333333
2653789894 0.26858699999999996 -0.40482799999999997
2655275773 0.26984433333333335 -0.40646133333333334
2656761652 0.2688633333333333 -0.40435233333333337
2658247531 0.26693533333333336 -0.40662899999999996
2659733410 0.26793100000000003 -0.40526
2661219289 0.269647 -0.40512
2662705168 0.267379 -0.40335133333333334
2664191047 0.27062533333333333 -0.4081616666666667
2665676926 0.26582966666666663 -0.40357766666666667
2667162805 0.2636463333333333 -0.4046086666666666
2668648684 0.2660633333333333 -0.403068
2670134563 0.2633243333333333 -0.40431866666666666
2671620442 0.26584766666666665 -0.4049503333333333
2673106321 0.25934866666666667 -0.4023123333333333
2674592200 0.26656466666666667 -0.40647833333333333
2676078079 0.269874 -0.40757166666666667
2677563958 0.26820133333333335 -0.40820999999999996
2679049837 0.2702086666666667 -0.406191
2680535716 0.2700133333333333 -0.408151
2682021595 0.2751676666666667 -0.40476433333333334
2683507474 0.27049833333333334 -0.40783600000000003
2684993353 0.272638 -0.40602333333333335
2686479232 0.27170866666666665 -0.40619033333333326
2687965111 0.2703336666666667 -0.40722499999999995
2689450990 0.2733063333333334 -0.40420866666666666
2690936869 0.2651676666666667 -0.401974
2692422748 0.27380133333333334 -0.4015516666666667
2693908627 0.26727300000000004 -0.39873966666666666
2695394506 0.272765 -0.39788533333333337
2696880385 0.26305033333333333 -0.39855866666666667
2698366264 0.26884933333333333 -0.3971906666666667
2699852143 0.26034433333333334 -0.39261966666666664
2701338022 0.262132 -0.39644933333333326
2702823901 0.263827 -0.3997296666666667
2704309780 0.26398366666666667 -0.39754266666666666
2705795659 0.27540800000000004 -0.39720666666666665
2707281538 0.266267 -0.4003653333333333
2708767417 0.27230099999999996 -0.40061133333333326
2710253296 0.2686753333333333 -0.4013196666666667
2711739175 0.273115 -0.40070500000000003
2713225054 0.274739 -0.39974266666666675
2714710933 0.27830066666666664 -0.399184
2716196812 0.279538 -0.4000506666666667
2717682691 0.28059133333333336 -0.3953533333333333
2719168570 0.2585113333333333 -0.35987300000000005
2720654449 0.2802206666666667 -0.396679
2722140328 0.2744606666666667 -0.39488033333333333
2723626207 0.27641200000000005 -0.3944553333333333
2725112086 0.27484366666666665 -0.3900333333333333
2726597965 0.27380166666666667 -0.3904833333333333
2728083844 0.2728903333333333 -0.38703766666666667
2729569723 0.271843 -0.38640066666666667
2731055602 0.2689686666666667 -0.3871563333333334
2732541481 0.27157633333333336 -0.39154466666666665
2734027360 0.27148700000000003 -0.39323166666666665
2735513239 0.2673940000000001 -0.39347499999999996
2736999118 0.26918533333333333 -0.39480066666666663
2738484997 0.27054133333333336 -0.3969656666666667
2739970876 0.26708333333333334 -0.3998446666666666
2741456755 0.2740996666666667 -0.396309
2742942634 0.26744533333333337 -0.4005376666666667
2744428513 0.26853033333333337 -0.404106
2745914392 0.26649233333333333 -0.4041703333333333
2747400271 0.266234 -0.40500766666666665
2748886150 0.26853366666666667 -0.40301699999999996
2750372029 0.26496733333333333 -0.4056186666666666
2751857908 0.26560066666666665 -0.4053313333333333
2753343787 0.26411366666666664 -0.40694499999999995
2754829666 0.26125333333333334 -0.40803733333333336
2756315545 0.26080166666666665 -0.40655066666666667
2757801424 0.26730066666666663 -0.40262133333333333
2759287303 0.261509 -0.40359866666666666
2760773182 0.26059699999999997 -0.40420799999999996
2762259061 0.26049666666666665 -0.403688
2763744940 0.2578146666666667 -0.4112643333333333
2765230819 0.26794266666666666 -0.40437833333333334
2766716698 0.268096 -0.41071166666666664
2768202577 0.2671806666666667 -0.40846333333333334
2769688456 0.2675323333333333 -0.41124066666666664
2771174335 0.26960466666666666 -0.409189
2772660214 0.2673563333333333 -0.41089200000000003
2774146093 0.28728366666666666 -0.4067716666666667
2775631972 0.2754353333333333 -0.40686433333333333
2777117851 0.27525299999999997 -0.4057403333333333
2778603730 0.271774 -0.40697266666666665
2780089609 0.274368 -0.405828
2781575488 0.27167233333333335 -0.40418533333333334
2783061367 0.2722626666666667 -0.402886
2784547246 0.2683566666666667 -0.403859
2786033125 0.27054300000000003 -0.40063333333333334
2787519004 0.27178399999999997 -0.3963813333333333
2789004883 0.26671633333333333 -0.396284
2790490762 0.26673300000000005 -0.39398466666666665
2791976641 0.26620333333333335 -0.39712833333333336
2793462520 0.2683583333333333 -0.39805
2794948399 0.2657260000000001 -0.40136866666666665
2796434278 0.269959 -0.40135866666666664
2797920157 0.27183666666666667 -0.4015553333333333
2799406036 0.27120733333333336 -0.40282666666666667
2800891915 0.27388066666666666 -0.401005
2802377794 0.26847333333333334 -0.40494233333333335
2803863673 0.26980133333333334 -0.404053
2805349552 0.271876 -0.405427
2806835431 0.274607 -0.40174533333333334
2808321310 0.26726466666666665 -0.40292700000000004
2809807189 0.269051 -0.404088
2811293068 0.266869 -0.40203066666666665
2812778947 0.26845366666666665 -0.40057099999999995
2814264826 0.264593 -0.3986893333333333
2815750705 0.2665576666666667 -0.394212
2817236584 0.26371066666666665 -0.397983
2818722463 0.2615756666666667 -0.4000803333333333
2820208342 0.2614553333333333 -0.39397566666666667
2821694221 0.2577513333333333 -0.40398399999999995
2823180100 0.26319566666666666 -0.398158
2824665979 0.26392533333333335 -0.40259466666666666
2826151858 0.26633833333333334 -0.40138466666666667
2827637737 0.263234 -0.40120400000000006
2829123616 0.26269433333333336 -0.4031716666666667
2830609495 0.26845433333333335 -0.40242433333333333
2832095374 0.26491533333333334 -0.406115
2833581253 0.2721133333333334 -0.40335866666666664
2835067132 0.26515833333333333 -0.40340466666666663
2836553011 0.26489 -0.39827733333333337
2838038890 0.269423 -0.399777
2839524769 0.26382833333333333 -0.4008506666666667
2841010648 0.26584199999999997 -0.39498066666666665
2842496527 0.26290466666666673 -0.39619266666666664
2843982406 0.263499 -0.38545266666666667
2845468285 0.2595883333333333 -0.39146366666666665
2846954164 0.2598363333333333 -0.38538999999999995
2848440043 0.2551933333333333 -0.388787
2849925922 0.2572763333333334 -0.38365800000000005
2851411801 0.2565206666666667 -0.383394
2852897680 0.255717 -0.38536166666666666
2854383559 0.258303 -0.3866323333333333
2855869438 0.25911333333333336 -0.3842733333333333
2857355317 0.260953 -0.3914583333333333
2858841196 0.260541 -0.391592
2860327075 0.261144 -0.39207433333333325
2861812954 0.26252533333333333 -0.3948453333333333
2863298833 0.26388033333333333 -0.390067
2864784712 0.260619 -0.390061
2866270591 0.26153133333333334 -0.3873163333333333
2867756470 0.24220666666666668 -0.395902
2869242349 0.2728276666666667 -0.3724806666666667
2870728228 0.26467 -0.3893046666666667
2872214107 0.261928 -0.38655033333333333
2873699986 0.260888 -0.38480033333333336
2875185865 0.261295 -0.38605533333333336
2876671744 0.261359 -0.3819056666666667
2878157623 0.263066 -0.38041566666666665
2879643502 0.2593463333333333 -0.3784156666666667
2881129381 0.25921533333333335 -0.3813853333333333
2882615260 0.261454 -0.381944
2884101139 0.26448333333333335 -0.38424433333333335
2885587018 0.263608 -0.3885073333333333
2887072897 0.26176166666666667 -0.38537
2888558776 0.260812 -0.38529266666666667
2890044655 0.2659036666666667 -0.3881383333333333
2891530534 0.26721100000000003 -0.3863833333333333
2893016413 0.26036033333333336 -0.3872663333333333
2894502292 0.26246966666666666 -0.3827413333333333
2895988171 0.2658723333333333 -0.388631
2897474050 0.262154 -0.385881
2898959929 0.262902 -0.3859106666666667
2900445808 0.2663626666666667 -0.38342499999999996
2901931687 0.2626483333333333 -0.38397566666666666
2903417566 0.2652873333333333 -0.3837913333333334
2904903445 0.2603786666666667 -0.384426
2906389324 0.26085833333333336 -0.38230566666666665
2907875203 0.26012299999999994 -0.38202700000000006
2909361082 0.25706033333333334 -0.3784066666666667
2910846961 0.26074933333333333 -0.381286
2912332840 0.25920299999999996 -0.38160766666666673
2913818719 0.2584 -0.38410866666666665
2915304598 0.259245 -0.38543733333333335
2916790477 0.257252 -0.3860266666666667
2918276356 0.2600253333333334 -0.3868583333333333
2919762235 0.26022633333333334 -0.3874413333333333
2921248114 0.27403700000000003 -0.38751266666666667
2922733993 0.26105133333333336 -0.3884813333333333
2924219872 0.258252 -0.38764366666666666
2925705751 0.2541523333333333 -0.38942666666666664
2927191630 0.25549266666666665 -0.389801
2928677509 0.25852500000000006 -0.387519
2930163388 0.256097 -0.39027966666666664
2931649267 0.25677866666666666 -0.38848900000000003
2933135146 0.25654733333333335 -0.38618099999999994
2934621025 0.25153 -0.3876313333333334
2936106904 0.250335 -0.3875653333333333
2937592783 0.24914933333333333 -0.3855866666666666
2939078662 0.247094 -0.384705
2940564541 0.24846366666666664 -0.38423199999999996
2942050420 0.24685633333333334 -0.386771
2943536299 0.24988533333333332 -0.38650566666666664
2945022178 0.252114 -0.38714033333333336
2946508057 0.25043533333333334 -0.38880933333333334
2947993936 0.2525306666666666 -0.389337
2949479815 0.25203666666666663 -0.3895126666666666
2950965694 0.25353866666666663 -0.39047133333333334
2952451573 0.2515326666666667 -0.39027866666666666
2953937452 0.25437400000000004 -0.38973933333333327
2955423331 0.25252433333333335 -0.38988
2956909210 0.25422066666666665 -0.38899100000000003
2958395089 0.2533126666666667 -0.3883940000000001
2959880968 0.25513233333333335 -0.3856363333333333
2961366847 0.252959 -0.384876
2962852726 0.25381200000000004 -0.38363433333333335
2964338605 0.2512486666666667 -0.3832526666666667
2965824484 0.25280833333333336 -0.3810503333333333
2967310363 0.24955000000000002 -0.38068066666666667
2968796242 0.25023266666666666 -0.378372
2970282121 0.24949233333333334 -0.376298
2971768000 0.24842 -0.37890566666666664
2973253879 0.249807 -0.37903966666666666
2974739758 0.24914266666666665 -0.3831626666666666
2976225637 0.25253 -0.382447
2977711516 0.25491266666666673 -0.3802013333333334
2979197395 0.25152833333333335 -0.38131466666666664
2980683274 0.25367433333333334 -0.3806556666666667
2982169153 0.252527 -0.379753
2983655032 0.252442 -0.3833116666666667
2985140911 0.2525056666666667 -0.3827506666666667
2986626790 0.2536483333333333 -0.38404299999999997
2988112669 0.25233733333333336 -0.3808013333333333
2989598548 0.25213633333333335 -0.38120933333333334
2991084427 0.2519436666666666 -0.37676800000000005
2992570306 0.2537336666666667 -0.3782556666666667
2994056185 0.2540496666666667 -0.3751233333333333
2995542064 0.251643 -0.37172999999999995
2997027943 0.25178933333333336 -0.37126966666666666
2998513822 0.2525256666666667 -0.37069966666666665
2999999701 0.2505 -0.36808599999999997
