# HZ S RI R 50
10000 0.9950749999999999 -0.18349233333333334
1495879 0.871806 1.3731943333333334
2981758 0.576645 0.692847
4467637 0.581885 0.327422
5953516 0.6511596666666667 0.13767
7439395 0.7435783333333333 0.012452
8925274 1.0573783333333333 -0.06173399999999999
10411153 1.0970003333333334 0.03681266666666667
11897032 1.0859013333333334 0.1683773333333333
13382911 1.0189766666666664 0.2920353333333333
14868790 0.9163326666666666 0.38046633333333335
16354669 0.8044206666666667 0.42799633333333337
17840548 0.6963803333333334 0.4374883333333333
19326427 0.6100366666666667 0.43638333333333335
20812306 0.5363756666666667 0.41844100000000006
22298185 0.47677299999999995 0.39433633333333334
23784064 0.4292023333333333 0.368705
25269943 0.39019766666666666 0.342176
26755822 0.35840200000000005 0.31728166666666663
28241701 0.3324303333333333 0.29358866666666666
29727580 0.31089966666666663 0.27159333333333335
31213459 0.32089833333333334 0.2565826666666666
32699338 0.33761233333333335 0.24224433333333337
34185217 0.35307533333333335 0.22900733333333334
35671096 0.36832266666666663 0.21280333333333334
37156975 0.38349799999999995 0.19400366666666669
38642854 0.39774400000000004 0.17758533333333335
40128733 0.41204 0.15469333333333335
41614612 0.42458999999999997 0.14326166666666665
43100491 0.43823433333333334 0.12125666666666667
44586370 0.4515826666666667 0.103138
46072249 0.4653433333333334 0.07962733333333333
47558128 0.480161 0.06309466666666667
49044007 0.4962306666666667 0.045984666666666674
50529886 0.5153763333333333 0.032045333333333335
52015765 0.5372706666666667 0.0024713333333333336
53501644 0.5661003333333333 -0.015825333333333334
54987523 0.6040993333333333 -0.04035333333333333
56473402 0.6572433333333333 -0.07736933333333333
57959281 0.7454103333333334 -0.09185433333333333
59445160 0.9029786666666667 -0.06894966666666667
60931039 0.9976283333333335 -0.037053333333333334
62416918 0.9999956666666666 -0.045547000000000004
63902797 1.0041263333333335 -0.055239
65388676 1.006098 -0.063841
66874555 1.008917 -0.059082
68360434 1.0043 -0.14397266666666667
69846313 1.0137533333333335 -0.03657833333333333
71332192 1.014486 -0.031359000000000005
72818071 1.0134176666666668 -0.07493266666666666
74303950 1.014795 -0.06647666666666667
75789829 1.0161816666666665 0.0012116666666666667
77275708 1.0155413333333332 -0.007860333333333332
78761587 1.0146096666666666 -0.0009576666666666666
80247466 1.007712 -0.11802900000000001
81733345 1.0106060000000001 -0.069394
83219224 1.0077866666666666 -0.08011333333333333
84705103 1.0029833333333333 -0.10482766666666667
86190982 1.0032783333333333 0.019962666666666667
87676861 0.9969966666666666 -0.09681933333333333
89162740 0.9945796666666666 -0.07115600000000001
90648619 0.9928966666666666 -0.08958833333333333
92134498 0.9955986666666666 -0.08672566666666666
93620377 1.000841 -0.05564733333333333
95106256 1.00146 -0.08206266666666666
96592135 1.003922 -0.08103066666666668
98078014 1.0062136666666666 -0.07659133333333333
99563893 1.0079933333333333 -0.07257133333333333
101049772 1.0102659999999999 -0.086042
102535651 1.0082426666666666 -0.07492599999999999
104021530 1.0093126666666665 -0.081799
105507409 1.0095356666666666 -0.08811766666666666
106993288 1.0086216666666667 -0.088756
108479167 1.0074346666666667 -0.08979
109965046 1.006147 -0.08979599999999999
111450925 1.00437 -0.09686733333333335
112936804 1.0024376666666668 -0.09088733333333333
114422683 0.9993463333333334 -0.09130633333333332
115908562 0.9959210000000001 -0.091375
117394441 0.9927406666666667 -0.09279833333333333
118880320 0.9897483333333333 -0.09260533333333332
120366199 0.9867193333333333 -0.09320333333333335
121852078 0.9906203333333333 -0.09535066666666665
123337957 0.9942416666666666 -0.09738733333333334
124823836 0.998563 -0.098617
126309715 1.0003933333333332 -0.100215
127795594 1.004342 -0.101472
129281473 1.0076423333333333 -0.102678
130767352 1.0088393333333332 -0.10390699999999999
132253231 1.0105196666666665 -0.10275066666666666
133739110 1.0123336666666667 -0.10465899999999999
135224989 0.9967953333333334 -0.11577566666666667
136710868 0.9971486666666666 -0.116255
138196747 0.9968246666666666 -0.1171
139682626 0.9960363333333334 -0.11733666666666666
141168505 0.9957163333333333 -0.11659766666666667
142654384 0.9928183333333332 -0.117933
144140263 0.9922716666666668 -0.11705399999999999
145626142 0.9893110000000002 -0.11745333333333334
147112021 0.986417 -0.118344
148597900 0.9834143333333333 -0.11770599999999999
150083779 0.9807396666666667 -0.11789033333333332
151569658 0.9829366666666667 -0.11952266666666667
153055537 0.9863163333333334 -0.12202033333333334
154541416 0.988501 -0.12277033333333333
156027295 0.9917326666666667 -0.12382133333333334
157513174 0.9936563333333334 -0.12496800000000001
158999053 0.9952096666666668 -0.12629166666666666
160484932 0.9950920000000001 -0.12702866666666665
161970811 0.9956356666666668 -0.12785
163456690 0.996975 -0.128157
164942569 0.9960806666666667 -0.12945466666666666
166428448 0.9954776666666666 -0.130352
167914327 0.9945456666666667 -0.130822
169400206 0.9935613333333334 -0.13197433333333333
170886085 0.9918333333333332 -0.13249366666666665
172371964 0.9897993333333334 -0.13280333333333333
173857843 0.9870033333333333 -0.1335643333333333
175343722 0.9840286666666667 -0.13500133333333333
176829601 0.9810150000000001 -0.13579733333333333
178315480 0.9776836666666666 -0.136559
179801359 0.9724186666666667 -0.13758233333333333
181287238 0.9761686666666667 -0.140561
182773117 0.979218 -0.14139633333333335
184258996 0.9815683333333333 -0.14210566666666666
185744875 0.984031 -0.14351133333333332
187230754 0.9857429999999999 -0.144592
188716633 0.9874490000000001 -0.14542733333333333
190202512 0.9883820000000001 -0.146021
191688391 0.9894513333333333 -0.14761833333333332
193174270 0.9899196666666666 -0.14884366666666668
194660149 0.9894966666666667 -0.14885766666666667
196146028 0.989195 -0.14918399999999998
197631907 0.9887983333333333 -0.15060966666666667
199117786 0.9865576666666666 -0.15149266666666666
200603665 0.984983 -0.15243566666666666
202089544 0.9826830000000001 -0.15366266666666664
203575423 0.980382 -0.155231
205061302 0.9771139999999999 -0.15558133333333332
206547181 0.9735153333333333 -0.15669666666666668
208033060 0.9703076666666667 -0.15751
209518939 0.9653200000000001 -0.15915766666666667
211004818 0.9669273333333334 -0.16142933333333334
212490697 0.9707370000000001 -0.16155333333333333
213976576 0.9733036666666667 -0.16323200000000002
215462455 0.9759030000000001 -0.16466166666666665
216948334 0.9782503333333333 -0.16628366666666666
218434213 0.9798413333333333 -0.167046
219920092 0.9815293333333334 -0.16779566666666668
221405971 0.982237 -0.168242
222891850 0.982511 -0.16947566666666666
224377729 0.9819133333333333 -0.16977266666666666
225863608 0.9817383333333334 -0.17030800000000001
227349487 0.9809906666666667 -0.17222066666666666
228835366 0.978993 -0.17230033333333336
230321245 0.978125 -0.173434
231807124 1.0050613333333334 -0.14452966666666667
233293003 0.971905 -0.17495633333333335
234778882 0.9692516666666666 -0.175723
236264761 0.9656496666666667 -0.17698099999999997
237750640 0.960737 -0.17869166666666667
239236519 0.9564303333333334 -0.179995
240722398 0.9555626666666667 -0.181392
242208277 0.9604736666666667 -0.182781
243694156 0.9632096666666667 -0.1847466666666667
245180035 0.965861 -0.18525466666666668
246665914 0.9678146666666666 -0.18691
248151793 0.9699223333333333 -0.18835033333333331
249637672 0.9716043333333332 -0.18858266666666668
251123551 0.9730970000000001 -0.1892653333333333
252609430 0.9731366666666666 -0.19049766666666668
254095309 0.9735526666666666 -0.19148266666666666
255581188 0.9725816666666667 -0.191943
257067067 0.971739 -0.19267733333333334
258552946 0.9702160000000001 -0.19237333333333337
260038825 0.9681013333333334 -0.19421
261524704 0.9667236666666668 -0.1946933333333333
263010583 0.962851 -0.195388
264496462 0.959089 -0.19535066666666667
265982341 0.9555950000000001 -0.19719866666666666
267468220 0.9507283333333333 -0.19751566666666664
268954099 0.9461806666666667 -0.19931000000000001
270439978 0.9439703333333332 -0.20034933333333335
271925857 0.947533 -0.20269933333333334
273411736 0.9510236666666666 -0.2046083333333333
274897615 0.954157 -0.20589933333333332
276383494 0.95727 -0.20750133333333332
277869373 0.9597186666666667 -0.20868233333333333
279355252 0.9608503333333335 -0.20917833333333335
280841131 0.962544 -0.210066
282327010 0.9618983333333334 -0.21148
283812889 0.9630883333333333 -0.21156866666666665
285298768 0.9627436666666668 -0.21300966666666665
286784647 0.9614206666666667 -0.21361133333333335
288270526 0.9603623333333333 -0.21428366666666665
289756405 0.9579743333333334 -0.21401466666666666
291242284 0.9555923333333333 -0.21461700000000003
292728163 0.9527413333333333 -0.21498466666666669
294214042 0.9492030000000001 -0.21575200000000003
295699921 0.945624 -0.21650099999999997
297185800 0.9405386666666667 -0.21691766666666665
298671679 0.9355586666666666 -0.21651733333333334
300157558 0.9319283333333334 -0.21854566666666667
301643437 0.9352226666666666 -0.22088133333333335
303129316 0.9386843333333333 -0.22339466666666666
304615195 0.9430253333333334 -0.22499800000000003
306101074 0.9453680000000001 -0.22687900000000003
307586953 0.9471376666666668 -0.22822233333333333
309072832 0.9489743333333333 -0.229123
310558711 0.9508696666666667 -0.23054933333333336
312044590 0.950992 -0.23059066666666664
313530469 0.9511306666666667 -0.23212833333333335
315016348 0.9515286666666666 -0.23235266666666665
316502227 0.9511106666666667 -0.23307200000000003
317988106 0.9494266666666666 -0.233313
319473985 0.9474710000000001 -0.23350533333333334
320959864 0.9507 -0.22350199999999998
322445743 0.9422176666666667 -0.23385033333333335
323931622 0.9396326666666667 -0.2325626666666667
325417501 0.935086 -0.23347099999999998
326903380 0.930961 -0.23358466666666666
328389259 0.9262636666666667 -0.234164
329875138 0.9200566666666666 -0.233778
331361017 0.9224223333333333 -0.237383
332846896 0.9266756666666667 -0.23933233333333334
334332775 0.9294543333333333 -0.24104066666666668
335818654 0.930996 -0.24423033333333333
337304533 0.9335906666666666 -0.245269
338790412 0.9337276666666666 -0.24651766666666666
340276291 0.9356143333333334 -0.247895
341762170 0.936727 -0.24881433333333333
343248049 0.937036 -0.2497393333333333
344733928 0.9361289999999999 -0.24994566666666665
346219807 0.9346070000000001 -0.25210266666666664
347705686 0.9333493333333333 -0.25163433333333335
349191565 0.9314356666666667 -0.25222066666666665
350677444 0.9291336666666666 -0.25151266666666666
352163323 0.9264456666666666 -0.25143066666666664
353649202 0.917965 -0.26151233333333335
355135081 0.9190056666666666 -0.252307
356620960 0.9152333333333335 -0.25221
358106839 0.9103846666666667 -0.25256100000000004
359592718 0.904276 -0.2510946666666667
361078597 0.90504 -0.25473866666666667
362564476 0.9081493333333333 -0.2572546666666667
364050355 0.911217 -0.25967066666666666
365536234 0.9143623333333334 -0.26148433333333326
367022113 0.9161976666666667 -0.26389633333333334
368507992 0.917116 -0.2648973333333333
369993871 0.9184743333333333 -0.2657346666666667
371479750 0.919511 -0.26715533333333336
372965629 0.9196763333333333 -0.26884733333333327
374451508 0.9201073333333333 -0.2689013333333333
375937387 0.9190226666666667 -0.268049
377423266 0.9182123333333334 -0.2688256666666667
378909145 0.9164810000000001 -0.2685133333333333
380395024 0.9145483333333333 -0.26899566666666663
381880903 0.9223509999999999 -0.24839966666666666
383366782 0.9094666666666665 -0.26898933333333336
384852661 0.905678 -0.26759133333333335
386338540 0.9016233333333333 -0.267168
387824419 0.8987023333333334 -0.26660333333333336
389310298 0.8928056666666667 -0.2670156666666667
390796177 0.892345 -0.26704433333333333
392282056 0.8949596666666667 -0.27133266666666667
393767935 0.8971516666666667 -0.2740606666666667
395253814 0.900238 -0.27591066666666664
396739693 0.9014726666666667 -0.27691
398225572 0.9030170000000001 -0.278631
399711451 0.9043959999999999 -0.27940133333333333
401197330 0.9046023333333334 -0.28004566666666664
402683209 0.9056723333333334 -0.282028
404169088 0.9046763333333333 -0.281693
405654967 0.9046626666666667 -0.2832943333333333
407140846 0.9035236666666666 -0.28285666666666665
408626725 0.9021363333333334 -0.28273966666666667
410112604 0.9003993333333332 -0.28267366666666666
411598483 0.895557 -0.28710166666666664
413084362 0.8955726666666667 -0.281871
414570241 0.8903083333333334 -0.2866693333333334
416056120 0.8879896666666666 -0.28214333333333336
417541999 0.8824946666666666 -0.28652833333333333
419027878 0.8797853333333334 -0.27948666666666666
420513757 0.8755479999999999 -0.2855183333333333
421999636 0.879987 -0.28307499999999997
423485515 0.8804993333333333 -0.2907036666666667
424971394 0.8856443333333334 -0.28713833333333333
426457273 0.8842296666666667 -0.2940143333333333
427943152 0.8884303333333333 -0.29017333333333334
429429031 0.886721 -0.29694133333333333
430914910 0.8896586666666666 -0.293372
432400789 0.8881506666666668 -0.299809
433886668 0.8900633333333333 -0.29475366666666664
435372547 0.8872983333333333 -0.30035733333333337
436858426 0.8891236666666668 -0.2951316666666667
438344305 0.8853483333333333 -0.30201833333333333
439830184 0.885374 -0.29538533333333333
441316063 0.8808553333333333 -0.301251
442801942 0.881239 -0.29422400000000004
444287821 0.8753423333333333 -0.30047999999999997
445773700 0.8741186666666666 -0.2944403333333333
447259579 0.8677469999999999 -0.29924100000000003
448745458 0.8655913333333333 -0.29531100000000005
450231337 0.8632366666666665 -0.29346666666666665
451717216 0.8667316666666668 -0.29622
453203095 0.8681086666666666 -0.297245
454688974 0.8700943333333333 -0.30000166666666667
456174853 0.8720883333333332 -0.3018806666666667
457660732 0.8729593333333333 -0.3027433333333333
459146611 0.8751433333333334 -0.30393833333333337
460632490 0.8738 -0.30466233333333337
462118369 0.8754146666666668 -0.30625966666666665
463604248 0.875719 -0.30606633333333333
465090127 0.8750060000000001 -0.3063693333333333
466576006 0.874142 -0.3066866666666667
468061885 0.8730543333333333 -0.306462
469547764 0.9057746666666667 -0.2906533333333333
471033643 0.8687513333333333 -0.30596633333333334
472519522 0.8667153333333334 -0.305632
474005401 0.863563 -0.30614899999999995
475491280 0.8604243333333333 -0.3046916666666667
476977159 0.856672 -0.30335766666666664
478463038 0.852469 -0.3034276666666667
479948917 0.847929 -0.30355133333333334
481434796 0.8503346666666666 -0.3050623333333333
482920675 0.8527326666666667 -0.3069756666666667
484406554 0.8549696666666667 -0.3090906666666667
485892433 0.8577713333333333 -0.3099273333333334
487378312 0.8583696666666668 -0.3123513333333333
488864191 0.8609743333333334 -0.31295100000000003
490350070 0.860632 -0.313879
491835949 0.8614776666666667 -0.3148553333333333
493321828 0.8612323333333333 -0.3151943333333333
494807707 0.8608133333333333 -0.31476233333333337
496293586 0.8601326666666665 -0.31603000000000003
497779465 0.8591756666666667 -0.314912
499265344 0.8572563333333333 -0.31632266666666664
500751223 0.8553313333333333 -0.3145843333333333
502237102 0.8538009999999999 -0.31242366666666666
503722981 0.8502813333333332 -0.31326666666666664
505208860 0.8477943333333333 -0.314369
506694739 0.8439456666666668 -0.313793
508180618 0.8404506666666668 -0.31286600000000003
509666497 0.836112 -0.312178
511152376 0.836075 -0.3153726666666667
512638255 0.839477 -0.3167066666666667
514124134 0.841961 -0.3187736666666667
515610013 0.8429403333333333 -0.31999466666666665
517095892 0.8451533333333333 -0.32068566666666665
518581771 0.8467253333333332 -0.3222796666666667
520067650 0.846746 -0.32212899999999994
521553529 0.8483586666666666 -0.3237966666666667
523039408 0.8481916666666667 -0.324914
524525287 0.8476303333333334 -0.3233456666666667
526011166 0.8476956666666667 -0.3233236666666666
527497045 0.8457333333333333 -0.32523266666666667
528982924 0.8442406666666665 -0.32402800000000004
530468803 0.8424123333333333 -0.32476133333333335
531954682 0.8401916666666667 -0.323822
533440561 0.837562 -0.3227973333333333
534926440 0.8336886666666666 -0.32320766666666667
536412319 0.8304303333333333 -0.321731
537898198 0.8273913333333334 -0.321666
539384077 0.8216973333333334 -0.32143533333333335
540869956 0.8218903333333333 -0.32300900000000005
542355835 0.824722 -0.324392
543841714 0.825719 -0.32393200000000005
545327593 0.8286986666666666 -0.32498933333333335
546813472 0.829491 -0.3257353333333333
548299351 0.8306650000000001 -0.32684966666666665
549785230 0.8309906666666667 -0.32629600000000003
551271109 0.8309130000000001 -0.32655833333333334
552756988 0.8314673333333333 -0.32629933333333333
554242867 0.830959 -0.32479100000000005
555728746 0.8292003333333332 -0.32421333333333335
557214625 0.8284483333333332 -0.3250486666666667
558700504 0.8265493333333334 -0.324354
560186383 0.8231373333333334 -0.32287333333333335
561672262 0.8214900000000002 -0.321738
563158141 0.8179083333333335 -0.32027466666666665
564644020 0.814435 -0.31996933333333333
566129899 0.8098543333333333 -0.319533
567615778 0.8059470000000001 -0.3178376666666667
569101657 0.8003603333333333 -0.317071
570587536 0.7982683333333332 -0.317878
572073415 0.8009346666666667 -0.32110433333333327
573559294 0.8033976666666667 -0.323415
575045173 0.805123 -0.3268246666666667
576531052 0.8063750000000001 -0.3278533333333334
578016931 0.8087023333333333 -0.3294566666666667
579502810 0.8091096666666667 -0.33196433333333336
580988689 0.80988 -0.3345923333333333
582474568 0.8105563333333333 -0.33509733333333336
583960447 0.8099509999999999 -0.3361536666666667
585446326 0.8093633333333333 -0.33796766666666667
586932205 0.8092043333333333 -0.339254
588418084 0.8078566666666666 -0.3393566666666667
589903963 0.8063616666666666 -0.34086599999999995
591389842 0.804662 -0.33921399999999996
592875721 0.802816 -0.33984966666666666
594361600 0.7989956666666668 -0.34121300000000004
595847479 0.7962026666666667 -0.3402016666666667
597333358 0.793368 -0.3397676666666667
598819237 0.7896193333333333 -0.3406103333333333
600305116 0.7859723333333334 -0.341345
601790995 0.7890773333333333 -0.342436
603276874 0.7928313333333333 -0.344952
604762753 0.7945583333333333 -0.34681266666666666
606248632 0.7963213333333333 -0.348713
607734511 0.798213 -0.35120100000000004
609220390 0.798899 -0.35308300000000004
610706269 0.8006623333333334 -0.35292033333333334
612192148 0.801485 -0.35325300000000004
613678027 0.8015976666666668 -0.3544056666666667
615163906 0.801632 -0.35361366666666666
616649785 0.8004503333333334 -0.354377
618135664 0.7999096666666666 -0.35254800000000003
619621543 0.7975933333333334 -0.352173
621107422 0.7961793333333333 -0.35241999999999996
622593301 0.7925386666666667 -0.353396
624079180 0.791446 -0.3513863333333333
625565059 0.788138 -0.3502263333333333
627050938 0.7788526666666667 -0.3570816666666667
628536817 0.7796273333333333 -0.348398
630022696 0.7762003333333333 -0.34602200000000005
631508575 0.7789573333333332 -0.3488263333333333
632994454 0.7811983333333333 -0.35148766666666664
634480333 0.7832626666666668 -0.354849
635966212 0.7855566666666666 -0.35627566666666666
637452091 0.7878776666666667 -0.35747966666666664
638937970 0.786561 -0.359026
640423849 0.7892073333333333 -0.359666
641909728 0.7904543333333334 -0.35944833333333337
643395607 0.7893213333333332 -0.35982866666666663
644881486 0.789964 -0.36081199999999997
646367365 0.788472 -0.36054933333333333
647853244 0.7883623333333333 -0.36025633333333335
649339123 0.7861213333333333 -0.35919799999999996
650825002 0.7854233333333333 -0.35808766666666664
652310881 0.7834106666666667 -0.3566323333333334
653796760 0.7812489999999999 -0.35708
655282639 0.777195 -0.35640333333333335
656768518 0.7741303333333333 -0.35489
658254397 0.7707130000000001 -0.35198599999999997
659740276 0.766203 -0.3520653333333333
661226155 0.7669800000000001 -0.35255866666666663
662712034 0.7696406666666666 -0.354852
664197913 0.7705403333333333 -0.3565993333333333
665683792 0.7733843333333333 -0.358279
667169671 0.775346 -0.35896733333333336
668655550 0.7757626666666666 -0.36075799999999997
670141429 0.7773043333333334 -0.36082433333333336
671627308 0.7789633333333333 -0.36186233333333334
673113187 0.7776043333333332 -0.360554
674599066 0.7783646666666667 -0.358477
676084945 0.7775936666666666 -0.36059100000000005
677570824 0.7770716666666667 -0.35995
679056703 0.7745596666666666 -0.36023933333333336
680542582 0.7622996666666667 -0.3681473333333334
682028461 0.7705943333333334 -0.35651666666666665
683514340 0.768459 -0.35659033333333334
685000219 0.7639466666666667 -0.3536806666666667
686486098 0.7617276666666667 -0.3521013333333333
687971977 0.7578356666666667 -0.3509043333333333
689457856 0.7562726666666667 -0.3477146666666666
690943735 0.7532446666666667 -0.34999566666666665
692429614 0.7562596666666667 -0.352312
693915493 0.7565289999999999 -0.35546133333333335
695401372 0.7585850000000001 -0.356889
696887251 0.759999 -0.35995166666666667
698373130 0.760563 -0.360211
699859009 0.7602386666666666 -0.3621273333333333
701344888 0.7608199999999999 -0.36334833333333333
702830767 0.7608643333333333 -0.3623613333333333
704316646 0.7595866666666667 -0.36550433333333326
705802525 0.7595506666666667 -0.3640566666666667
707288404 0.7586156666666666 -0.3653956666666667
708774283 0.7573743333333334 -0.36553199999999997
710260162 0.754911 -0.36639399999999994
711746041 0.7538723333333334 -0.3645316666666667
713231920 0.750219 -0.36483299999999996
714717799 0.7489123333333333 -0.3635026666666667
716203678 0.7445796666666666 -0.362721
717689557 0.7416330000000001 -0.3628943333333334
719175436 0.7375059999999999 -0.36163233333333333
720661315 0.7361796666666667 -0.36330833333333334
722147194 0.7405900000000001 -0.3647673333333334
723633073 0.7397823333333333 -0.3674246666666667
725118952 0.741173 -0.368662
726604831 0.7432436666666667 -0.3697306666666667
728090710 0.7453759999999999 -0.37079966666666664
729576589 0.7436913333333334 -0.37250266666666665
731062468 0.745372 -0.373613
732548347 0.746668 -0.3730166666666667
734034226 0.7447046666666667 -0.37403499999999995
735520105 0.7457963333333333 -0.3735553333333333
737005984 0.7448566666666666 -0.372694
738491863 0.7437733333333334 -0.3729456666666667
739977742 0.742328 -0.371658
741463621 0.7410533333333333 -0.37199
742949500 0.7383353333333332 -0.3719143333333334
744435379 0.7360566666666667 -0.37057
745921258 0.7327493333333334 -0.37040366666666663
747407137 0.7308073333333334 -0.36711200000000005
748893016 0.7262396666666667 -0.36836833333333335
750378895 0.7246863333333332 -0.36839500000000003
751864774 0.726661 -0.36999333333333334
753350653 0.7302360000000001 -0.37259333333333333
754836532 0.7289833333333333 -0.37296099999999993
756322411 0.7312500000000001 -0.37433266666666665
757808290 0.7326826666666667 -0.3760413333333333
759294169 0.7315683333333333 -0.37746433333333335
760780048 0.7325736666666667 -0.37700766666666663
762265927 0.7327336666666667 -0.377243
763751806 0.7324463333333333 -0.3782123333333334
765237685 0.7309070000000001 -0.37823999999999997
766723564 0.7308876666666667 -0.379467
768209443 0.7296006666666667 -0.3773933333333333
769695322 0.7282203333333332 -0.37739866666666666
771181201 0.7250236666666666 -0.377557
772667080 0.724142 -0.37554399999999993
774152959 0.7217513333333333 -0.37451233333333334
775638838 0.738859 -0.36349733333333334
777124717 0.7151589999999999 -0.3738606666666667
778610596 0.71144 -0.37269233333333335
780096475 0.7080763333333334 -0.3710153333333334
781582354 0.7112023333333334 -0.37346066666666666
783068233 0.7128540000000001 -0.3753216666666666
784554112 0.7151166666666667 -0.376949
786039991 0.717365 -0.37801633333333334
787525870 0.7185549999999999 -0.37927233333333327
789011749 0.7203146666666668 -0.378895
790497628 0.7210993333333334 -0.37891400000000003
791983507 0.7204413333333334 -0.38106599999999996
793469386 0.7218996666666667 -0.38065599999999994
794955265 0.7214046666666668 -0.380482
796441144 0.7213473333333335 -0.3794343333333334
797927023 0.7271736666666667 -0.3731093333333333
799412902 0.718201 -0.3790263333333333
800898781 0.7174339999999999 -0.37746966666666665
802384660 0.7153689999999999 -0.37679866666666667
803870539 0.7124716666666666 -0.3776366666666667
805356418 0.7105526666666667 -0.37562999999999996
806842297 0.707218 -0.37371299999999996
808328176 0.7042596666666666 -0.37251666666666666
809814055 0.7003616666666668 -0.37086766666666665
811299934 0.7015399999999999 -0.37258166666666664
812785813 0.7037866666666667 -0.3752566666666666
814271692 0.7055803333333334 -0.3764443333333333
815757571 0.7061513333333332 -0.3784246666666667
817243450 0.707992 -0.37995599999999996
818729329 0.708452 -0.38251266666666667
820215208 0.7088406666666666 -0.38218766666666665
821701087 0.709282 -0.38423366666666664
823186966 0.7099393333333334 -0.384168
824672845 0.7087300000000001 -0.3845516666666666
826158724 0.7087853333333335 -0.38448666666666664
827644603 0.7083366666666667 -0.383072
829130482 0.7064383333333333 -0.38462833333333335
830616361 0.7061076666666667 -0.38320499999999996
832102240 0.7038416666666668 -0.382703
833588119 0.699555 -0.383305
835073998 0.6976973333333333 -0.38210533333333335
836559877 0.6957369999999999 -0.380139
838045756 0.6900043333333333 -0.38108633333333336
839531635 0.6874973333333333 -0.3791543333333333
841017514 0.6873323333333333 -0.38006233333333334
842503393 0.6880293333333333 -0.38366300000000003
843989272 0.6915926666666667 -0.38502733333333333
845475151 0.6931346666666668 -0.385817
846961030 0.6940646666666667 -0.3880093333333334
848446909 0.6959460000000001 -0.38921199999999995
849932788 0.697531 -0.389658
851418667 0.6978269999999999 -0.39008533333333334
852904546 0.6967563333333334 -0.389808
854390425 0.696973 -0.391378
855876304 0.696948 -0.3902483333333333
857362183 0.6963316666666666 -0.389867
858848062 0.6945433333333333 -0.3912706666666667
860333941 0.69236 -0.3886246666666667
861819820 0.690515 -0.39036033333333336
863305699 0.6892776666666668 -0.3872173333333333
864791578 0.6870636666666666 -0.38557166666666665
866277457 0.682575 -0.3850886666666667
867763336 0.6807956666666667 -0.38223999999999997
869249215 0.6759273333333334 -0.38116
870735094 0.6754519999999999 -0.38234166666666664
872220973 0.677591 -0.38552366666666665
873706852 0.6788623333333333 -0.38580666666666663
875192731 0.6812193333333334 -0.38777733333333336
876678610 0.6818503333333333 -0.3913413333333333
878164489 0.6842929999999999 -0.39170466666666665
879650368 0.6843733333333333 -0.3929336666666667
881136247 0.6841076666666667 -0.39430133333333334
882622126 0.6869010000000001 -0.3921776666666667
884108005 0.6840883333333334 -0.3935186666666666
885593884 0.6862240000000001 -0.39247366666666667
887079763 0.6856236666666667 -0.39204599999999995
888565642 0.6837013333333334 -0.39130333333333334
890051521 0.6832616666666667 -0.39147000000000004
891537400 0.6806743333333333 -0.39127566666666663
893023279 0.6783480000000001 -0.38946600000000003
894509158 0.6771756666666667 -0.3874646666666666
895995037 0.6740320000000001 -0.38756833333333335
897480916 0.671104 -0.3848026666666667
898966795 0.6678186666666667 -0.3822993333333333
900452674 0.663334 -0.3858346666666667
901938553 0.6669496666666667 -0.3861703333333333
903424432 0.668174 -0.38853966666666667
904910311 0.6691483333333333 -0.38945
906396190 0.6713943333333333 -0.39071933333333336
907882069 0.6715116666666666 -0.3915413333333333
909367948 0.6729923333333333 -0.39434199999999997
910853827 0.6744913333333334 -0.3933786666666667
912339706 0.6731980000000001 -0.3965803333333333
913825585 0.6732743333333334 -0.3964973333333333
915311464 0.6714433333333334 -0.39562733333333333
916797343 0.6714826666666666 -0.3936233333333334
918283222 0.6708703333333333 -0.3950066666666667
919769101 0.670315 -0.3934503333333333
921254980 0.6671833333333334 -0.3932193333333333
922740859 0.6648256666666666 -0.39228033333333334
924226738 0.6635136666666667 -0.3910353333333334
925712617 0.6612816666666667 -0.3893063333333333
927198496 0.6571889999999999 -0.39028
928684375 0.6575653333333332 -0.38417666666666667
930170254 0.6522923333333334 -0.3845633333333333
931656133 0.6530196666666667 -0.3866943333333333
933142012 0.6561483333333333 -0.3889496666666667
934627891 0.65739 -0.3916123333333333
936113770 0.6587073333333333 -0.392841
937599649 0.6606339999999999 -0.3934946666666666
939085528 0.6611456666666666 -0.39560799999999996
940571407 0.6611966666666667 -0.39579433333333336
942057286 0.661381 -0.3985353333333333
943543165 0.6634046666666666 -0.397384
945029044 0.6633266666666667 -0.39471000000000006
946514923 0.662815 -0.394142
948000802 0.6620940000000001 -0.393638
949486681 0.6618320000000001 -0.3939116666666667
950972560 0.6604403333333333 -0.39305366666666663
952458439 0.6589373333333334 -0.3913533333333334
953944318 0.6580133333333333 -0.38930766666666666
955430197 0.6553983333333333 -0.3885433333333334
956916076 0.6519123333333333 -0.3872226666666667
958401955 0.6503546666666667 -0.3841566666666667
959887834 0.6484540000000001 -0.382685
961373713 0.6479866666666666 -0.38488933333333336
962859592 0.6499303333333334 -0.38561400000000007
964345471 0.652019 -0.387864
965831350 0.650574 -0.39132199999999995
967317229 0.6517093333333334 -0.3928023333333333
968803108 0.6542386666666666 -0.3920806666666667
970288987 0.6542313333333334 -0.39245833333333335
971774866 0.6542726666666666 -0.3952523333333333
973260745 0.6583953333333333 -0.39068966666666666
974746624 0.654284 -0.39510333333333336
976232503 0.6544006666666666 -0.39289633333333335
977718382 0.653779 -0.3930453333333334
979204261 0.6522616666666666 -0.392633
980690140 0.6516836666666667 -0.3921736666666667
982176019 0.6503763333333333 -0.392542
983661898 0.647829 -0.3921016666666666
985147777 0.6454040000000001 -0.3901996666666667
986633656 0.6437893333333333 -0.3872596666666667
988119535 0.6399406666666666 -0.38841533333333333
989605414 0.6376513333333332 -0.386437
991091293 0.6384903333333333 -0.38555933333333336
992577172 0.6395513333333332 -0.38866033333333333
994063051 0.640034 -0.3913153333333333
995548930 0.640945 -0.3925363333333333
997034809 0.6419236666666667 -0.39348299999999997
998520688 0.6422720000000001 -0.39486400000000005
1000006567 0.6431643333333333 -0.39523966666666666
1001492446 0.6440263333333333 -0.39453699999999997
1002978325 0.644981 -0.3948243333333334
1004464204 0.6428583333333333 -0.39519600000000005
1005950083 0.6422953333333333 -0.3959976666666667
1007435962 0.6429330000000001 -0.39288666666666666
1008921841 0.6417223333333334 -0.3934476666666667
1010407720 0.6397759999999999 -0.393213
1011893599 0.63911 -0.3920586666666666
1013379478 0.637395 -0.38976666666666665
1014865357 0.633771 -0.390571
1016351236 0.6324033333333333 -0.38862766666666665
1017837115 0.6295176666666666 -0.3863303333333333
1019322994 0.6263723333333333 -0.38588233333333327
1020808873 0.6256983333333334 -0.3863123333333333
1022294752 0.6279703333333333 -0.3868503333333333
1023780631 0.6288973333333333 -0.389406
1025266510 0.6300783333333334 -0.39163333333333333
1026752389 0.6318846666666667 -0.39190533333333333
1028238268 0.631904 -0.39326
1029724147 0.631206 -0.3943296666666667
1031210026 0.633798 -0.3923973333333333
1032695905 0.6329343333333334 -0.39400133333333337
1034181784 0.632647 -0.39443900000000004
1035667663 0.6333393333333333 -0.3931733333333334
1037153542 0.632085 -0.39440733333333333
1038639421 0.630732 -0.393297
1040125300 0.630105 -0.3926616666666667
1041611179 0.6280573333333334 -0.39230066666666663
1043097058 0.6260093333333333 -0.392732
1044582937 0.6248736666666667 -0.3903003333333333
1046068816 0.6226563333333334 -0.38941766666666666
1047554695 0.6199473333333333 -0.3886756666666667
1049040574 0.6169143333333333 -0.38690399999999997
1050526453 0.6151136666666667 -0.38803800000000005
1052012332 0.6179389999999999 -0.38939299999999993
1053498211 0.6184233333333333 -0.39226333333333335
1054984090 0.6197803333333333 -0.39368033333333335
1056469969 0.621171 -0.39347366666666667
1057955848 0.621804 -0.3955916666666666
1059441727 0.6239456666666667 -0.395181
1060927606 0.6235866666666667 -0.3960586666666666
1062413485 0.6235553333333334 -0.3961423333333333
1063899364 0.6242956666666667 -0.3952846666666667
1065385243 0.6245233333333333 -0.3966003333333333
1066871122 0.623929 -0.396242
1068357001 0.5972136666666666 -0.37715633333333337
1069842880 0.6228136666666666 -0.3942783333333333
1071328759 0.6204076666666667 -0.395157
1072814638 0.619467 -0.392491
1074300517 0.6165336666666666 -0.39215400000000006
1075786396 0.614504 -0.3918753333333333
1077272275 0.6121686666666667 -0.38843099999999997
1078758154 0.6090366666666667 -0.3904716666666667
1080244033 0.609954 -0.3847933333333334
1081729912 0.6094346666666667 -0.3906183333333333
1083215791 0.6111983333333334 -0.391156
1084701670 0.6130463333333332 -0.39296333333333333
1086187549 0.614205 -0.3935163333333333
1087673428 0.6145053333333333 -0.3961593333333333
1089159307 0.6145486666666667 -0.3954143333333333
1090645186 0.6172263333333333 -0.3949403333333333
1092131065 0.6166263333333334 -0.3959186666666667
1093616944 0.6175506666666667 -0.3953233333333334
1095102823 0.617849 -0.3936596666666667
1096588702 0.616644 -0.39450199999999996
1098074581 0.616579 -0.3935073333333334
1099560460 0.61366 -0.3945403333333333
1101046339 0.6111779999999999 -0.39288533333333336
1102532218 0.6097766666666667 -0.39210266666666665
1104018097 0.6092333333333334 -0.38985566666666666
1105503976 0.6070539999999999 -0.3891286666666667
1106989855 0.6054826666666666 -0.38782866666666665
1108475734 0.6007250000000001 -0.38708933333333334
1109961613 0.599313 -0.38455766666666663
1111447492 0.6006336666666666 -0.3877473333333333
1112933371 0.6029916666666667 -0.38855233333333333
1114419250 0.6042253333333333 -0.389692
1115905129 0.605039 -0.39271133333333336
1117391008 0.6060470000000001 -0.39378399999999997
1118876887 0.6071863333333334 -0.39476
1120362766 0.606942 -0.3952876666666667
1121848645 0.6075740000000001 -0.39764400000000005
1123334524 0.6070373333333333 -0.395306
1124820403 0.6060703333333334 -0.3962596666666667
1126306282 0.6071953333333334 -0.3939783333333333
1127792161 0.6055259999999999 -0.3966206666666667
1129278040 0.6068836666666666 -0.3945076666666667
1130763919 0.606352 -0.3931503333333333
1132249798 0.6020753333333334 -0.39287733333333336
1133735677 0.5997163333333334 -0.39273566666666665
1135221556 0.5989536666666667 -0.39226733333333336
1136707435 0.5958676666666667 -0.39142366666666667
1138193314 0.5934516666666667 -0.38944700000000004
1139679193 0.5892306666666666 -0.3897713333333333
1141165072 0.5895090000000001 -0.3887483333333333
1142650951 0.5917263333333334 -0.39295066666666667
1144136830 0.5921783333333334 -0.39508499999999996
1145622709 0.5949876666666666 -0.3957563333333334
1147108588 0.596194 -0.3967776666666667
1148594467 0.5977333333333333 -0.395497
1150080346 0.5967673333333333 -0.39732166666666674
1151566225 0.5989683333333333 -0.39706033333333335
1153052104 0.5974656666666668 -0.3986326666666667
1154537983 0.5977363333333333 -0.3971453333333333
1156023862 0.5992890000000001 -0.398284
1157509741 0.5972216666666667 -0.3984016666666667
1158995620 0.5958073333333332 -0.3979816666666666
1160481499 0.594662 -0.39751699999999995
1161967378 0.591236 -0.3958696666666666
1163453257 0.591293 -0.39428033333333334
1164939136 0.5866586666666667 -0.3938113333333333
1166425015 0.5855296666666667 -0.391251
1167910894 0.5837976666666667 -0.390655
1169396773 0.5793596666666666 -0.3892663333333333
1170882652 0.5782553333333333 -0.39071966666666663
1172368531 0.5807789999999999 -0.392998
1173854410 0.5828696666666666 -0.39298866666666665
1175340289 0.5834996666666666 -0.394284
1176826168 0.5859036666666667 -0.397352
1178312047 0.5847703333333333 -0.39714366666666673
1179797926 0.5859303333333333 -0.397731
1181283805 0.5859223333333333 -0.3989816666666666
1182769684 0.585226 -0.39942199999999994
1184255563 0.584685 -0.3978626666666667
1185741442 0.5863376666666666 -0.3965573333333334
1187227321 0.5833326666666667 -0.3986866666666667
1188713200 0.58225 -0.39875
1190199079 0.5831926666666667 -0.39599233333333334
1191684958 0.5792886666666667 -0.39681733333333336
1193170837 0.578132 -0.39470299999999997
1194656716 0.574987 -0.39363
1196142595 0.5727506666666667 -0.39298666666666665
1197628474 0.568479 -0.3922586666666666
1199114353 0.5658263333333333 -0.390172
1200600232 0.5643773333333334 -0.390607
1202086111 0.5667486666666667 -0.39405833333333334
1203571990 0.566969 -0.3957903333333333
1205057869 0.5693063333333334 -0.3976576666666667
1206543748 0.5712306666666667 -0.3990293333333333
1208029627 0.571781 -0.40095966666666666
1209515506 0.5730339999999999 -0.40168933333333334
1211001385 0.5714126666666667 -0.404117
1212487264 0.5740763333333333 -0.4013233333333333
1213973143 0.5757983333333333 -0.401632
1215459022 0.575836 -0.4013273333333333
1216944901 0.5741373333333334 -0.4014763333333333
1218430780 0.5757553333333334 -0.400061
1219916659 0.572819 -0.4012093333333333
1221402538 0.5698233333333333 -0.40167966666666666
1222888417 0.5708736666666666 -0.39722433333333335
1224374296 0.5688316666666666 -0.396276
1225860175 0.567058 -0.3950846666666667
1227346054 0.5903120000000001 -0.41454499999999994
1228831933 0.562971 -0.38947100000000007
1230317812 0.559723 -0.390458
1231803691 0.560476 -0.3939443333333333
1233289570 0.560982 -0.39740966666666666
1234775449 0.5660503333333333 -0.394658
1236261328 0.5622413333333333 -0.4002426666666667
1237747207 0.567635 -0.39660066666666666
1239233086 0.5646226666666667 -0.4002003333333333
1240718965 0.5690686666666668 -0.396517
1242204844 0.5656786666666667 -0.40014700000000003
1243690723 0.5689953333333334 -0.39719166666666667
1245176602 0.5663693333333333 -0.39981333333333335
1246662481 0.5682976666666666 -0.395322
1248148360 0.5671046666666667 -0.3953176666666667
1249634239 0.5662826666666666 -0.39428733333333327
1251120118 0.5679096666666666 -0.388993
1252605997 0.562592 -0.392163
1254091876 0.5577759999999999 -0.39418966666666666
1255577755 0.5591206666666667 -0.38679099999999994
1257063634 0.555855 -0.38607600000000003
1258549513 0.5540753333333333 -0.38528199999999996
1260035392 0.5504623333333334 -0.3813356666666667
1261521271 0.5516776666666666 -0.3851373333333334
1263007150 0.5519986666666666 -0.38782066666666665
1264493029 0.5540630000000001 -0.3891806666666667
1265978908 0.5559059999999999 -0.387893
1267464787 0.553929 -0.39208533333333334
1268950666 0.555275 -0.3944586666666667
1270436545 0.556221 -0.39399466666666666
1271922424 0.5570083333333332 -0.39337833333333333
1273408303 0.555665 -0.39584633333333336
1274894182 0.555486 -0.39610433333333334
1276380061 0.5545209999999999 -0.39524166666666666
1277865940 0.5539426666666666 -0.39847000000000005
1279351819 0.5527796666666666 -0.3969546666666666
1280837698 0.5516433333333334 -0.39454800000000007
1282323577 0.5498773333333333 -0.39418966666666666
1283809456 0.5493983333333333 -0.392474
1285295335 0.5470883333333334 -0.3928216666666666
1286781214 0.543603 -0.3927246666666666
1288267093 0.54315 -0.38982466666666665
1289752972 0.5406033333333333 -0.38926299999999997
1291238851 0.5394373333333333 -0.39096966666666666
1292724730 0.543546 -0.39124733333333334
1294210609 0.544655 -0.39277199999999995
1295696488 0.544803 -0.394732
1297182367 0.5468543333333333 -0.39536599999999994
1298668246 0.547503 -0.39585099999999995
1300154125 0.5487123333333334 -0.3930116666666667
1301640004 0.5485993333333333 -0.39831633333333333
1303125883 0.5490716666666666 -0.3960063333333333
1304611762 0.5491386666666668 -0.39575733333333335
1306097641 0.5497536666666667 -0.39568633333333336
1307583520 0.5484716666666666 -0.3957293333333333
1309069399 0.548721 -0.39457666666666663
1310555278 0.5485669999999999 -0.39181133333333334
1312041157 0.5478946666666666 -0.39062
1313527036 0.5458226666666667 -0.3894246666666667
1315012915 0.5430716666666666 -0.390309
1316498794 0.542503 -0.38765133333333335
1317984673 0.5397876666666667 -0.385907
1319470552 0.5378663333333334 -0.382395
1320956431 0.538447 -0.3826666666666667
1322442310 0.5399813333333333 -0.38430366666666665
1323928189 0.5403443333333334 -0.3868476666666667
1325414068 0.5423589999999999 -0.38798333333333335
1326899947 0.5416033333333333 -0.3901563333333333
1328385826 0.5443476666666667 -0.38994233333333334
1329871705 0.545467 -0.3918173333333333
1331357584 0.5472030000000001 -0.39221599999999995
1332843463 0.543568 -0.39399466666666666
1334329342 0.5459533333333333 -0.3919226666666667
1335815221 0.5461176666666666 -0.39236200000000004
1337301100 0.54595 -0.39343600000000006
1338786979 0.5467356666666667 -0.3916796666666667
1340272858 0.5451353333333332 -0.39272066666666666
1341758737 0.5453736666666668 -0.390511
1343244616 0.5437986666666667 -0.38983733333333337
1344730495 0.5408056666666666 -0.39050633333333334
1346216374 0.5391916666666666 -0.3883123333333333
1347702253 0.537405 -0.38769500000000007
1349188132 0.5373313333333334 -0.38498066666666664
1350674011 0.5342806666666667 -0.3883563333333333
1352159890 0.5362643333333333 -0.38887133333333335
1353645769 0.537754 -0.38849566666666663
1355131648 0.5371663333333333 -0.3905246666666667
1356617527 0.534714 -0.3932626666666667
1358103406 0.5358696666666667 -0.39315833333333333
1359589285 0.536019 -0.39380333333333334
1361075164 0.5360783333333333 -0.39351800000000003
1362561043 0.5352113333333334 -0.39618966666666666
1364046922 0.5337033333333333 -0.395399
1365532801 0.5327033333333334 -0.3967943333333333
1367018680 0.533219 -0.39483766666666664
1368504559 0.5313106666666666 -0.395939
1369990438 0.5290806666666666 -0.39563366666666666
1371476317 0.528268 -0.393928
1372962196 0.5260199999999999 -0.39403499999999997
1374448075 0.524488 -0.3936753333333333
1375933954 0.5203686666666667 -0.39444966666666664
1377419833 0.51901 -0.39328433333333335
1378905712 0.5171633333333333 -0.39147366666666666
1380391591 0.5132643333333333 -0.3913203333333333
1381877470 0.5153126666666666 -0.3927036666666666
1383363349 0.5159143333333334 -0.39513399999999993
1384849228 0.5198546666666667 -0.394098
1386335107 0.5216323333333334 -0.39509766666666674
1387820986 0.5246796666666667 -0.3953676666666666
1389306865 0.5244036666666667 -0.39743
1390792744 0.525996 -0.3961416666666666
1392278623 0.52685 -0.3949296666666666
1393764502 0.5303403333333333 -0.39601200000000003
1395250381 0.5286876666666668 -0.39436066666666664
1396736260 0.5297816666666667 -0.3943653333333333
1398222139 0.5269703333333333 -0.3952893333333333
1399708018 0.5285986666666668 -0.3932263333333334
1401193897 0.525713 -0.39216066666666666
1402679776 0.52721 -0.39003866666666664
1404165655 0.5264246666666667 -0.388924
1405651534 0.5253546666666666 -0.38742099999999996
1407137413 0.5229706666666667 -0.386437
1408623292 0.5226056666666666 -0.3828843333333334
1410109171 0.5197919999999999 -0.38189066666666666
1411595050 0.5202893333333334 -0.384419
1413080929 0.52323 -0.38546966666666665
1414566808 0.526675 -0.38611900000000005
1416052687 0.5285613333333333 -0.389235
1417538566 0.5287836666666667 -0.3919413333333333
1419024445 0.5327683333333334 -0.38824466666666674
1420510324 0.5332676666666667 -0.3901583333333334
1421996203 0.5348206666666666 -0.391707
1423482082 0.5344720000000001 -0.3913063333333333
1424967961 0.537063 -0.387955
1426453840 0.5334329999999999 -0.3916813333333333
1427939719 0.5331349999999999 -0.3905536666666667
1429425598 0.530303 -0.38962399999999997
1430911477 0.534783 -0.3866856666666667
1432397356 0.5320363333333334 -0.3878456666666667
1433883235 0.5321963333333334 -0.38373100000000004
1435369114 0.531038 -0.383712
1436854993 0.5281296666666667 -0.38399199999999994
1438340872 0.527362 -0.3799706666666666
1439826751 0.525531 -0.3806543333333334
1441312630 0.523834 -0.38050566666666663
1442798509 0.5259573333333334 -0.3831686666666667
1444284388 0.5279483333333334 -0.38338300000000003
1445770267 0.5286946666666666 -0.386023
1447256146 0.5290326666666666 -0.38594033333333333
1448742025 0.5284946666666667 -0.38544266666666666
1450227904 0.5290940000000001 -0.38671533333333336
1451713783 0.5299983333333333 -0.38555500000000004
1453199662 0.53037 -0.384824
1454685541 0.527823 -0.387685
1456171420 0.52897 -0.38547299999999995
1457657299 0.5264153333333333 -0.385222
1459143178 0.5269733333333333 -0.38337099999999996
1460629057 0.5239403333333333 -0.38491766666666666
1462114936 0.5214483333333333 -0.3846313333333333
1463600815 0.5197603333333333 -0.38303966666666667
1465086694 0.5173436666666668 -0.3825076666666667
1466572573 0.5151826666666667 -0.381011
1468058452 0.51452 -0.37800800000000007
1469544331 0.5089206666666666 -0.3789306666666667
1471030210 0.5093683333333333 -0.380223
1472516089 0.512196 -0.3819353333333333
1474001968 0.5130593333333334 -0.3831923333333333
1475487847 0.515288 -0.38425966666666667
1476973726 0.516914 -0.3849363333333333
1478459605 0.5177836666666668 -0.3861683333333333
1479945484 0.5181396666666667 -0.38663033333333335
1481431363 0.5212376666666666 -0.38480133333333333
1482917242 0.5208590000000001 -0.3870643333333333
1484403121 0.5208366666666667 -0.38630800000000004
1485889000 0.5205866666666666 -0.3863386666666666
1487374879 0.5209443333333333 -0.384847
1488860758 0.5175599999999999 -0.3857573333333333
1490346637 0.5181436666666667 -0.3845773333333333
1491832516 0.5183696666666666 -0.38337599999999994
1493318395 0.5179283333333333 -0.381405
1494804274 0.5136993333333333 -0.38018166666666664
1496290153 0.5119496666666666 -0.38019000000000003
1497776032 0.5095613333333334 -0.378353
1499261911 0.5066996666666667 -0.3760776666666667
1500747790 0.5062916666666667 -0.377475
1502233669 0.5077546666666667 -0.38021366666666667
1503719548 0.509567 -0.380831
1505205427 0.5092833333333333 -0.3839706666666666
1506691306 0.5108276666666667 -0.384372
1508177185 0.5120996666666666 -0.3850346666666667
1509663064 0.5131143333333333 -0.38744533333333336
1511148943 0.511039 -0.3871023333333334
1512634822 0.513347 -0.38688933333333336
1514120701 0.5123193333333333 -0.387
1515606580 0.5129053333333332 -0.386341
1517092459 0.5118889999999999 -0.38744566666666663
1518578338 0.5121270000000001 -0.3861733333333333
1520064217 0.5082393333333334 -0.3897216666666667
1521550096 0.507934 -0.385191
1523035975 0.5066893333333334 -0.3835013333333334
1524521854 0.5051643333333332 -0.3821636666666666
1526007733 0.49862633333333334 -0.3830206666666667
1527493612 0.49841033333333334 -0.3823543333333333
1528979491 0.49357066666666666 -0.38239666666666666
1530465370 0.49213666666666667 -0.38219766666666666
1531951249 0.49417533333333336 -0.38400866666666666
1533437128 0.4957663333333333 -0.3844626666666667
1534923007 0.49779766666666664 -0.38657
1536408886 0.4995133333333333 -0.3879916666666667
1537894765 0.499632 -0.389211
1539380644 0.501781 -0.388396
1540866523 0.5020763333333333 -0.38890766666666665
1542352402 0.5011093333333333 -0.390152
1543838281 0.5012466666666667 -0.39010533333333336
1545324160 0.5018943333333333 -0.38979333333333327
1546810039 0.5010726666666666 -0.3870356666666667
1548295918 0.5010273333333334 -0.3864816666666666
1549781797 0.49660366666666667 -0.3875296666666667
1551267676 0.4976783333333333 -0.38347166666666666
1552753555 0.496779 -0.38490566666666665
1554239434 0.501625 -0.3758686666666667
1555725313 0.49411099999999997 -0.37882733333333335
1557211192 0.4916476666666667 -0.37767766666666663
1558697071 0.49064966666666665 -0.37308366666666665
1560182950 0.48713 -0.3729343333333333
1561668829 0.488794 -0.37545866666666666
1563154708 0.49008199999999996 -0.3785496666666666
1564640587 0.49146399999999996 -0.3798033333333333
1566126466 0.4932646666666667 -0.3808559999999999
1567612345 0.4938263333333333 -0.382408
1569098224 0.49429833333333334 -0.3849276666666667
1570584103 0.49524100000000004 -0.385353
1572069982 0.49352 -0.3862676666666667
1573555861 0.4981543333333333 -0.388017
1575041740 0.49502399999999996 -0.386229
1576527619 0.49589900000000003 -0.38454733333333335
1578013498 0.495897 -0.38362133333333337
1579499377 0.49507999999999996 -0.38268033333333334
1580985256 0.491755 -0.3850976666666666
1582471135 0.4918343333333333 -0.3819703333333333
1583957014 0.4905553333333333 -0.38247600000000004
1585442893 0.489522 -0.37984966666666664
1586928772 0.48746566666666663 -0.3785686666666666
1588414651 0.4849326666666667 -0.37802566666666665
1589900530 0.48179333333333335 -0.3759323333333333
1591386409 0.48348300000000005 -0.37677733333333335
1592872288 0.48496266666666665 -0.3804066666666666
1594358167 0.48503566666666664 -0.38271933333333336
1595844046 0.4875496666666666 -0.3825073333333333
1597329925 0.48761066666666664 -0.384528
1598815804 0.4889543333333333 -0.38450633333333334
1600301683 0.48834333333333335 -0.3854573333333333
1601787562 0.4896686666666667 -0.38523099999999993
1603273441 0.490014 -0.3868203333333333
1604759320 0.48829900000000004 -0.3874856666666666
1606245199 0.4889023333333333 -0.38588966666666663
1607731078 0.490296 -0.383931
1609216957 0.4902326666666667 -0.3835866666666667
1610702836 0.4881163333333333 -0.38309033333333337
1612188715 0.486424 -0.3839593333333333
1613674594 0.4854446666666667 -0.38070866666666664
1615160473 0.48451299999999997 -0.379229
1616646352 0.482426 -0.377324
1618132231 0.48067733333333335 -0.37603666666666663
1619618110 0.477833 -0.3729613333333333
1621103989 0.47737500000000005 -0.37619
1622589868 0.47870033333333334 -0.37828533333333336
1624075747 0.48071533333333333 -0.3770013333333333
1625561626 0.480188 -0.38173666666666667
1627047505 0.4810643333333333 -0.38155500000000003
1628533384 0.48023233333333337 -0.38471199999999994
1630019263 0.4824583333333334 -0.382382
1631505142 0.4828063333333333 -0.3838996666666666
1632991021 0.48220899999999994 -0.38502733333333333
1634476900 0.4809733333333333 -0.38585
1635962779 0.48254233333333335 -0.3837813333333333
1637448658 0.4800586666666667 -0.385011
1638934537 0.4808486666666667 -0.38387
1640420416 0.4802226666666667 -0.3837953333333333
1641906295 0.47872733333333334 -0.38375433333333336
1643392174 0.47632366666666665 -0.38225700000000007
1644878053 0.475408 -0.38206266666666666
1646363932 0.47422733333333333 -0.378843
1647849811 0.47085266666666664 -0.37940233333333334
1649335690 0.470205 -0.3772686666666667
1650821569 0.466698 -0.3783986666666667
1652307448 0.4698983333333333 -0.37888733333333335
1653793327 0.471676 -0.380393
1655279206 0.47124066666666664 -0.3824556666666667
1656765085 0.4718606666666667 -0.3847393333333333
1658250964 0.47215266666666666 -0.386053
1659736843 0.47231700000000004 -0.3855326666666667
1661222722 0.4730653333333333 -0.3856906666666667
1662708601 0.4729346666666667 -0.3857826666666666
1664194480 0.4732786666666667 -0.3862463333333333
1665680359 0.47162299999999996 -0.3870006666666667
1667166238 0.471981 -0.38577833333333333
1668652117 0.4715653333333334 -0.38553466666666664
1670137996 0.4674216666666666 -0.39045833333333335
1671623875 0.4637523333333333 -0.3870983333333333
1673109754 0.4685593333333333 -0.3816603333333333
1674595633 0.46645933333333334 -0.381018
1676081512 0.4663633333333333 -0.37873699999999993
1677567391 0.46424933333333335 -0.3770773333333333
1679053270 0.459652 -0.37890033333333334
1680539149 0.4582623333333333 -0.378927
1682025028 0.4611273333333333 -0.3793686666666667
1683510907 0.4616926666666667 -0.3801206666666666
1684996786 0.4645896666666667 -0.38195666666666667
1686482665 0.4657846666666667 -0.382865
1687968544 0.466817 -0.38347533333333333
1689454423 0.4679803333333334 -0.38401033333333334
1690940302 0.469646 -0.38374299999999995
1692426181 0.46865033333333334 -0.38401066666666667
1693912060 0.47066533333333327 -0.38695066666666666
1695397939 0.4696573333333333 -0.38514766666666667
1696883818 0.47255633333333336 -0.3797433333333333
1698369697 0.4697726666666666 -0.383133
1699855576 0.4678616666666667 -0.38300266666666666
1701341455 0.4715023333333333 -0.38020533333333334
1702827334 0.4683333333333333 -0.380813
1704313213 0.4679933333333333 -0.378922
1705799092 0.466782 -0.376403
1707284971 0.46427666666666667 -0.37770333333333334
1708770850 0.461554 -0.373994
1710256729 0.460246 -0.37459966666666666
1711742608 0.46276066666666665 -0.3746123333333333
1713228487 0.46284366666666665 -0.37762066666666666
1714714366 0.46410233333333334 -0.3789303333333333
1716200245 0.464693 -0.37950599999999995
1717686124 0.466469 -0.37982999999999995
1719172003 0.4691416666666666 -0.3768943333333334
1720657882 0.46797400000000006 -0.3802946666666667
1722143761 0.4661403333333333 -0.3821563333333333
1723629640 0.47289033333333336 -0.37662766666666664
1725115519 0.46710366666666664 -0.380971
1726601398 0.46644766666666665 -0.37859
1728087277 0.4663023333333333 -0.37929499999999994
1729573156 0.46430566666666667 -0.37325
1731059035 0.4666936666666666 -0.375289
1732544914 0.46315633333333334 -0.3769096666666667
1734030793 0.462551 -0.37421466666666664
1735516672 0.46024333333333334 -0.3736426666666666
1737002551 0.4567476666666667 -0.37333600000000006
1738488430 0.456039 -0.37210600000000005
1739974309 0.4544949999999999 -0.36830566666666664
1741460188 0.45503299999999997 -0.3728336666666667
1742946067 0.455652 -0.374802
1744431946 0.4589376666666667 -0.374166
1745917825 0.458046 -0.37686933333333333
1747403704 0.4604166666666667 -0.37723866666666667
1748889583 0.460823 -0.3772433333333334
1750375462 0.4623366666666667 -0.37679166666666664
1751861341 0.46255666666666667 -0.3771466666666667
1753347220 0.4640153333333334 -0.3769373333333333
1754833099 0.46355366666666664 -0.3791896666666667
1756318978 0.464437 -0.37760499999999997
1757804857 0.462771 -0.37897099999999995
1759290736 0.4627383333333333 -0.377377
1760776615 0.462416 -0.375796
1762262494 0.46013600000000004 -0.376217
1763748373 0.45984500000000006 -0.37477333333333335
1765234252 0.45728833333333335 -0.3732203333333333
1766720131 0.45570333333333335 -0.37384
1768206010 0.4542386666666667 -0.37017300000000003
1769691889 0.4523726666666666 -0.36995666666666666
1771177768 0.45244599999999996 -0.37118900000000005
1772663647 0.456447 -0.3715216666666667
1774149526 0.4557533333333333 -0.37585700000000005
1775635405 0.4574256666666667 -0.3760223333333333
1777121284 0.4598526666666667 -0.37604299999999996
1778607163 0.46083633333333335 -0.377512
1780093042 0.46031833333333333 -0.3778616666666667
1781578921 0.46199066666666666 -0.3783726666666667
1783064800 0.46150433333333335 -0.378137
1784550679 0.46393100000000004 -0.37653766666666666
1786036558 0.4631616666666667 -0.3762456666666667
1787522437 0.4625976666666667 -0.374957
1789008316 0.46486866666666665 -0.374932
1790494195 0.462496 -0.3729713333333333
1791980074 0.46332599999999996 -0.37171899999999997
1793465953 0.4639803333333333 -0.36960433333333337
1794951832 0.4589206666666667 -0.36927133333333334
1796437711 0.45737333333333335 -0.3677976666666667
1797923590 0.45548799999999995 -0.3669196666666667
1799409469 0.45446433333333336 -0.3643023333333333
1800895348 0.45352333333333333 -0.3645496666666667
1802381227 0.45466466666666666 -0.366666
1803867106 0.45435833333333336 -0.36842199999999997
1805352985 0.456188 -0.371127
1806838864 0.4562573333333333 -0.3718886666666667
1808324743 0.4581466666666667 -0.37191066666666667
1809810622 0.45990899999999996 -0.37296866666666667
1811296501 0.4598626666666667 -0.3699513333333333
1812782380 0.45864366666666667 -0.37036533333333327
1814268259 0.45999666666666666 -0.370263
1815754138 0.45947200000000005 -0.3721563333333333
1817240017 0.4598876666666667 -0.36779433333333333
1818725896 0.4598183333333334 -0.37101733333333337
1820211775 0.4539946666666667 -0.37011700000000003
1821697654 0.4531373333333333 -0.37136233333333335
1823183533 0.453699 -0.3680133333333333
1824669412 0.4514006666666666 -0.370306
1826155291 0.4500866666666667 -0.366631
1827641170 0.44991733333333334 -0.3634326666666667
1829127049 0.44619733333333333 -0.36224000000000006
1830612928 0.44665033333333337 -0.3637843333333333
1832098807 0.444903 -0.36442700000000006
1833584686 0.44971866666666666 -0.36604966666666666
1835070565 0.449959 -0.3664353333333333
1836556444 0.44988566666666663 -0.3683453333333333
1838042323 0.449348 -0.3730713333333333
1839528202 0.45110633333333333 -0.3697256666666667
1841014081 0.452054 -0.372605
1842499960 0.45177666666666666 -0.3713693333333334
1843985839 0.4517453333333334 -0.37256433333333333
1845471718 0.450823 -0.372579
1846957597 0.4512523333333333 -0.37175033333333335
1848443476 0.451608 -0.37164633333333336
1849929355 0.45232133333333335 -0.3723886666666667
1851415234 0.45135033333333335 -0.3691863333333334
1852901113 0.4498263333333334 -0.3693043333333333
1854386992 0.4457446666666667 -0.371411
1855872871 0.4493686666666667 -0.36644799999999994
1857358750 0.4389806666666667 -0.36980366666666664
1858844629 0.4447466666666666 -0.36507700000000004
1860330508 0.442378 -0.36485233333333333
1861816387 0.44271299999999997 -0.3663983333333333
1863302266 0.4454656666666667 -0.36733
1864788145 0.4458 -0.3699673333333333
1866274024 0.445511 -0.37082033333333336
1867759903 0.4474133333333333 -0.37095133333333336
1869245782 0.4486576666666666 -0.3733573333333333
1870731661 0.448583 -0.37418
1872217540 0.44970766666666667 -0.372256
1873703419 0.44980400000000004 -0.373322
1875189298 0.45056333333333337 -0.371987
1876675177 0.44965600000000006 -0.37344333333333335
1878161056 0.44985366666666665 -0.37202
1879646935 0.448425 -0.3718586666666667
1881132814 0.4489813333333334 -0.3758793333333333
1882618693 0.446085 -0.37060966666666667
1884104572 0.44812 -0.36746999999999996
1885590451 0.4460773333333334 -0.36613300000000004
1887076330 0.443255 -0.365785
1888562209 0.4428336666666666 -0.3619723333333333
1890048088 0.44070800000000004 -0.361466
1891533967 0.4416346666666667 -0.3630506666666667
1893019846 0.44089133333333336 -0.3654113333333333
1894505725 0.44232066666666664 -0.366261
1895991604 0.44567666666666667 -0.36594299999999996
1897477483 0.444911 -0.3675823333333333
1898963362 0.44481 -0.367631
1900449241 0.44737066666666664 -0.36621466666666663
1901935120 0.44537333333333334 -0.36835599999999996
1903420999 0.4465246666666666 -0.36850000000000005
1904906878 0.4478606666666667 -0.3672486666666666
1906392757 0.44678466666666666 -0.365968
1907878636 0.4440756666666667 -0.36788
1909364515 0.4445953333333333 -0.36608066666666667
1910850394 0.44422500000000004 -0.364776
1912336273 0.4429896666666666 -0.362415
1913822152 0.44229433333333334 -0.36072
1915308031 0.43938000000000005 -0.36043433333333336
1916793910 0.43821333333333334 -0.359067
1918279789 0.43688333333333335 -0.3572093333333333
1919765668 0.43402333333333337 -0.35616733333333334
1921251547 0.43426233333333336 -0.3579483333333333
1922737426 0.4375846666666667 -0.35865133333333327
1924223305 0.4344596666666667 -0.36213066666666666
1925709184 0.439019 -0.361883
1927195063 0.43892400000000004 -0.36363033333333333
1928680942 0.44111866666666666 -0.3653576666666667
1930166821 0.44278233333333333 -0.36323600000000006
1931652700 0.44179166666666664 -0.36456099999999997
1933138579 0.4408393333333333 -0.36490566666666663
1934624458 0.44144066666666665 -0.36536300000000005
1936110337 0.4398983333333333 -0.36526966666666666
1937596216 0.441257 -0.3635043333333334
1939082095 0.43984266666666666 -0.3647213333333334
1940567974 0.4384866666666667 -0.36404499999999995
1942053853 0.43879633333333334 -0.3619143333333333
1943539732 0.44074066666666667 -0.36074866666666666
1945025611 0.4345133333333333 -0.3617686666666667
1946511490 0.43679533333333337 -0.35982866666666663
1947997369 0.43182666666666664 -0.35908766666666664
1949483248 0.4311386666666667 -0.35660700000000006
1950969127 0.4353653333333333 -0.3539966666666667
1952455006 0.432591 -0.35858999999999996
1953940885 0.43456066666666665 -0.35933400000000004
1955426764 0.43476566666666666 -0.359984
1956912643 0.43812233333333334 -0.3596543333333333
1958398522 0.4393476666666667 -0.36215633333333336
1959884401 0.4376006666666667 -0.36227433333333336
1961370280 0.4390796666666667 -0.36182899999999996
1962856159 0.43840033333333334 -0.363045
1964342038 0.4360413333333333 -0.363072
1965827917 0.43810466666666664 -0.36110133333333333
1967313796 0.436301 -0.36269233333333334
1968799675 0.44374833333333336 -0.3639783333333333
1970285554 0.4345299999999999 -0.36126166666666665
1971771433 0.4348086666666666 -0.36085166666666674
1973257312 0.4355043333333333 -0.3575213333333333
1974743191 0.433225 -0.35603466666666667
1976229070 0.429308 -0.3567183333333333
1977714949 0.42831899999999995 -0.3550633333333333
1979200828 0.4264073333333333 -0.3527443333333333
1980686707 0.426228 -0.35267033333333336
1982172586 0.4261183333333334 -0.35622266666666663
1983658465 0.42775233333333335 -0.35599899999999995
1985144344 0.4284846666666667 -0.359283
1986630223 0.4282323333333333 -0.3603706666666667
1988116102 0.43033533333333335 -0.36249099999999995
1989601981 0.4283706666666667 -0.36378266666666664
1991087860 0.4323396666666666 -0.36063700000000004
1992573739 0.4303863333333333 -0.3625716666666667
1994059618 0.4322726666666667 -0.36086866666666667
1995545497 0.43067199999999994 -0.361141
1997031376 0.42970899999999995 -0.35836399999999996
1998517255 0.42982899999999996 -0.35940733333333336
2000003134 0.43001 -0.35811
2001489013 0.42874866666666667 -0.35943600000000003
2002974892 0.427932 -0.3573946666666667
2004460771 0.4270616666666667 -0.35717
2005946650 0.42446399999999995 -0.359122
2007432529 0.4238283333333333 -0.3532956666666667
2008918408 0.4209313333333333 -0.3560316666666667
2010404287 0.42031 -0.35549099999999995
2011890166 0.4214993333333333 -0.35576199999999997
2013376045 0.42235533333333336 -0.3575983333333334
2014861924 0.42552833333333334 -0.357791
2016347803 0.42604233333333336 -0.35946999999999996
2017833682 0.4261733333333333 -0.35936666666666667
2019319561 0.42726533333333333 -0.360436
2020805440 0.426556 -0.36471600000000004
2022291319 0.44477933333333336 -0.3561816666666667
2023777198 0.42840999999999996 -0.36193566666666666
2025263077 0.42945166666666673 -0.360428
2026748956 0.4299483333333333 -0.36044633333333326
2028234835 0.428092 -0.36144766666666667
2029720714 0.42788200000000004 -0.361177
2031206593 0.42732400000000004 -0.35834866666666665
2032692472 0.42616566666666666 -0.3584403333333333
2034178351 0.42687633333333336 -0.3536106666666667
2035664230 0.4238226666666666 -0.354922
2037150109 0.4249953333333334 -0.3512443333333333
2038635988 0.42298366666666665 -0.3488976666666667
2040121867 0.420388 -0.3507883333333333
2041607746 0.4207353333333333 -0.3516516666666667
2043093625 0.4222896666666667 -0.35234000000000004
2044579504 0.4223593333333333 -0.35575166666666663
2046065383 0.4237146666666667 -0.3551413333333333
2047551262 0.4253446666666667 -0.35376699999999994
2049037141 0.42362133333333335 -0.356231
2050523020 0.424995 -0.354228
2052008899 0.4248073333333333 -0.35819533333333337
2053494778 0.42452833333333334 -0.358397
2054980657 0.426342 -0.354412
2056466536 0.423564 -0.3540376666666667
2057952415 0.422024 -0.35766800000000004
2059438294 0.4208416666666667 -0.35560366666666665
2060924173 0.4197303333333333 -0.35424933333333336
2062410052 0.41834599999999994 -0.3565773333333333
2063895931 0.4185286666666667 -0.3512396666666666
2065381810 0.41569199999999995 -0.350274
2066867689 0.41311533333333333 -0.35133733333333333
2068353568 0.411847 -0.3506106666666667
2069839447 0.40965199999999996 -0.3480653333333333
2071325326 0.410679 -0.349022
2072811205 0.4120903333333333 -0.35241966666666674
2074297084 0.414696 -0.352046
2075782963 0.414927 -0.35389200000000004
2077268842 0.41420300000000004 -0.3537953333333334
2078754721 0.41789566666666667 -0.35537
2080240600 0.41784099999999996 -0.358174
2081726479 0.417969 -0.35643833333333336
2083212358 0.41954699999999995 -0.35629700000000003
2084698237 0.4180486666666667 -0.35684866666666665
2086184116 0.4195216666666666 -0.35608100000000004
2087669995 0.4191336666666667 -0.3557536666666667
2089155874 0.4191743333333333 -0.35424100000000003
2090641753 0.4168876666666667 -0.355141
2092127632 0.416878 -0.351518
2093613511 0.4163516666666667 -0.35169233333333333
2095099390 0.41627100000000006 -0.3509356666666667
2096585269 0.4127186666666667 -0.3505916666666667
2098071148 0.411954 -0.348736
2099557027 0.41097333333333336 -0.3466873333333333
2101042906 0.411908 -0.34702133333333335
2102528785 0.4124423333333333 -0.34770233333333334
2104014664 0.41581033333333334 -0.3497406666666667
2105500543 0.41571833333333336 -0.35162099999999996
2106986422 0.4164913333333333 -0.3534013333333333
2108472301 0.418637 -0.3543053333333333
2109958180 0.41950633333333337 -0.35368933333333336
2111444059 0.4204376666666667 -0.35523366666666667
2112929938 0.420352 -0.35570233333333334
2114415817 0.42009566666666665 -0.354299
2115901696 0.41947133333333336 -0.3550036666666667
2117387575 0.419131 -0.35496833333333333
2118873454 0.41964266666666666 -0.3552613333333334
2120359333 0.4180173333333334 -0.3530533333333333
2121845212 0.417869 -0.354368
2123331091 0.4178093333333333 -0.35079
2124816970 0.4147496666666666 -0.3524886666666667
2126302849 0.416815 -0.34904266666666667
2127788728 0.41427233333333335 -0.34695600000000004
2129274607 0.4106893333333333 -0.34618466666666664
2130760486 0.4118113333333333 -0.3461833333333333
2132246365 0.4120886666666667 -0.34835600000000005
2133732244 0.41323899999999997 -0.34878600000000004
2135218123 0.4134526666666667 -0.351103
2136704002 0.4155136666666666 -0.35138966666666666
2138189881 0.41459633333333334 -0.35343433333333335
2139675760 0.4146156666666667 -0.3539643333333333
2141161639 0.4147083333333334 -0.35361466666666663
2142647518 0.41482033333333335 -0.35556600000000005
2144133397 0.41518933333333335 -0.35507533333333335
2145619276 0.4159746666666666 -0.3553043333333334
2147105155 0.41476266666666667 -0.35472166666666666
2148591034 0.414279 -0.353434
2150076913 0.4134816666666667 -0.351661
2151562792 0.409791 -0.35300000000000004
2153048671 0.41030666666666665 -0.35304699999999994
2154534550 0.40732666666666667 -0.351734
2156020429 0.40612066666666663 -0.3521323333333333
2157506308 0.40450433333333335 -0.34831133333333336
2158992187 0.4050416666666667 -0.34709299999999993
2160478066 0.40201000000000003 -0.34955733333333333
2161963945 0.40387666666666666 -0.35000733333333334
2163449824 0.40348066666666665 -0.35147966666666663
2164935703 0.40308800000000006 -0.3551043333333334
2166421582 0.4083906666666666 -0.3536093333333333
2167907461 0.40866 -0.352416
2169393340 0.406887 -0.35598233333333335
2170879219 0.41036500000000004 -0.3568426666666667
2172365098 0.4100273333333333 -0.35526266666666667
2173850977 0.4140763333333333 -0.35435866666666666
2175336856 0.41068466666666664 -0.355977
2176822735 0.411254 -0.35502933333333336
2178308614 0.4135713333333333 -0.354353
2179794493 0.41048533333333337 -0.354344
2181280372 0.407165 -0.35475266666666666
2182766251 0.41089333333333333 -0.35395166666666666
2184252130 0.409461 -0.35227933333333333
2185738009 0.40664799999999995 -0.3498406666666667
2187223888 0.40639033333333335 -0.3468096666666667
2188709767 0.4038793333333333 -0.34682233333333334
2190195646 0.402237 -0.346288
2191681525 0.4056686666666667 -0.34598666666666666
2193167404 0.40675 -0.3484893333333334
2194653283 0.408538 -0.34800533333333333
2196139162 0.4119616666666667 -0.34914966666666664
2197625041 0.41211166666666665 -0.3494296666666667
2199110920 0.4123806666666667 -0.3502076666666667
2200596799 0.41264866666666666 -0.3503286666666667
2202082678 0.41537266666666667 -0.34992833333333334
2203568557 0.412912 -0.35033333333333333
2205054436 0.41502100000000003 -0.3509426666666666
2206540315 0.4096843333333333 -0.34865233333333334
2208026194 0.42713266666666666 -0.32501066666666667
2209512073 0.4133926666666667 -0.34787833333333334
2210997952 0.41251333333333334 -0.347281
2212483831 0.412421 -0.34554533333333337
2213969710 0.411977 -0.34387799999999996
2215455589 0.4105363333333334 -0.34275966666666663
2216941468 0.40833400000000003 -0.34188799999999997
2218427347 0.4063556666666666 -0.339919
2219913226 0.40252166666666667 -0.3395033333333333
2221399105 0.406903 -0.34097299999999997
2222884984 0.40566233333333335 -0.3418943333333333
2224370863 0.40991533333333335 -0.34146800000000005
2225856742 0.4064663333333333 -0.3452713333333333
2227342621 0.4134353333333333 -0.343698
2228828500 0.40667600000000004 -0.34916600000000003
2230314379 0.41371933333333333 -0.3479756666666667
2231800258 0.405127 -0.3503366666666667
2233286137 0.41496833333333333 -0.34712733333333334
2234772016 0.40879533333333334 -0.35175833333333334
2236257895 0.4111876666666667 -0.3479703333333333
2237743774 0.40856133333333333 -0.3497516666666667
2239229653 0.41589366666666666 -0.3450853333333333
2240715532 0.40757533333333335 -0.35070700000000005
2242201411 0.4153173333333333 -0.3447246666666666
2243687290 0.4071106666666667 -0.347914
2245173169 0.411155 -0.34231300000000003
2246659048 0.40628766666666666 -0.3456066666666667
2248144927 0.4108236666666667 -0.34187000000000006
2249630806 0.403156 -0.3421343333333334
2251116685 0.40867600000000004 -0.34221300000000004
2252602564 0.40585999999999994 -0.34375833333333333
2254088443 0.408728 -0.3426626666666667
2255574322 0.4078823333333333 -0.3454913333333334
2257060201 0.4080353333333333 -0.3441726666666667
2258546080 0.40832566666666664 -0.3463906666666667
2260031959 0.4101943333333333 -0.3462163333333333
2261517838 0.4097126666666666 -0.3454426666666666
2263003717 0.4036356666666667 -0.34973499999999996
2264489596 0.4073263333333334 -0.3474143333333333
2265975475 0.405739 -0.347858
2267461354 0.3981603333333334 -0.34707
2268947233 0.42175333333333337 -0.34731400000000007
2270433112 0.40882599999999997 -0.34405233333333335
2271918991 0.40106933333333333 -0.3446146666666667
2273404870 0.402966 -0.3445933333333333
2274890749 0.402574 -0.343234
2276376628 0.39865033333333333 -0.34045533333333333
2277862507 0.391578 -0.3417426666666667
2279348386 0.39415700000000004 -0.34011033333333335
2280834265 0.3970106666666667 -0.33796133333333334
2282320144 0.40427266666666667 -0.3384203333333333
2283806023 0.4049583333333333 -0.33738599999999996
2285291902 0.4068083333333334 -0.33874099999999996
2286777781 0.40020133333333335 -0.3413323333333333
2288263660 0.4060616666666667 -0.339836
2289749539 0.4080706666666667 -0.34024366666666667
2291235418 0.40826566666666664 -0.341083
2292721297 0.4102616666666667 -0.33921633333333334
2294207176 0.40965199999999996 -0.3384526666666667
2295693055 0.406994 -0.339107
2297178934 0.4088406666666667 -0.3377836666666667
2298664813 0.40480066666666664 -0.339732
2300150692 0.40707 -0.33699433333333334
2301636571 0.4081763333333333 -0.3354616666666667
2303122450 0.4044703333333333 -0.34235166666666667
2304608329 0.39814499999999997 -0.33812966666666666
2306094208 0.40055766666666665 -0.33754033333333333
2307580087 0.3968156666666667 -0.3350853333333334
2309065966 0.3961793333333333 -0.332023
2310551845 0.3927673333333333 -0.335297
2312037724 0.39567166666666664 -0.3377586666666667
2313523603 0.3956193333333333 -0.33768533333333334
2315009482 0.40061066666666667 -0.33969333333333335
2316495361 0.40219933333333335 -0.3392443333333334
2317981240 0.40090899999999996 -0.34231266666666665
2319467119 0.40362866666666664 -0.3408446666666667
2320952998 0.4048716666666667 -0.3429903333333333
2322438877 0.40835533333333335 -0.341266
2323924756 0.403697 -0.3411786666666667
2325410635 0.4037823333333333 -0.3429773333333334
2326896514 0.4030013333333334 -0.3417106666666667
2328382393 0.40652333333333335 -0.3405586666666667
2329868272 0.40428233333333335 -0.3393013333333334
2331354151 0.40338333333333337 -0.3410086666666667
2332840030 0.4027943333333333 -0.3410296666666666
2334325909 0.40290000000000004 -0.33894433333333335
2335811788 0.40554566666666664 -0.3382323333333333
2337297667 0.403775 -0.3360363333333333
2338783546 0.39968066666666674 -0.33716100000000004
2340269425 0.3985586666666667 -0.334853
2341755304 0.400616 -0.3385006666666666
2343241183 0.399924 -0.3376693333333334
2344727062 0.4033193333333333 -0.33897333333333335
2346212941 0.403003 -0.34011033333333335
2347698820 0.3998536666666667 -0.3439546666666667
2349184699 0.405756 -0.34109866666666666
2350670578 0.4017276666666667 -0.3457133333333333
2352156457 0.405683 -0.3423946666666667
2353642336 0.3995303333333333 -0.3434726666666667
2355128215 0.40280166666666667 -0.3416963333333333
2356614094 0.40442266666666665 -0.34166466666666667
2358099973 0.3982566666666667 -0.3471403333333334
2359585852 0.4005906666666667 -0.34334966666666666
2361071731 0.3982003333333333 -0.344253
2362557610 0.40130166666666667 -0.3416506666666666
2364043489 0.396832 -0.34457899999999997
2365529368 0.395541 -0.3409683333333333
2367015247 0.391461 -0.34292933333333336
2368501126 0.39309900000000003 -0.3397783333333333
2369987005 0.3911723333333333 -0.33871333333333337
2371472884 0.39163466666666663 -0.33982599999999996
2372958763 0.392816 -0.34154
2374444642 0.39562500000000006 -0.34244633333333335
2375930521 0.39306066666666667 -0.34637300000000004
2377416400 0.3987213333333333 -0.3439203333333334
2378902279 0.396928 -0.34529766666666667
2380388158 0.40002733333333335 -0.3435696666666667
2381874037 0.40089933333333333 -0.3443893333333334
2383359916 0.40111600000000003 -0.341625
2384845795 0.40141566666666667 -0.34395333333333333
2386331674 0.40243366666666663 -0.3428883333333334
2387817553 0.4008933333333333 -0.34173533333333334
2389303432 0.4003376666666667 -0.3395416666666667
2390789311 0.40088366666666664 -0.338168
2392275190 0.39521766666666663 -0.344233
2393761069 0.3986053333333333 -0.33882866666666667
2395246948 0.39865900000000004 -0.3344483333333333
2396732827 0.3958753333333333 -0.3344376666666667
2398218706 0.39313233333333336 -0.3358736666666666
2399704585 0.393036 -0.327184
2401190464 0.391718 -0.332922
2402676343 0.394894 -0.33796133333333334
2404162222 0.39625133333333334 -0.3325203333333333
2405648101 0.3988616666666666 -0.33598733333333336
2407133980 0.39821766666666664 -0.33470666666666665
2408619859 0.39832399999999996 -0.33944100000000005
2410105738 0.39799266666666666 -0.3361163333333333
2411591617 0.398234 -0.33658633333333327
2413077496 0.39365466666666665 -0.3419016666666666
2414563375 0.4006003333333334 -0.3398486666666667
2416049254 0.3983416666666666 -0.3422413333333334
2417535133 0.3967556666666667 -0.3414343333333334
2419021012 0.39826066666666665 -0.33832766666666664
2420506891 0.3965113333333334 -0.33839099999999994
2421992770 0.395701 -0.34195400000000004
2423478649 0.39033500000000004 -0.3437323333333333
2424964528 0.39008166666666666 -0.3405146666666667
2426450407 0.41384299999999996 -0.347551
2427936286 0.3881856666666666 -0.33776866666666666
2429422165 0.3864533333333333 -0.3386633333333333
2430908044 0.38548800000000005 -0.3410513333333333
2432393923 0.3873356666666667 -0.3404563333333333
2433879802 0.390056 -0.3413363333333333
2435365681 0.38858366666666666 -0.344303
2436851560 0.3911196666666667 -0.34014833333333333
2438337439 0.39087500000000003 -0.3417839999999999
2439823318 0.3941383333333333 -0.3422053333333333
2441309197 0.3905623333333333 -0.3449166666666667
2442795076 0.394342 -0.338678
2444280955 0.3906543333333334 -0.342366
2445766834 0.39082066666666665 -0.3403173333333333
2447252713 0.39180333333333334 -0.3416903333333334
2448738592 0.39422633333333335 -0.3384036666666666
2450224471 0.3894053333333333 -0.3389393333333333
2451710350 0.3887676666666667 -0.3354329999999999
2453196229 0.38752499999999995 -0.33890033333333336
2454682108 0.38736366666666666 -0.336657
2456167987 0.3855713333333333 -0.32985466666666663
2457653866 0.382423 -0.33033466666666667
2459139745 0.38311433333333333 -0.3301693333333333
2460625624 0.37903966666666666 -0.3331463333333333
2462111503 0.38137400000000005 -0.332146
2463597382 0.382589 -0.3347716666666667
2465083261 0.3828316666666667 -0.33503400000000005
2466569140 0.385689 -0.3354783333333333
2468055019 0.38656733333333326 -0.333856
2469540898 0.38542633333333337 -0.33791666666666664
2471026777 0.38789566666666664 -0.33496366666666666
2472512656 0.388271 -0.3399316666666667
2473998535 0.3869293333333334 -0.3385913333333333
2475484414 0.3890636666666667 -0.33497266666666664
2476970293 0.3860813333333333 -0.33587833333333333
2478456172 0.386096 -0.33882266666666666
2479942051 0.3856393333333334 -0.336719
2481427930 0.38499600000000006 -0.33429833333333336
2482913809 0.383485 -0.3328793333333333
2484399688 0.38182933333333335 -0.33307733333333334
2485885567 0.38062766666666664 -0.3291136666666667
2487371446 0.3800696666666667 -0.3314806666666667
2488857325 0.3764333333333334 -0.33082833333333334
2490343204 0.3769753333333333 -0.3279
2491829083 0.3777626666666667 -0.3331246666666667
2493314962 0.38023500000000005 -0.33520900000000003
2494800841 0.37988399999999994 -0.3343213333333333
2496286720 0.38494266666666666 -0.33407566666666666
2497772599 0.383314 -0.33531533333333335
2499258478 0.38417033333333334 -0.3372843333333333
2500744357 0.38873399999999997 -0.3346096666666667
2502230236 0.38708000000000004 -0.3358953333333334
2503716115 0.3896786666666667 -0.33804066666666666
2505201994 0.388614 -0.33857966666666667
2506687873 0.390709 -0.33683233333333334
2508173752 0.3906943333333333 -0.3331806666666667
2509659631 0.390491 -0.33497899999999997
2511145510 0.3901483333333333 -0.33411133333333337
2512631389 0.3896283333333333 -0.33249833333333334
2514117268 0.38888433333333333 -0.32944766666666664
2515603147 0.3898083333333333 -0.3279126666666667
2517089026 0.38558966666666666 -0.32940733333333333
2518574905 0.38378033333333333 -0.3274093333333334
2520060784 0.38368599999999997 -0.3258596666666667
2521546663 0.384018 -0.32677433333333333
2523032542 0.38622633333333334 -0.32907766666666666
2524518421 0.38740900000000006 -0.32902533333333334
2526004300 0.387947 -0.331239
2527490179 0.3879093333333334 -0.3314783333333334
2528976058 0.3871903333333333 -0.3307386666666667
2530461937 0.38806633333333335 -0.3321176666666667
2531947816 0.3870006666666667 -0.33247566666666667
2533433695 0.391236 -0.333
2534919574 0.38598400000000005 -0.3345013333333333
2536405453 0.389535 -0.3318296666666667
2537891332 0.3865450000000001 -0.33202733333333334
2539377211 0.3897116666666667 -0.33016466666666666
2540863090 0.38532933333333336 -0.3333346666666666
2542348969 0.38732700000000003 -0.33035433333333336
2543834848 0.383575 -0.33010266666666666
2545320727 0.38481266666666664 -0.32883100000000004
2546806606 0.38060366666666673 -0.327675
2548292485 0.38069166666666665 -0.3258273333333333
2549778364 0.3769386666666667 -0.328162
2551264243 0.3767416666666667 -0.32930566666666666
2552750122 0.3787746666666667 -0.331029
2554236001 0.3786103333333333 -0.33227466666666666
2555721880 0.3820143333333334 -0.3339206666666667
2557207759 0.3812333333333333 -0.33377566666666664
2558693638 0.380589 -0.3359373333333333
2560179517 0.3810736666666667 -0.33658099999999996
2561665396 0.380207 -0.33823600000000004
2563151275 0.38199500000000003 -0.336022
2564637154 0.3789293333333334 -0.339394
2566123033 0.382277 -0.3371633333333333
2567608912 0.38026133333333334 -0.33856033333333335
2569094791 0.381451 -0.33691133333333334
2570580670 0.381797 -0.3385833333333334
2572066549 0.3819376666666667 -0.336566
2573552428 0.37663266666666667 -0.3390066666666667
2575038307 0.375851 -0.3391486666666667
2576524186 0.3761486666666667 -0.3370143333333333
2578010065 0.3739776666666667 -0.337838
2579495944 0.37319433333333335 -0.33553933333333336
2580981823 0.374524 -0.3375456666666667
2582467702 0.376109 -0.33637233333333333
2583953581 0.37818066666666666 -0.33796933333333334
2585439460 0.37667500000000004 -0.33817800000000003
2586925339 0.37927399999999994 -0.3391116666666667
2588411218 0.37854499999999996 -0.3365533333333333
2589897097 0.3816643333333333 -0.33588466666666666
2591382976 0.38049333333333335 -0.3358913333333333
2592868855 0.381234 -0.3350416666666667
2594354734 0.38071933333333335 -0.3374143333333333
2595840613 0.3807926666666666 -0.3300553333333333
2597326492 0.37719266666666673 -0.333239
2598812371 0.37991766666666665 -0.3301263333333333
2600298250 0.37626866666666664 -0.3292896666666667
2601784129 0.378168 -0.33072833333333335
2603270008 0.378053 -0.3280456666666667
2604755887 0.37476933333333334 -0.326162
2606241766 0.3717186666666667 -0.32277633333333333
2607727645 0.36974166666666664 -0.3245516666666667
2609213524 0.3688613333333333 -0.3212726666666667
2610699403 0.3693903333333333 -0.317069
2612185282 0.37128300000000003 -0.31957433333333335
2613671161 0.36952999999999997 -0.3211763333333333
2615157040 0.37127899999999997 -0.32269566666666666
2616642919 0.3738456666666667 -0.32222100000000004
2618128798 0.3743363333333334 -0.32488466666666665
2619614677 0.3753043333333333 -0.32606833333333335
2621100556 0.37603666666666663 -0.32337466666666664
2622586435 0.37555999999999995 -0.3264643333333333
2624072314 0.375492 -0.326826
2625558193 0.3727456666666667 -0.32468433333333335
2627044072 0.375395 -0.32560866666666666
2628529951 0.371871 -0.32959666666666665
2630015830 0.37504699999999996 -0.32529366666666665
2631501709 0.37467233333333333 -0.3254333333333333
2632987588 0.37305900000000003 -0.32449733333333336
2634473467 0.36823266666666665 -0.32209733333333335
2635959346 0.3714923333333333 -0.32084466666666667
2637445225 0.36864600000000003 -0.321987
2638931104 0.36655599999999994 -0.3192433333333333
2640416983 0.3655136666666667 -0.322812
2641902862 0.369953 -0.322938
2643388741 0.36746799999999996 -0.32702333333333333
2644874620 0.36948766666666666 -0.32735366666666665
2646360499 0.37112566666666663 -0.32845433333333335
2647846378 0.3716333333333333 -0.32658766666666667
2649332257 0.3712756666666667 -0.3298753333333333
2650818136 0.37395633333333334 -0.3276496666666667
2652304015 0.37612033333333333 -0.329971
2653789894 0.37139799999999995 -0.3345883333333333
2655275773 0.37055066666666664 -0.33161966666666665
2656761652 0.37158700000000006 -0.33190366666666665
2658247531 0.372245 -0.3329296666666666
2659733410 0.3733313333333334 -0.328787
2661219289 0.370128 -0.32890633333333336
2662705168 0.37464000000000003 -0.331592
2664191047 0.3733303333333334 -0.328446
2665676926 0.36720099999999994 -0.3296766666666667
2667162805 0.365888 -0.3272806666666667
2668648684 0.368409 -0.33046166666666665
2670134563 0.3653853333333334 -0.33042900000000003
2671620442 0.3690783333333334 -0.32979700000000006
2673106321 0.3660926666666667 -0.3324796666666667
2674592200 0.3685686666666667 -0.3311266666666667
2676078079 0.371504 -0.33158333333333334
2677563958 0.37061700000000003 -0.33314133333333334
2679049837 0.3751636666666667 -0.33206033333333335
2680535716 0.37253099999999995 -0.3306463333333333
2682021595 0.37643699999999997 -0.33019133333333334
2683507474 0.37693200000000004 -0.33248
2684993353 0.372775 -0.33108066666666663
2686479232 0.3765306666666666 -0.33130699999999996
2687965111 0.3810633333333333 -0.3317386666666667
2689450990 0.37212533333333325 -0.328492
2690936869 0.3690803333333333 -0.3273446666666667
2692422748 0.37258166666666664 -0.3290946666666667
2693908627 0.3741756666666667 -0.32632900000000004
2695394506 0.3676266666666667 -0.3253163333333333
2696880385 0.36493200000000003 -0.3253473333333334
2698366264 0.3673486666666667 -0.32438733333333336
2699852143 0.3606963333333333 -0.3222683333333333
2701338022 0.355901 -0.323882
2702823901 0.36780033333333334 -0.3258453333333333
2704309780 0.36896600000000007 -0.32522066666666666
2705795659 0.3662006666666667 -0.32741766666666666
2707281538 0.3732436666666667 -0.3269666666666667
2708767417 0.37768466666666667 -0.3278676666666666
2710253296 0.37587166666666666 -0.32690100000000005
2711739175 0.3744673333333333 -0.3271826666666667
2713225054 0.3717526666666667 -0.3256886666666667
2714710933 0.37686933333333333 -0.32621533333333336
2716196812 0.3764693333333333 -0.32397800000000004
2717682691 0.3748213333333334 -0.32630933333333334
2719168570 0.3572473333333333 -0.288827
2720654449 0.37459033333333336 -0.32496866666666663
2722140328 0.3792236666666667 -0.3220323333333333
2723626207 0.378103 -0.320137
2725112086 0.38530166666666665 -0.31935600000000003
2726597965 0.3754976666666667 -0.3175053333333333
2728083844 0.36993733333333334 -0.317237
2729569723 0.3689913333333334 -0.3145166666666667
2731055602 0.37446700000000005 -0.314828
2732541481 0.3711116666666667 -0.317011
2734027360 0.37074466666666667 -0.319813
2735513239 0.37873433333333334 -0.3197986666666666
2736999118 0.373099 -0.32183866666666666
2738484997 0.37494866666666665 -0.32256833333333335
2739970876 0.37528933333333336 -0.3249183333333333
2741456755 0.37671133333333334 -0.32422766666666664
2742942634 0.3779383333333333 -0.32605066666666666
2744428513 0.3761186666666667 -0.329574
2745914392 0.373472 -0.328045
2747400271 0.3737793333333333 -0.32857333333333333
2748886150 0.36978533333333335 -0.33181666666666665
2750372029 0.37527466666666665 -0.329337
2751857908 0.36783066666666664 -0.3320323333333333
2753343787 0.367726 -0.3350573333333333
2754829666 0.37129933333333337 -0.3248203333333333
2756315545 0.36790866666666666 -0.329037
2757801424 0.363707 -0.33129366666666665
2759287303 0.370074 -0.325909
2760773182 0.36811699999999997 -0.328969
2762259061 0.365904 -0.333065
2763744940 0.3702556666666667 -0.33332500000000004
2765230819 0.37011433333333327 -0.33539
2766716698 0.3732146666666667 -0.33757666666666664
2768202577 0.3707223333333334 -0.33634233333333335
2769688456 0.3741296666666667 -0.3333446666666667
2771174335 0.37868799999999997 -0.33181666666666665
2772660214 0.395573 -0.3372916666666667
2774146093 0.376307 -0.33487466666666665
2775631972 0.37657 -0.33411166666666664
2777117851 0.37450733333333336 -0.33463400000000004
2778603730 0.375724 -0.332598
2780089609 0.37529266666666666 -0.3336766666666667
2781575488 0.37031533333333333 -0.33578233333333335
2783061367 0.37533400000000006 -0.3345293333333334
2784547246 0.3740003333333333 -0.329802
2786033125 0.3724373333333333 -0.32812933333333333
2787519004 0.37366366666666667 -0.3286496666666667
2789004883 0.366061 -0.32771833333333333
2790490762 0.3728643333333333 -0.324728
2791976641 0.37516 -0.3226576666666667
2793462520 0.3743863333333333 -0.3248163333333333
2794948399 0.3748033333333334 -0.330143
2796434278 0.373422 -0.3274646666666667
2797920157 0.37185 -0.33091
2799406036 0.37480399999999997 -0.33191066666666663
2800891915 0.374395 -0.33483633333333335
2802377794 0.3756296666666666 -0.3380643333333333
2803863673 0.37768566666666664 -0.3299816666666667
2805349552 0.3716456666666667 -0.33426333333333336
2806835431 0.3715306666666667 -0.3325926666666667
2808321310 0.3778896666666667 -0.3287273333333333
2809807189 0.37429833333333334 -0.330436
2811293068 0.372665 -0.33389766666666665
2812778947 0.37547166666666665 -0.32689666666666667
2814264826 0.376856 -0.32933300000000004
2815750705 0.37180966666666665 -0.326601
2817236584 0.3656546666666667 -0.33130433333333337
2818722463 0.36307500000000004 -0.32723933333333327
2820208342 0.36598966666666666 -0.3258716666666666
2821694221 0.3628723333333333 -0.3277396666666667
2823180100 0.3663703333333333 -0.3318383333333333
2824665979 0.367899 -0.33224166666666666
2826151858 0.37074333333333337 -0.332687
2827637737 0.3669193333333334 -0.33794133333333337
2829123616 0.37279166666666663 -0.333129
2830609495 0.373475 -0.33523299999999995
2832095374 0.372716 -0.3347043333333333
2833581253 0.3738516666666667 -0.3399743333333333
2835067132 0.371267 -0.33007566666666666
2836553011 0.37497500000000006 -0.32427
2838038890 0.3692673333333334 -0.3279183333333333
2839524769 0.3691723333333334 -0.33070933333333336
2841010648 0.37155199999999994 -0.3229086666666667
2842496527 0.3703003333333333 -0.32642933333333335
2843982406 0.363033 -0.32677766666666663
2845468285 0.3661743333333333 -0.31154533333333334
2846954164 0.36416133333333334 -0.32098666666666664
2848440043 0.36290433333333333 -0.312786
2849925922 0.36006133333333334 -0.3156023333333333
2851411801 0.3610583333333333 -0.308087
2852897680 0.3669153333333333 -0.313923
2854383559 0.366763 -0.3203493333333333
2855869438 0.365141 -0.321772
2857355317 0.36995966666666663 -0.322023
2858841196 0.366274 -0.31515699999999996
2860327075 0.365332 -0.32277233333333333
2861812954 0.37278866666666666 -0.3224013333333333
2863298833 0.369592 -0.3245086666666667
2864784712 0.36759566666666665 -0.320338
2866270591 0.36986066666666667 -0.31934666666666667
2867756470 0.372984 -0.3211866666666667
2869242349 0.3910453333333333 -0.319353
2870728228 0.3714516666666667 -0.31810066666666664
2872214107 0.3675913333333334 -0.3131646666666667
2873699986 0.36646533333333337 -0.3156333333333334
2875185865 0.368837 -0.31631766666666666
2876671744 0.364997 -0.310905
2878157623 0.3724353333333333 -0.3111583333333333
2879643502 0.369701 -0.30902633333333335
2881129381 0.367821 -0.30287400000000003
2882615260 0.37421233333333337 -0.30787633333333336
2884101139 0.3716 -0.30512
2885587018 0.374612 -0.310095
2887072897 0.3738126666666666 -0.3080173333333333
2888558776 0.373194 -0.309695
2890044655 0.37426999999999994 -0.31289933333333336
2891530534 0.3758593333333333 -0.3077186666666667
2893016413 0.3752443333333333 -0.3122063333333333
2894502292 0.37559866666666664 -0.3045906666666667
2895988171 0.3770706666666667 -0.314043
2897474050 0.371124 -0.31557666666666667
2898959929 0.37648666666666664 -0.31101666666666666
2900445808 0.37008066666666667 -0.3133303333333333
2901931687 0.3758063333333333 -0.309447
2903417566 0.3702513333333333 -0.3117103333333333
2904903445 0.3751503333333333 -0.3064263333333333
2906389324 0.364666 -0.31360133333333334
2907875203 0.363783 -0.3073053333333333
2909361082 0.363134 -0.31401033333333334
2910846961 0.36684500000000003 -0.30825433333333335
2912332840 0.365203 -0.31166466666666665
2913818719 0.3649613333333333 -0.31098699999999996
2915304598 0.366261 -0.31822833333333334
2916790477 0.368946 -0.31528066666666665
2918276356 0.36499466666666663 -0.3194086666666667
2919762235 0.363296 -0.3153656666666667
2921248114 0.3614233333333334 -0.32024366666666665
2922733993 0.36150299999999996 -0.3162493333333333
2924219872 0.36915433333333336 -0.3175316666666667
2925705751 0.3630446666666667 -0.3242676666666666
2927191630 0.36025999999999997 -0.3213223333333333
2928677509 0.36295099999999997 -0.319988
2930163388 0.3650689999999999 -0.320012
2931649267 0.3627913333333333 -0.31966466666666665
2933135146 0.36518333333333336 -0.3165673333333333
2934621025 0.36067133333333334 -0.32056066666666666
2936106904 0.36010400000000004 -0.3194056666666667
2937592783 0.3574906666666667 -0.31864433333333336
2939078662 0.3571246666666667 -0.3187413333333333
2940564541 0.3551593333333333 -0.31748099999999996
2942050420 0.3555186666666666 -0.31952800000000003
2943536299 0.3586203333333333 -0.31952833333333336
2945022178 0.36204 -0.3187373333333334
2946508057 0.36104866666666663 -0.32078500000000004
2947993936 0.36254800000000004 -0.32150733333333337
2949479815 0.36144766666666667 -0.321655
2950965694 0.363125 -0.31977333333333335
2952451573 0.36150166666666667 -0.32309600000000005
2953937452 0.3622353333333333 -0.3205923333333333
2955423331 0.361859 -0.320125
2956909210 0.364566 -0.31940633333333335
2958395089 0.36052866666666666 -0.32134233333333334
2959880968 0.363286 -0.318353
2961366847 0.36238666666666663 -0.31623466666666666
2962852726 0.35981099999999994 -0.3161096666666667
2964338605 0.360841 -0.314544
2965824484 0.3606563333333333 -0.311765
2967310363 0.35889033333333337 -0.3107933333333333
2968796242 0.35747766666666664 -0.308867
2970282121 0.3558226666666666 -0.3076853333333333
2971768000 0.3581473333333333 -0.3093943333333333
2973253879 0.35759266666666667 -0.310327
2974739758 0.35921866666666663 -0.31208966666666665
2976225637 0.359049 -0.3113563333333333
2977711516 0.361053 -0.3134886666666667
2979197395 0.3602663333333333 -0.3135016666666666
2980683274 0.3611203333333333 -0.31275733333333333
2982169153 0.3618696666666667 -0.312816
2983655032 0.36332600000000004 -0.31203566666666666
2985140911 0.3622776666666667 -0.313684
2986626790 0.36225099999999993 -0.31203566666666666
2988112669 0.362824 -0.3104183333333333
2989598548 0.36279633333333333 -0.31052766666666665
2991084427 0.36158766666666664 -0.31214499999999995
2992570306 0.360157 -0.309868
2994056185 0.36017666666666664 -0.30963633333333335
2995542064 0.3582583333333333 -0.3080583333333334
2997027943 0.3588966666666667 -0.30291833333333334
2998513822 0.3576573333333333 -0.3024526666666667
2999999701 0.35638600000000004 -0.299732
