# HZ S RI R 50
10000 1.0499306666666666 -0.022256333333333333
1495879 0.76167 1.2535996666666667
2981758 0.576042 0.6947673333333334
4467637 0.5822113333333333 0.3278486666666666
5953516 0.651287 0.13782566666666668
7439395 0.7434123333333332 0.012610666666666666
8925274 1.057143 -0.061905999999999996
10411153 1.0972596666666667 0.03657
11897032 1.0865773333333335 0.16804933333333336
13382911 1.020213 0.2922453333333333
14868790 0.9178063333333334 0.3818336666666666
16354669 0.8051089999999999 0.42987166666666665
17840548 0.7022550000000001 0.44863600000000003
19326427 0.623287 0.4514913333333333
20812306 0.5365326666666667 0.4204826666666667
22298185 0.476859 0.396658
23784064 0.42895666666666665 0.3704673333333333
25269943 0.389619 0.3441536666666667
26755822 0.3578766666666667 0.31925033333333336
28241701 0.3320943333333333 0.295638
29727580 0.30994933333333335 0.273751
31213459 0.3202156666666667 0.25859499999999996
32699338 0.3368966666666666 0.24424533333333334
34185217 0.352581 0.23094100000000004
35671096 0.36770033333333335 0.21518099999999998
37156975 0.38328333333333336 0.19644666666666666
38642854 0.39743666666666666 0.17996666666666664
40128733 0.411739 0.15700166666666668
41614612 0.424568 0.145486
43100491 0.43831400000000004 0.12381866666666667
44586370 0.45173066666666667 0.10599433333333334
46072249 0.465593 0.082405
47558128 0.48033733333333334 0.06594966666666667
49044007 0.4965816666666667 0.04923566666666667
50529886 0.5157186666666668 0.03510733333333333
52015765 0.5377776666666666 0.0063033333333333335
53501644 0.5665876666666666 -0.011522333333333334
54987523 0.6049569999999999 -0.035664
56473402 0.6583693333333334 -0.07221100000000001
57959281 0.7461993333333333 -0.08560299999999998
59445160 0.9031233333333333 -0.060235000000000004
60931039 0.996938 -0.026351
62416918 1.0015566666666667 -0.03513866666666667
63902797 1.004296 -0.04326266666666667
65388676 1.0061159999999998 -0.05285
66874555 1.0095086666666666 -0.047884333333333334
68360434 1.005575 -0.13197
69846313 1.0138443333333333 -0.024635666666666667
71332192 1.012758 -0.030730999999999998
72818071 1.0148013333333334 -0.06254533333333333
74303950 1.016083 -0.05331333333333333
75789829 1.015848 0.014706000000000002
77275708 1.0147276666666667 0.005926
78761587 1.014113 0.012559333333333334
80247466 1.0091806666666665 -0.10325
81733345 1.0102843333333331 -0.05553433333333333
83219224 1.007902 -0.06555866666666667
84705103 1.0033566666666667 -0.09047466666666666
86190982 1.0018113333333334 0.03373466666666666
87676861 0.9974106666666667 -0.081883
89162740 0.9943313333333332 -0.056177
90648619 0.9929196666666668 -0.07351800000000001
92134498 0.995463 -0.071304
93620377 1.0005976666666667 -0.03916466666666667
95106256 1.0021906666666667 -0.065565
96592135 1.0042213333333334 -0.06478100000000002
98078014 1.0068276666666667 -0.05929199999999999
99563893 1.00814 -0.055928
101049772 1.009348 -0.06852966666666667
102535651 1.0099646666666668 -0.068607
104021530 1.0093203333333334 -0.069561
105507409 1.0094186666666667 -0.07011099999999999
106993288 1.008441666666667 -0.069835
108479167 1.008018 -0.07127100000000001
109965046 1.007044 -0.07154899999999999
111450925 1.0047016666666666 -0.07136733333333334
112936804 1.0024536666666666 -0.07155833333333333
114422683 0.9999669999999999 -0.07154566666666666
115908562 0.9964026666666667 -0.07108366666666667
117394441 0.993702 -0.07268999999999999
118880320 0.9895146666666667 -0.07196966666666667
120366199 0.9871146666666667 -0.072649
121852078 0.9917103333333334 -0.07437666666666666
123337957 0.9953143333333334 -0.07517766666666666
124823836 0.9989433333333334 -0.07684666666666667
126309715 1.0023906666666669 -0.07856333333333333
127795594 1.0045666666666666 -0.07898666666666666
129281473 1.0067363333333335 -0.079731
130767352 1.0083696666666666 -0.07883366666666668
132253231 1.0111016666666666 -0.08156933333333333
133739110 1.0120699999999998 -0.08098066666666666
135224989 0.9980903333333333 -0.09227566666666669
136710868 0.9973116666666666 -0.09250933333333333
138196747 0.997564 -0.09251066666666667
139682626 0.9966896666666667 -0.09275833333333333
141168505 0.9953083333333334 -0.09233733333333333
142654384 0.9940413333333332 -0.091845
144140263 0.9921986666666666 -0.09198333333333335
145626142 0.989602 -0.09196333333333334
147112021 0.9875096666666666 -0.09140233333333332
148597900 0.984232 -0.09168533333333333
150083779 0.9792670000000001 -0.09798366666666668
151569658 0.9855619999999999 -0.08736699999999999
153055537 0.985741 -0.10069299999999999
154541416 0.990414 -0.08915666666666666
156027295 0.9902506666666667 -0.10314833333333333
157513174 0.9946929999999999 -0.090707
158999053 0.9922593333333333 -0.10438733333333333
160484932 0.9976060000000001 -0.09286133333333335
161970811 0.9958293333333333 -0.106009
163456690 0.9980983333333334 -0.094179
164942569 0.9957760000000001 -0.10677566666666667
166428448 0.9973673333333334 -0.09464499999999999
167914327 0.9942826666666668 -0.10763733333333332
169400206 0.9962059999999999 -0.09518233333333333
170886085 0.9906956666666668 -0.108159
172371964 0.9914503333333333 -0.09658766666666667
173857843 0.987245 -0.10902099999999999
175343722 0.9834379999999999 -0.10992466666666667
176829601 0.9805193333333334 -0.11004233333333334
178315480 0.9760800000000001 -0.11150766666666667
179801359 0.9723153333333334 -0.11203400000000001
181287238 0.9763670000000001 -0.107331
182773117 0.979621 -0.10898033333333333
184258996 0.982759 -0.10933266666666668
185744875 0.9851230000000001 -0.11049833333333332
187230754 0.987329 -0.11129800000000001
188716633 0.9891306666666667 -0.11204433333333334
190202512 0.9897583333333334 -0.11292166666666666
191688391 0.990246 -0.11321233333333335
193174270 0.9911026666666668 -0.11371133333333333
194660149 0.990652 -0.114161
196146028 0.9903306666666666 -0.11434499999999999
197631907 0.988544 -0.115268
199117786 0.992324 -0.10338566666666667
200603665 0.986257 -0.116525
202089544 0.984684 -0.11721266666666667
203575423 0.9812470000000001 -0.11777633333333333
205061302 0.978465 -0.11807766666666668
206547181 0.975299 -0.12000733333333331
208033060 0.9714026666666666 -0.120484
209518939 0.9669173333333333 -0.12120333333333333
211004818 0.9689856666666666 -0.12290566666666668
212490697 0.9715986666666666 -0.124491
213976576 0.974996 -0.12481266666666667
215462455 0.9777176666666666 -0.125626
216948334 0.9795103333333334 -0.12685733333333335
218434213 0.9803649999999999 -0.12652333333333335
219920092 0.9828703333333332 -0.128055
221405971 0.9836046666666668 -0.128404
222891850 0.9838173333333332 -0.12804133333333334
224377729 0.9845093333333335 -0.12901166666666666
225863608 0.9846743333333333 -0.12959533333333334
227349487 0.9833153333333332 -0.12938799999999998
228835366 0.982272 -0.13089366666666666
230321245 0.9800276666666666 -0.13057733333333332
231807124 0.9768733333333334 -0.13090866666666667
233293003 0.978954 -0.12091766666666666
234778882 0.9714606666666666 -0.13322533333333333
236264761 0.9680373333333333 -0.13374433333333333
237750640 0.9633193333333333 -0.13489600000000002
239236519 0.9589183333333334 -0.136051
240722398 0.9582073333333332 -0.13766433333333336
242208277 0.963148 -0.13893066666666667
243694156 0.9655536666666666 -0.13977033333333333
245180035 0.9688469999999999 -0.14081066666666667
246665914 0.971567 -0.141666
248151793 0.9735183333333334 -0.14208733333333332
249637672 0.9747323333333333 -0.14246566666666668
251123551 0.9759443333333334 -0.14329566666666665
252609430 0.9767913333333333 -0.14293766666666666
254095309 0.9762476666666667 -0.14411533333333335
255581188 0.9757586666666667 -0.1444443333333333
257067067 0.9754356666666667 -0.1450813333333333
258552946 0.974147 -0.144211
260038825 0.9719356666666666 -0.145808
261524704 0.9685643333333335 -0.14691366666666666
263010583 0.9659973333333335 -0.14699933333333334
264496462 0.9633003333333333 -0.14712066666666668
265982341 0.9589880000000001 -0.147814
267468220 0.9544083333333333 -0.14854266666666668
268954099 0.9506133333333334 -0.14903633333333333
270439978 0.9480680000000001 -0.151577
271925857 0.9527543333333334 -0.15189633333333333
273411736 0.9553896666666667 -0.1536856666666667
274897615 0.958454 -0.155272
276383494 0.960978 -0.156285
277869373 0.9639123333333334 -0.15709166666666666
279355252 0.96504 -0.1574926666666667
280841131 0.9664436666666667 -0.15786566666666668
282327010 0.9681069999999999 -0.158954
283812889 0.9671973333333334 -0.159134
285298768 0.9673223333333333 -0.15995266666666666
286784647 0.9666303333333333 -0.15988
288270526 0.9648090000000001 -0.15990000000000001
289756405 0.9631753333333334 -0.158496
291242284 0.9612936666666667 -0.15954433333333334
292728163 0.9583586666666667 -0.15978
294214042 0.9547646666666666 -0.16032066666666667
295699921 0.9504586666666667 -0.16117233333333333
297185800 0.9464166666666666 -0.16122
298671679 0.9415453333333333 -0.16216266666666665
300157558 0.9377749999999999 -0.16369033333333335
301643437 0.9424579999999999 -0.16463433333333333
303129316 0.9456923333333332 -0.16704833333333333
304615195 0.948729 -0.16780399999999998
306101074 0.9510776666666666 -0.16984666666666667
307586953 0.9541796666666666 -0.17059100000000002
309072832 0.9556606666666667 -0.17153300000000002
310558711 0.9573983333333334 -0.17207166666666665
312044590 0.9577309999999999 -0.17162966666666668
313530469 0.9593913333333334 -0.17264966666666667
315016348 0.9589016666666667 -0.17330466666666666
316502227 0.9569903333333333 -0.172198
317988106 0.9569026666666667 -0.17353933333333335
319473985 0.955187 -0.17317300000000002
320959864 0.9526876666666667 -0.1734713333333333
322445743 0.9498623333333334 -0.172685
323931622 0.94745 -0.17383966666666664
325417501 0.9424699999999998 -0.1723313333333333
326903380 0.9385833333333333 -0.17317700000000003
328389259 0.934438 -0.17181666666666665
329875138 0.9324986666666666 -0.163243
331361017 0.9362546666666667 -0.16504966666666668
332846896 0.9400996666666667 -0.16783499999999998
334332775 0.9421966666666668 -0.16811066666666666
335818654 0.9451996666666668 -0.170718
337304533 0.9468266666666668 -0.17154000000000003
338790412 0.9489206666666666 -0.17226833333333333
340276291 0.9497933333333334 -0.17263933333333334
341762170 0.9503916666666666 -0.17243233333333333
343248049 0.9508003333333334 -0.174407
344733928 0.9501033333333333 -0.17435066666666668
346219807 0.9492083333333334 -0.17397733333333334
347705686 0.9478386666666667 -0.175276
349191565 0.9459783333333333 -0.17511066666666666
350677444 0.9441176666666667 -0.175002
352163323 0.9407246666666667 -0.17449099999999998
353649202 0.933675 -0.18496800000000002
355135081 0.929652 -0.18537266666666666
356620960 0.9259123333333333 -0.18641066666666664
358106839 0.9197546666666666 -0.18598033333333333
359592718 0.9142206666666667 -0.18584966666666666
361078597 0.9161576666666668 -0.187442
362564476 0.9196080000000001 -0.190049
364050355 0.92223 -0.19210266666666667
365536234 0.9249510000000001 -0.19375466666666666
367022113 0.9277289999999999 -0.19447366666666666
368507992 0.9297210000000001 -0.19584833333333332
369993871 0.9310583333333332 -0.1959253333333333
371479750 0.9326073333333333 -0.19709966666666667
372965629 0.9338803333333333 -0.1925066666666667
374451508 0.9321763333333334 -0.1970076666666667
375937387 0.9320206666666667 -0.19775166666666666
377423266 0.9315843333333333 -0.19773133333333334
378909145 0.9290883333333334 -0.19847233333333333
380395024 0.929477 -0.19186099999999998
381880903 0.9254533333333334 -0.196721
383366782 0.9225666666666666 -0.19662300000000002
384852661 0.9193813333333333 -0.19569133333333333
386338540 0.9155676666666667 -0.19541333333333333
387824419 0.9107976666666667 -0.19583166666666665
389310298 0.9064586666666666 -0.19494766666666666
390796177 0.9063013333333334 -0.19560100000000002
392282056 0.908637 -0.19815333333333332
393767935 0.9111940000000001 -0.19981166666666664
395253814 0.914082 -0.2009186666666667
396739693 0.916446 -0.203496
398225572 0.9180606666666667 -0.2034073333333333
399711451 0.9194846666666666 -0.2048243333333333
401197330 0.9202046666666667 -0.20512966666666665
402683209 0.9210266666666667 -0.205246
404169088 0.920957 -0.20572933333333332
405654967 0.920175 -0.205419
407140846 0.9192809999999999 -0.205568
408626725 0.9180969999999999 -0.20637133333333335
410112604 0.9162776666666668 -0.20557666666666666
411598483 0.914044 -0.20528833333333332
413084362 0.9118053333333335 -0.205268
414570241 0.9079959999999999 -0.2042763333333333
416056120 0.9045543333333335 -0.20278366666666667
417541999 0.9004503333333332 -0.20301466666666668
419027878 0.8963733333333334 -0.20303533333333335
420513757 0.8942039999999999 -0.20179633333333333
421999636 0.8975753333333335 -0.205391
423485515 0.8997026666666668 -0.20695666666666668
424971394 0.9020686666666666 -0.20803466666666667
426457273 0.9042273333333334 -0.209475
427943152 0.9061170000000001 -0.21031233333333332
429429031 0.9075989999999999 -0.212472
430914910 0.9078206666666667 -0.21277133333333334
432400789 0.9083266666666666 -0.21338133333333334
433886668 0.9088933333333333 -0.21375033333333335
435372547 0.9079669999999999 -0.21405566666666667
436858426 0.9080013333333333 -0.21348166666666665
438344305 0.906612 -0.21353133333333332
439830184 0.90544 -0.213287
441316063 0.9031506666666665 -0.21324666666666667
442801942 0.9006976666666667 -0.21177566666666667
444287821 0.897322 -0.21206199999999997
445773700 0.8946576666666667 -0.21229466666666666
447259579 0.890281 -0.21103366666666667
448745458 0.8860966666666666 -0.21121733333333334
450231337 0.8826436666666666 -0.21085500000000001
451717216 0.8862740000000001 -0.21246666666666666
453203095 0.88949 -0.21518466666666666
454688974 0.8913963333333333 -0.216418
456174853 0.8932920000000001 -0.21691066666666667
457660732 0.894825 -0.21902266666666667
459146611 0.895191 -0.21946266666666667
460632490 0.8963363333333333 -0.21978466666666666
462118369 0.895886 -0.22012733333333334
463604248 0.895902 -0.21986866666666668
465090127 0.8964270000000001 -0.22101033333333334
466576006 0.896354 -0.22064566666666666
468061885 0.8954816666666666 -0.22029966666666667
469547764 0.8542196666666667 -0.2005336666666667
471033643 0.8921996666666666 -0.21855466666666667
472519522 0.8895526666666668 -0.218784
474005401 0.886616 -0.21878033333333333
475491280 0.883206 -0.21783633333333333
476977159 0.879409 -0.21732466666666664
478463038 0.8753543333333335 -0.21784099999999998
479948917 0.8718133333333333 -0.21563633333333332
481434796 0.8739376666666666 -0.21914433333333336
482920675 0.8763329999999999 -0.22013966666666665
484406554 0.8794590000000001 -0.22198433333333334
485892433 0.8821773333333334 -0.22213833333333333
487378312 0.8837283333333333 -0.22408733333333333
488864191 0.8848356666666666 -0.22339566666666666
490350070 0.886103 -0.22456299999999998
491835949 0.8866236666666666 -0.22550933333333334
493321828 0.8870423333333334 -0.22477633333333333
494807707 0.8862463333333332 -0.22453633333333334
496293586 0.886086 -0.22542933333333334
497779465 0.8845296666666668 -0.22421033333333332
499265344 0.8842163333333334 -0.22480933333333333
500751223 0.8817326666666667 -0.2242666666666667
502237102 0.8801636666666667 -0.223244
503722981 0.8772159999999999 -0.223178
505208860 0.8734683333333333 -0.22298666666666667
506694739 0.8712823333333333 -0.22231599999999999
508180618 0.8662466666666667 -0.22224433333333335
509666497 0.8621126666666666 -0.22277933333333333
511152376 0.8632799999999999 -0.22258933333333333
512638255 0.8663973333333334 -0.22471166666666667
514124134 0.8700003333333334 -0.22554733333333332
515610013 0.8710936666666665 -0.22635866666666668
517095892 0.8736240000000001 -0.22813933333333333
518581771 0.8753063333333334 -0.22790566666666667
520067650 0.8761693333333334 -0.2276716666666667
521553529 0.8768953333333332 -0.22763966666666668
523039408 0.921674 -0.22070733333333334
524525287 0.8767673333333335 -0.22937300000000002
526011166 0.8768583333333333 -0.2286986666666667
527497045 0.875753 -0.22915033333333334
528982924 0.8744696666666667 -0.2282793333333333
530468803 0.8714770000000001 -0.2282253333333333
531954682 0.8706503333333333 -0.228492
533440561 0.8763373333333334 -0.21453133333333332
534926440 0.8634553333333334 -0.22699233333333335
536412319 0.860688 -0.227293
537898198 0.8579756666666666 -0.22696666666666668
539384077 0.8522013333333334 -0.2266693333333333
540869956 0.852507 -0.22705333333333333
542355835 0.8551396666666666 -0.22889
543841714 0.857367 -0.22802699999999998
545327593 0.8597293333333335 -0.22938366666666668
546813472 0.8604379999999999 -0.2289393333333333
548299351 0.861631 -0.22858566666666666
549785230 0.862853 -0.22904733333333335
551271109 0.8630049999999999 -0.22888966666666666
552756988 0.8628813333333333 -0.227685
554242867 0.8632733333333333 -0.22656600000000002
555728746 0.8617469999999999 -0.22746866666666668
557214625 0.8606919999999999 -0.22541033333333335
558700504 0.8587593333333334 -0.22495566666666666
560186383 0.8557106666666666 -0.22490833333333335
561672262 0.8522466666666667 -0.22196566666666664
563158141 0.8489143333333334 -0.223245
564644020 0.8450933333333333 -0.221581
566129899 0.8422073333333334 -0.22064333333333333
567615778 0.8383946666666667 -0.219795
569101657 0.8323696666666667 -0.21811333333333335
570587536 0.8316583333333334 -0.21989433333333333
572073415 0.8344593333333332 -0.22234666666666666
573559294 0.8365943333333332 -0.22511500000000004
575045173 0.8392253333333333 -0.22709533333333334
576531052 0.841453 -0.22968233333333335
578016931 0.8446346666666665 -0.23017533333333332
579502810 0.8449563333333333 -0.23210733333333333
580988689 0.8460773333333332 -0.23163133333333333
582474568 0.846266 -0.23421899999999998
583960447 0.847006 -0.2350386666666667
585446326 0.847571 -0.23606666666666667
586932205 0.8477709999999999 -0.23619633333333334
588418084 0.845951 -0.23701366666666665
589903963 0.8447270000000001 -0.236201
591389842 0.8434900000000001 -0.23706266666666667
592875721 0.841293 -0.2376653333333333
594361600 0.8381973333333333 -0.237413
595847479 0.835442 -0.2379146666666667
597333358 0.8314126666666667 -0.2374423333333333
598819237 0.8278853333333333 -0.23753866666666665
600305116 0.8249270000000001 -0.24006633333333335
601790995 0.8287966666666667 -0.241941
603276874 0.8321863333333334 -0.24230033333333334
604762753 0.8344353333333334 -0.24519466666666667
606248632 0.837504 -0.24634233333333336
607734511 0.8393533333333334 -0.247228
609220390 0.8412913333333334 -0.2486056666666667
610706269 0.8421876666666668 -0.24776733333333334
612192148 0.8442276666666667 -0.24821866666666667
613678027 0.8431473333333335 -0.24853099999999997
615163906 0.8440653333333333 -0.24775400000000003
616649785 0.8425036666666667 -0.249247
618135664 0.8426626666666667 -0.2480163333333333
619621543 0.8412736666666666 -0.24682300000000001
621107422 0.8395203333333333 -0.24567033333333335
622593301 0.8372236666666666 -0.2447073333333333
624079180 0.8348176666666666 -0.24550866666666668
625565059 0.826641 -0.2540503333333333
627050938 0.8252906666666666 -0.24643566666666664
628536817 0.8237533333333333 -0.241266
630022696 0.819061 -0.2420783333333333
631508575 0.8233246666666667 -0.24244033333333337
632994454 0.8257786666666668 -0.24508866666666665
634480333 0.8289626666666666 -0.247107
635966212 0.8307243333333334 -0.24780166666666667
637452091 0.8337563333333334 -0.248596
638937970 0.8347656666666667 -0.249296
640423849 0.8354416666666666 -0.25081766666666666
641909728 0.8367489999999999 -0.25097533333333333
643395607 0.8370463333333333 -0.24977133333333332
644881486 0.8412356666666666 -0.24083533333333332
646367365 0.8367469999999999 -0.25045466666666666
647853244 0.8362210000000001 -0.2500096666666667
649339123 0.8331553333333334 -0.249819
650825002 0.8331529999999999 -0.24754566666666666
652310881 0.8397696666666667 -0.22865599999999997
653796760 0.8271383333333334 -0.24724
655282639 0.824649 -0.24537299999999998
656768518 0.821287 -0.244412
658254397 0.8180486666666665 -0.2438376666666667
659740276 0.8129516666666667 -0.24322
661226155 0.8154086666666668 -0.24410466666666664
662712034 0.8176936666666667 -0.24651533333333334
664197913 0.8210816666666666 -0.24703033333333332
665683792 0.8224906666666666 -0.24746
667169671 0.823779 -0.2489336666666667
668655550 0.8254296666666666 -0.24959699999999999
670141429 0.8267786666666667 -0.24945433333333333
671627308 0.8278283333333333 -0.248873
673113187 0.8284533333333334 -0.24812533333333334
674599066 0.8282680000000001 -0.248059
676084945 0.8283536666666667 -0.24839466666666665
677570824 0.8267936666666666 -0.24654866666666667
679056703 0.8200423333333333 -0.2529966666666667
680542582 0.8237396666666666 -0.24450233333333335
682028461 0.8210716666666666 -0.24423033333333333
683514340 0.819073 -0.24205000000000002
685000219 0.8161836666666668 -0.240927
686486098 0.8119243333333334 -0.23983866666666667
687971977 0.8083793333333333 -0.23703766666666667
689457856 0.8044936666666667 -0.23714099999999996
690943735 0.804193 -0.2383086666666667
692429614 0.8074226666666666 -0.23987
693915493 0.8087840000000001 -0.24207
695401372 0.809217 -0.24520833333333333
696887251 0.8118236666666666 -0.24428666666666668
698373130 0.813751 -0.24433300000000002
699859009 0.8142203333333334 -0.2458526666666667
701344888 0.8150763333333333 -0.24907166666666666
702830767 0.814631 -0.2500693333333333
704316646 0.814429 -0.24896666666666667
705802525 0.8148973333333333 -0.24933866666666668
707288404 0.813704 -0.24888933333333338
708774283 0.8117576666666667 -0.25091100000000005
710260162 0.810463 -0.25040466666666666
711746041 0.809538 -0.24916266666666664
713231920 0.8065246666666667 -0.2506293333333333
714717799 0.8040569999999999 -0.2480903333333333
716203678 0.8002866666666666 -0.248385
717689557 0.7984110000000001 -0.24791
719175436 0.7941383333333333 -0.24773733333333334
720661315 0.7926393333333334 -0.24890500000000002
722147194 0.7966116666666667 -0.251813
723633073 0.7977249999999999 -0.25243600000000005
725118952 0.7984590000000001 -0.254093
726604831 0.8015796666666667 -0.25410933333333335
728090710 0.8022999999999999 -0.2543033333333333
729576589 0.8042416666666666 -0.2562136666666667
731062468 0.8049363333333334 -0.256027
732548347 0.8053773333333334 -0.256173
734034226 0.805018 -0.2548816666666667
735520105 0.8058540000000001 -0.25534233333333334
737005984 0.8044549999999999 -0.25715233333333337
738491863 0.8038893333333333 -0.257088
739977742 0.8026946666666667 -0.25059133333333333
741463621 0.7991163333333334 -0.26062233333333334
742949500 0.8004060000000001 -0.24983100000000003
744435379 0.7937173333333334 -0.25770866666666664
745921258 0.7954223333333333 -0.24814100000000003
747407137 0.789482 -0.2538116666666667
748893016 0.7897270000000001 -0.245599
750378895 0.7849126666666666 -0.25326733333333334
751864774 0.7873556666666667 -0.25451033333333334
753350653 0.7921883333333334 -0.254242
754836532 0.790304 -0.2559403333333334
756322411 0.792402 -0.25900833333333334
757808290 0.7945639999999999 -0.2592353333333333
759294169 0.7964066666666666 -0.257139
760780048 0.7957756666666667 -0.259474
762265927 0.7952136666666667 -0.259008
763751806 0.795956 -0.2606406666666667
765237685 0.7970663333333333 -0.2587173333333333
766723564 0.7947603333333332 -0.25755
768209443 0.7941443333333332 -0.2589266666666667
769695322 0.7927883333333333 -0.26071133333333335
771181201 0.7906279999999999 -0.2579726666666667
772667080 0.7888820000000001 -0.2567146666666667
774152959 0.7867293333333333 -0.2567536666666667
775638838 0.7823703333333333 -0.25495466666666666
777124717 0.8215359999999999 -0.27590200000000004
778610596 0.776766 -0.254955
780096475 0.7739663333333332 -0.25384233333333334
781582354 0.7770026666666666 -0.25597166666666665
783068233 0.7790713333333333 -0.257187
784554112 0.78137 -0.25750566666666663
786039991 0.783868 -0.25898899999999997
787525870 0.7856316666666666 -0.259611
789011749 0.7851333333333333 -0.2602876666666667
790497628 0.7897959999999999 -0.2589066666666667
791983507 0.7879816666666666 -0.26045433333333334
793469386 0.789307 -0.261588
794955265 0.7898156666666667 -0.2598333333333333
796441144 0.7900866666666667 -0.2586026666666667
797927023 0.788897 -0.258121
799412902 0.7941516666666667 -0.2499273333333333
800898781 0.786721 -0.2551636666666666
802384660 0.7859933333333333 -0.254587
803870539 0.7822993333333333 -0.2548836666666667
805356418 0.7800190000000001 -0.25396199999999997
806842297 0.7767383333333333 -0.2518586666666667
808328176 0.7732450000000001 -0.251907
809814055 0.7690373333333334 -0.2509536666666667
811299934 0.7709393333333333 -0.2530076666666667
812785813 0.773412 -0.256002
814271692 0.7764183333333333 -0.2561346666666667
815757571 0.777724 -0.25758533333333333
817243450 0.7786516666666666 -0.260247
818729329 0.7805626666666666 -0.259845
820215208 0.7816406666666667 -0.260593
821701087 0.7820103333333334 -0.26063933333333333
823186966 0.7838473333333332 -0.26000433333333334
824672845 0.7832786666666666 -0.26018600000000003
826158724 0.7831579999999999 -0.2610173333333333
827644603 0.7812333333333333 -0.26089366666666663
829130482 0.7801003333333334 -0.2606946666666667
830616361 0.7791856666666668 -0.2611676666666667
832102240 0.775957 -0.26198699999999997
833588119 0.774622 -0.26039266666666666
835073998 0.7721446666666667 -0.25883866666666666
836559877 0.7688553333333333 -0.2600153333333333
838045756 0.76608 -0.2584553333333333
839531635 0.761766 -0.258079
841017514 0.7623913333333334 -0.25957633333333335
842503393 0.7648736666666668 -0.262552
843989272 0.7670396666666667 -0.26323666666666673
845475151 0.7698063333333334 -0.264633
846961030 0.7712479999999999 -0.26505633333333334
848446909 0.7731149999999999 -0.26502800000000004
849932788 0.774289 -0.26694999999999997
851418667 0.7753726666666667 -0.26547499999999996
852904546 0.7752423333333334 -0.26780366666666666
854390425 0.7759366666666666 -0.26516233333333333
855876304 0.775832 -0.26509066666666664
857362183 0.7747536666666667 -0.2662653333333333
858848062 0.7731313333333333 -0.26475066666666663
860333941 0.7714686666666667 -0.2652693333333333
861819820 0.7702586666666668 -0.26506
863305699 0.7678993333333333 -0.26350066666666666
864791578 0.7641913333333333 -0.26353333333333334
866277457 0.7624749999999999 -0.2608236666666666
867763336 0.758771 -0.26032066666666664
869249215 0.7546256666666666 -0.26030499999999995
870735094 0.7536433333333333 -0.2604066666666667
872220973 0.756685 -0.2625773333333334
873706852 0.7580006666666667 -0.26456
875192731 0.761666 -0.2651696666666667
876678610 0.7629353333333334 -0.26775699999999997
878164489 0.7656526666666666 -0.26705
879650368 0.7671486666666666 -0.267855
881136247 0.7675813333333332 -0.26811833333333335
882622126 0.769108 -0.267204
884108005 0.7686156666666667 -0.26818366666666665
885593884 0.7688403333333333 -0.2675186666666667
887079763 0.7671336666666666 -0.26657366666666665
888565642 0.766769 -0.265631
890051521 0.7656623333333333 -0.266127
891537400 0.7626143333333334 -0.26531699999999997
893023279 0.7607713333333334 -0.2658716666666667
894509158 0.7595593333333333 -0.2640733333333333
895995037 0.7563939999999999 -0.26231866666666664
897480916 0.7525049999999999 -0.26189233333333334
898966795 0.7495636666666666 -0.2603003333333333
900452674 0.7455313333333334 -0.2624936666666667
901938553 0.7496396666666666 -0.263317
903424432 0.7514733333333333 -0.2649646666666667
904910311 0.7526809999999999 -0.266648
906396190 0.75567 -0.26721466666666666
907882069 0.7573763333333333 -0.26787733333333336
909367948 0.7586526666666668 -0.27030099999999996
910853827 0.7588323333333333 -0.271338
912339706 0.7595996666666666 -0.27091333333333334
913825585 0.7589260000000001 -0.270961
915311464 0.760101 -0.268173
916797343 0.7580816666666667 -0.27187066666666665
918283222 0.756799 -0.26949599999999996
919769101 0.7561656666666666 -0.26899433333333334
921254980 0.7541436666666667 -0.2692343333333333
922740859 0.752984 -0.26821633333333333
924226738 0.7501716666666667 -0.26630399999999993
925712617 0.747446 -0.26437933333333336
927198496 0.7443396666666665 -0.263695
928684375 0.7410640000000001 -0.26128766666666664
930170254 0.737826 -0.26148566666666667
931656133 0.7397773333333334 -0.26397
933142012 0.7436409999999999 -0.264594
934627891 0.7456943333333333 -0.2671733333333333
936113770 0.7472166666666666 -0.26719866666666664
937599649 0.7488483333333334 -0.2697213333333333
939085528 0.750431 -0.2693026666666667
940571407 0.7490223333333333 -0.274916
942057286 0.752171 -0.2712126666666666
943543165 0.7513056666666666 -0.27231733333333336
945029044 0.7538486666666667 -0.2702673333333333
946514923 0.7523799999999999 -0.2704146666666667
948000802 0.7519226666666666 -0.26867266666666667
949486681 0.7510473333333333 -0.2685496666666667
950972560 0.7507553333333333 -0.2660206666666666
952458439 0.7490979999999999 -0.26693866666666666
953944318 0.7486676666666666 -0.2583233333333333
955430197 0.7439556666666666 -0.26323633333333335
956916076 0.7417236666666667 -0.2601203333333333
958401955 0.7392326666666668 -0.2594126666666667
959887834 0.7360130000000001 -0.258387
961373713 0.737403 -0.25927700000000004
962859592 0.739312 -0.2619416666666667
964345471 0.7409823333333333 -0.26310666666666666
965831350 0.743502 -0.26430766666666666
967317229 0.7430720000000001 -0.26630000000000004
968803108 0.7449556666666667 -0.26691899999999996
970288987 0.7461713333333333 -0.267393
971774866 0.74713 -0.26701899999999995
973260745 0.7138093333333333 -0.2710426666666667
974746624 0.7477706666666667 -0.26723199999999997
976232503 0.7469873333333332 -0.265824
977718382 0.7456079999999999 -0.26724499999999995
979204261 0.7455993333333333 -0.26690166666666665
980690140 0.744189 -0.26722700000000005
982176019 0.741962 -0.265842
983661898 0.7414616666666666 -0.265113
985147777 0.7383489999999999 -0.26373
986633656 0.7368856666666667 -0.26254933333333336
988119535 0.7346926666666667 -0.26025766666666666
989605414 0.7307803333333333 -0.2602676666666666
991091293 0.7310873333333333 -0.26211866666666667
992577172 0.7332443333333334 -0.26117300000000004
994063051 0.7349686666666667 -0.2631586666666667
995548930 0.7370033333333333 -0.26633900000000005
997034809 0.7379403333333333 -0.2668256666666667
998520688 0.7386696666666667 -0.267395
1000006567 0.739348 -0.26685966666666666
1001492446 0.7407923333333333 -0.26538533333333336
1002978325 0.7407020000000001 -0.26706966666666665
1004464204 0.7404416666666668 -0.2688373333333333
1005950083 0.7400880000000001 -0.265451
1007435962 0.739259 -0.26469766666666666
1008921841 0.7381423333333333 -0.26694966666666664
1010407720 0.7375896666666666 -0.2661813333333333
1011893599 0.7357503333333334 -0.2655706666666667
1013379478 0.7337706666666666 -0.2642103333333334
1014865357 0.7315186666666667 -0.2629166666666667
1016351236 0.7288713333333333 -0.26143299999999997
1017837115 0.726763 -0.2604
1019322994 0.7226873333333333 -0.2599803333333333
1020808873 0.7221546666666666 -0.260971
1022294752 0.7244769999999999 -0.262586
1023780631 0.7262956666666667 -0.26398000000000005
1025266510 0.727604 -0.26452333333333333
1026752389 0.7296333333333332 -0.2654743333333333
1028238268 0.7305556666666666 -0.26710000000000006
1029724147 0.731938 -0.265442
1031210026 0.73202 -0.26646
1032695905 0.733807 -0.2662316666666667
1034181784 0.7332363333333335 -0.26565066666666665
1035667663 0.732903 -0.26611633333333334
1037153542 0.732797 -0.2661926666666667
1038639421 0.7323550000000001 -0.2659746666666667
1040125300 0.7308119999999999 -0.26508
1041611179 0.7286546666666666 -0.26524233333333336
1043097058 0.7274506666666668 -0.26502266666666663
1044582937 0.725153 -0.26434699999999994
1046068816 0.7226846666666665 -0.26368166666666665
1047554695 0.7204773333333333 -0.2617663333333333
1049040574 0.7174126666666667 -0.26036366666666666
1050526453 0.7178343333333334 -0.2588993333333333
1052012332 0.7197483333333334 -0.26149
1053498211 0.7223546666666666 -0.262934
1054984090 0.7240496666666667 -0.26390766666666665
1056469969 0.7265893333333334 -0.2647186666666666
1057955848 0.7271403333333334 -0.2651786666666667
1059441727 0.7283629999999999 -0.2650923333333333
1060927606 0.7298813333333333 -0.2660473333333333
1062413485 0.7307589999999999 -0.26435666666666663
1063899364 0.7307933333333333 -0.2658046666666667
1065385243 0.729148 -0.2681713333333333
1066871122 0.729788 -0.26781
1068357001 0.7296996666666665 -0.265524
1069842880 0.7280883333333333 -0.2642073333333333
1071328759 0.7273493333333333 -0.262073
1072814638 0.7257993333333334 -0.2627446666666667
1074300517 0.7228020000000001 -0.26295433333333335
1075786396 0.721097 -0.262453
1077272275 0.7121713333333334 -0.2689283333333333
1078758154 0.7159186666666667 -0.25994933333333337
1080244033 0.713194 -0.26047366666666666
1081729912 0.7147476666666668 -0.26155033333333333
1083215791 0.7176566666666667 -0.2638163333333333
1084701670 0.7197273333333333 -0.2642856666666667
1086187549 0.7220356666666667 -0.26373966666666665
1087673428 0.7244263333333333 -0.2644126666666667
1089159307 0.7251373333333332 -0.26504466666666665
1090645186 0.7261356666666666 -0.26541200000000004
1092131065 0.726267 -0.26474966666666666
1093616944 0.7267526666666666 -0.26439033333333334
1095102823 0.7276220000000001 -0.26390433333333335
1096588702 0.725488 -0.2655153333333333
1098074581 0.7255436666666665 -0.2637933333333334
1099560460 0.7258463333333333 -0.2618396666666667
1101046339 0.7254146666666667 -0.25897433333333336
1102532218 0.7209790000000001 -0.2625113333333334
1104018097 0.7183113333333333 -0.2608916666666667
1105503976 0.7166656666666666 -0.25994066666666665
1106989855 0.7152963333333334 -0.2573293333333333
1108475734 0.7123423333333333 -0.256405
1109961613 0.7081316666666667 -0.25684833333333335
1111447492 0.708417 -0.25972333333333336
1112933371 0.7130036666666667 -0.2609033333333333
1114419250 0.712892 -0.26144566666666663
1115905129 0.7168993333333334 -0.263042
1117391008 0.7181139999999999 -0.26297766666666667
1118876887 0.71915 -0.26407699999999995
1120362766 0.7215029999999999 -0.26307600000000003
1121848645 0.7207446666666667 -0.265824
1123334524 0.7215656666666667 -0.2650586666666667
1124820403 0.7214139999999999 -0.26344866666666666
1126306282 0.721209 -0.2662263333333333
1127792161 0.7206256666666667 -0.2647913333333333
1129278040 0.7175936666666667 -0.267647
1130763919 0.7184560000000001 -0.26491266666666663
1132249798 0.7131223333333333 -0.2627333333333333
1133735677 0.7146379999999999 -0.2612626666666667
1135221556 0.7113079999999999 -0.262378
1136707435 0.7097526666666667 -0.26233866666666666
1138193314 0.705749 -0.26259499999999997
1139679193 0.703112 -0.25928599999999996
1141165072 0.7039226666666666 -0.25869400000000004
1142650951 0.7078730000000001 -0.26038
1144136830 0.7097653333333334 -0.26547566666666667
1145622709 0.7105940000000001 -0.26581366666666667
1147108588 0.712457 -0.266401
1148594467 0.7144986666666666 -0.2679996666666667
1150080346 0.7153936666666666 -0.2698986666666667
1151566225 0.7155426666666665 -0.26729833333333336
1153052104 0.7160083333333332 -0.2684346666666667
1154537983 0.7170266666666666 -0.26825233333333337
1156023862 0.7159719999999999 -0.26799166666666663
1157509741 0.7156513333333333 -0.266345
1158995620 0.7142593333333332 -0.26798666666666665
1160481499 0.714063 -0.2649976666666667
1161967378 0.7118656666666667 -0.26297566666666666
1163453257 0.7088383333333335 -0.262963
1164939136 0.7061736666666666 -0.2642596666666666
1166425015 0.702638 -0.26464566666666667
1167910894 0.699755 -0.26360066666666665
1169396773 0.6981913333333334 -0.2608536666666667
1170882652 0.6979253333333334 -0.26269433333333336
1172368531 0.7000263333333333 -0.2646943333333333
1173854410 0.7025576666666667 -0.26387
1175340289 0.7030280000000001 -0.26664166666666667
1176826168 0.7059099999999999 -0.26802033333333336
1178312047 0.7058286666666667 -0.26887733333333336
1179797926 0.7083926666666667 -0.2670413333333333
1181283805 0.7066913333333332 -0.268594
1182769684 0.7077493333333332 -0.2696036666666667
1184255563 0.707639 -0.27006066666666667
1185741442 0.7069666666666666 -0.2694823333333333
1187227321 0.7066193333333333 -0.26750466666666667
1188713200 0.7041516666666667 -0.26850166666666664
1190199079 0.7039713333333334 -0.26901533333333333
1191684958 0.7012403333333332 -0.2669456666666667
1193170837 0.6998613333333333 -0.26668400000000003
1194656716 0.6955873333333332 -0.26666266666666666
1196142595 0.6931213333333334 -0.26470866666666665
1197628474 0.689812 -0.2668053333333333
1199114353 0.6856253333333333 -0.264492
1200600232 0.6857646666666667 -0.2654786666666667
1202086111 0.6891060000000001 -0.26725933333333335
1203571990 0.691713 -0.26922266666666667
1205057869 0.694975 -0.2693423333333333
1206543748 0.696846 -0.2707446666666667
1208029627 0.6982126666666666 -0.27043766666666663
1209515506 0.7000433333333334 -0.2708173333333333
1211001385 0.7018376666666667 -0.2711883333333333
1212487264 0.7015199999999999 -0.27323933333333333
1213973143 0.7037460000000001 -0.26990166666666665
1215459022 0.7041153333333333 -0.27055333333333337
1216944901 0.704132 -0.26979166666666665
1218430780 0.7023670000000001 -0.27056233333333335
1219916659 0.7002723333333334 -0.27287666666666666
1221402538 0.7007693333333332 -0.267064
1222888417 0.6978706666666668 -0.2683556666666667
1224374296 0.6970126666666667 -0.26557499999999995
1225860175 0.6928869999999999 -0.265531
1227346054 0.6974459999999999 -0.2558376666666667
1228831933 0.688716 -0.26214200000000004
1230317812 0.6847336666666667 -0.26119033333333336
1231803691 0.6884633333333333 -0.26435499999999995
1233289570 0.691169 -0.264835
1234775449 0.693332 -0.2650303333333333
1236261328 0.6952986666666666 -0.26679033333333335
1237747207 0.696768 -0.26619966666666667
1239233086 0.698103 -0.26645266666666667
1240718965 0.6977863333333333 -0.26872133333333337
1242204844 0.6984893333333334 -0.26725666666666664
1243690723 0.6992406666666667 -0.26683866666666667
1245176602 0.6987473333333334 -0.26606466666666667
1246662481 0.6994033333333333 -0.2647043333333333
1248148360 0.6981686666666667 -0.2628553333333334
1249634239 0.6960286666666667 -0.26455233333333333
1251120118 0.6948956666666666 -0.26286400000000004
1252605997 0.6941226666666666 -0.25916333333333336
1254091876 0.6905636666666667 -0.2594106666666667
1255577755 0.6870356666666666 -0.259139
1257063634 0.6836616666666666 -0.25832133333333335
1258549513 0.6812516666666667 -0.2557603333333333
1260035392 0.6768233333333334 -0.25514966666666666
1261521271 0.6790443333333332 -0.25714266666666663
1263007150 0.681622 -0.258778
1264493029 0.682845 -0.25926066666666664
1265978908 0.6847683333333334 -0.260815
1267464787 0.6858813333333332 -0.2640896666666666
1268950666 0.6870573333333333 -0.26410266666666665
1270436545 0.6863736666666665 -0.269193
1271922424 0.6891856666666666 -0.2629806666666667
1273408303 0.6889703333333334 -0.265401
1274894182 0.6891473333333332 -0.26522033333333334
1276380061 0.6882803333333335 -0.26592233333333337
1277865940 0.6870940000000001 -0.26771633333333333
1279351819 0.6866136666666667 -0.26806199999999997
1280837698 0.652178 -0.27158499999999997
1282323577 0.6837326666666667 -0.2668816666666667
1283809456 0.6818656666666666 -0.26565833333333333
1285295335 0.6792400000000001 -0.26541200000000004
1286781214 0.6767513333333334 -0.26383166666666663
1288267093 0.6750976666666667 -0.2624633333333333
1289752972 0.6723189999999999 -0.26611433333333334
1291238851 0.6722353333333334 -0.2670063333333333
1292724730 0.6758146666666667 -0.2667333333333333
1294210609 0.6775606666666666 -0.2677466666666667
1295696488 0.67907 -0.2693716666666667
1297182367 0.680431 -0.26913366666666666
1298668246 0.6836963333333334 -0.2664223333333333
1300154125 0.6830066666666667 -0.269028
1301640004 0.685904 -0.2674413333333333
1303125883 0.684295 -0.27054666666666666
1304611762 0.6870873333333334 -0.26759666666666665
1306097641 0.6858000000000001 -0.26829600000000003
1307583520 0.6854330000000001 -0.2656163333333334
1309069399 0.684897 -0.266528
1310555278 0.684179 -0.262577
1312041157 0.6833556666666668 -0.2626886666666666
1313527036 0.680235 -0.26075133333333333
1315012915 0.6814636666666667 -0.2570126666666667
1316498794 0.6764133333333334 -0.2566443333333333
1317984673 0.6762913333333334 -0.25384433333333334
1319470552 0.6708599999999999 -0.25413833333333335
1320956431 0.6711969999999999 -0.254087
1322442310 0.6748093333333333 -0.2573746666666667
1323928189 0.675029 -0.25988666666666665
1325414068 0.678848 -0.25635199999999997
1326899947 0.680282 -0.26040899999999995
1328385826 0.6820539999999999 -0.261597
1329871705 0.6821933333333333 -0.2617666666666667
1331357584 0.6841063333333333 -0.26291400000000004
1332843463 0.6832833333333332 -0.26094766666666663
1334329342 0.6858719999999999 -0.263268
1335815221 0.684117 -0.26282999999999995
1337301100 0.6842743333333333 -0.26088833333333333
1338786979 0.6833640000000001 -0.2620386666666667
1340272858 0.6822246666666666 -0.26468033333333335
1341758737 0.6815386666666666 -0.2635983333333333
1343244616 0.6809883333333334 -0.26191666666666663
1344730495 0.6787186666666667 -0.26026499999999997
1346216374 0.6765463333333334 -0.25830033333333335
1347702253 0.6742866666666666 -0.25678366666666663
1349188132 0.6723286666666667 -0.2590726666666667
1350674011 0.6732846666666666 -0.2560886666666667
1352159890 0.6753049999999999 -0.25640233333333334
1353645769 0.6756813333333334 -0.26045500000000005
1355131648 0.6749233333333334 -0.25935733333333333
1356617527 0.6761163333333334 -0.26211
1358103406 0.6767743333333334 -0.26287
1359589285 0.6775386666666666 -0.26213000000000003
1361075164 0.6771893333333333 -0.2636753333333333
1362561043 0.6775246666666667 -0.2633466666666667
1364046922 0.6757996666666667 -0.266638
1365532801 0.676329 -0.264742
1367018680 0.6748006666666667 -0.266944
1368504559 0.6746513333333333 -0.26824066666666674
1369990438 0.669708 -0.26591800000000004
1371476317 0.6689876666666666 -0.2662713333333333
1372962196 0.666303 -0.2678156666666667
1374448075 0.6659476666666666 -0.2651813333333333
1375933954 0.664916 -0.26759166666666667
1377419833 0.6598136666666666 -0.26665066666666665
1378905712 0.656894 -0.2668703333333333
1380391591 0.6559203333333333 -0.2655713333333333
1381877470 0.66107 -0.262758
1383363349 0.6618603333333334 -0.2675923333333333
1384849228 0.663063 -0.269131
1386335107 0.666201 -0.26839366666666664
1387820986 0.6695000000000001 -0.2666616666666667
1389306865 0.6694996666666667 -0.26738766666666663
1390792744 0.6745616666666666 -0.262696
1392278623 0.6740226666666667 -0.26649433333333333
1393764502 0.6723310000000001 -0.2681496666666667
1395250381 0.6739223333333334 -0.26562066666666667
1396736260 0.6750926666666667 -0.26449866666666666
1398222139 0.6722766666666667 -0.26387066666666664
1399708018 0.6735329999999999 -0.26283033333333333
1401193897 0.6743536666666667 -0.26331033333333337
1402679776 0.671995 -0.2619956666666667
1404165655 0.6689050000000001 -0.26195799999999997
1405651534 0.6688963333333334 -0.2581483333333333
1407137413 0.6678973333333333 -0.25798366666666667
1408623292 0.6645753333333334 -0.25605433333333333
1410109171 0.662358 -0.25510499999999997
1411595050 0.6680609999999999 -0.252792
1413080929 0.6699966666666666 -0.2576446666666667
1414566808 0.6716803333333333 -0.25890833333333335
1416052687 0.6753776666666668 -0.25584433333333334
1417538566 0.677867 -0.256668
1419024445 0.6799556666666667 -0.257164
1420510324 0.6810183333333333 -0.25700133333333336
1421996203 0.6823046666666667 -0.25771299999999997
1423482082 0.7204496666666668 -0.255275
1424967961 0.683954 -0.2563356666666667
1426453840 0.683424 -0.2546776666666667
1427939719 0.683297 -0.25573833333333335
1429425598 0.6827696666666667 -0.2524673333333333
1430911477 0.677396 -0.25596599999999997
1432397356 0.6804733333333334 -0.25315533333333334
1433883235 0.6806433333333334 -0.25190699999999994
1435369114 0.6790526666666666 -0.25083300000000003
1436854993 0.6772643333333334 -0.24976166666666666
1438340872 0.6748766666666667 -0.247363
1439826751 0.670334 -0.2512033333333334
1441312630 0.6712716666666667 -0.25281099999999995
1442798509 0.6747153333333333 -0.24968
1444284388 0.6748856666666666 -0.2512356666666667
1445770267 0.6764583333333333 -0.2529746666666666
1447256146 0.6780309999999999 -0.2524043333333333
1448742025 0.6785146666666667 -0.25174
1450227904 0.679646 -0.2516893333333334
1451713783 0.6788913333333332 -0.25479333333333337
1453199662 0.6807836666666667 -0.2542776666666667
1454685541 0.6785746666666667 -0.2540963333333333
1456171420 0.6776966666666667 -0.254161
1457657299 0.6755486666666667 -0.25595300000000004
1459143178 0.6755603333333333 -0.2527876666666667
1460629057 0.6745183333333333 -0.252809
1462114936 0.6705076666666666 -0.2539983333333333
1463600815 0.6694676666666667 -0.25224399999999997
1465086694 0.6672293333333333 -0.2530516666666667
1466572573 0.6651783333333333 -0.25014033333333335
1468058452 0.6603906666666667 -0.2524746666666667
1469544331 0.6576023333333333 -0.25151999999999997
1471030210 0.6584466666666666 -0.252319
1472516089 0.6603543333333334 -0.2550246666666667
1474001968 0.6637580000000001 -0.25426566666666667
1475487847 0.6661166666666667 -0.2541926666666667
1476973726 0.6677019999999999 -0.25541966666666666
1478459605 0.6705263333333334 -0.2555206666666667
1479945484 0.6708403333333334 -0.256896
1481431363 0.6713033333333334 -0.2558163333333333
1482917242 0.6730333333333333 -0.254562
1484403121 0.6730946666666666 -0.2559306666666667
1485889000 0.6731243333333333 -0.2560816666666667
1487374879 0.673352 -0.25291633333333335
1488860758 0.6719393333333333 -0.2547523333333333
1490346637 0.6708326666666666 -0.2554363333333334
1491832516 0.6694123333333334 -0.253892
1493318395 0.667662 -0.2531113333333333
1494804274 0.6656909999999999 -0.25110366666666667
1496290153 0.66366 -0.25083833333333333
1497776032 0.6592549999999999 -0.251523
1499261911 0.6565473333333333 -0.2501066666666667
1500747790 0.6578689999999999 -0.24995166666666668
1502233669 0.6610923333333333 -0.24954633333333334
1503719548 0.6619783333333333 -0.2522233333333333
1505205427 0.6645439999999999 -0.253875
1506691306 0.6658353333333332 -0.2548156666666666
1508177185 0.6674273333333334 -0.25438733333333335
1509663064 0.669928 -0.25423866666666667
1511148943 0.6706283333333333 -0.254209
1512634822 0.6697150000000001 -0.25795033333333334
1514120701 0.6702523333333333 -0.256448
1515606580 0.6703203333333333 -0.255201
1517092459 0.6697553333333334 -0.25480533333333333
1518578338 0.6691346666666668 -0.2548296666666667
1520064217 0.6673123333333333 -0.2547936666666667
1521550096 0.6654736666666666 -0.253355
1523035975 0.663527 -0.2549586666666667
1524521854 0.6618453333333333 -0.25179899999999994
1526007733 0.6445726666666666 -0.26058566666666666
1527493612 0.6552863333333333 -0.251827
1528979491 0.6489486666666667 -0.25733633333333333
1530465370 0.652244 -0.2494063333333333
1531951249 0.6559833333333334 -0.25092966666666666
1533437128 0.6585156666666667 -0.2517493333333333
1534923007 0.6603243333333334 -0.25365733333333335
1536408886 0.6633066666666666 -0.2529036666666667
1537894765 0.664195 -0.2541046666666667
1539380644 0.6625736666666667 -0.25859000000000004
1540866523 0.6667323333333334 -0.25342033333333336
1542352402 0.6679223333333333 -0.2542416666666667
1543838281 0.6660313333333333 -0.25551666666666667
1545324160 0.6663733333333334 -0.25601266666666667
1546810039 0.6682566666666667 -0.25193133333333334
1548295918 0.6690936666666666 -0.24801566666666666
1549781797 0.6674596666666667 -0.24918266666666664
1551267676 0.6603836666666667 -0.2543096666666667
1552753555 0.6616896666666666 -0.24988000000000002
1554239434 0.6603606666666667 -0.24942466666666666
1555725313 0.653468 -0.251617
1557211192 0.6507903333333332 -0.250316
1558697071 0.6486216666666667 -0.24749933333333332
1560182950 0.6459039999999999 -0.24631933333333333
1561668829 0.6483793333333333 -0.24724500000000002
1563154708 0.6494293333333334 -0.2514503333333334
1564640587 0.6520226666666668 -0.25187066666666663
1566126466 0.6538213333333333 -0.254201
1567612345 0.6551323333333333 -0.25555500000000003
1569098224 0.6568680000000001 -0.25427
1570584103 0.6567903333333333 -0.2584703333333333
1572069982 0.6584813333333334 -0.25738600000000006
1573555861 0.660357 -0.25743366666666667
1575041740 0.658864 -0.26015533333333335
1576527619 0.6593383333333334 -0.25865033333333337
1578013498 0.6580469999999999 -0.2571853333333333
1579499377 0.6586026666666668 -0.2577253333333333
1580985256 0.6550673333333333 -0.25877633333333333
1582471135 0.6552546666666667 -0.2551033333333334
1583957014 0.652466 -0.2571083333333333
1585442893 0.6496516666666667 -0.25645433333333334
1586928772 0.6487729999999999 -0.25520666666666664
1588414651 0.6450813333333333 -0.253095
1589900530 0.6423679999999999 -0.24870566666666669
1591386409 0.6438046666666667 -0.2546443333333333
1592872288 0.645957 -0.2563643333333333
1594358167 0.6491790000000001 -0.25739700000000004
1595844046 0.6504023333333334 -0.25887066666666664
1597329925 0.6513683333333333 -0.2596423333333333
1598815804 0.6542490000000001 -0.2584896666666667
1600301683 0.655595 -0.2588566666666667
1601787562 0.655458 -0.26021733333333336
1603273441 0.6559596666666666 -0.2590466666666667
1604759320 0.6576866666666666 -0.257232
1606245199 0.655989 -0.257069
1607731078 0.656133 -0.25961833333333334
1609216957 0.6546336666666667 -0.25894900000000004
1610702836 0.6541143333333334 -0.257641
1612188715 0.6520536666666666 -0.2564503333333333
1613674594 0.6513343333333333 -0.255091
1615160473 0.6484396666666666 -0.25272066666666665
1616646352 0.6459226666666668 -0.25234466666666666
1618132231 0.6438073333333334 -0.24977966666666665
1619618110 0.6402493333333333 -0.24976600000000002
1621103989 0.6411076666666666 -0.24963533333333335
1622589868 0.6427673333333334 -0.2518263333333333
1624075747 0.643957 -0.2554023333333333
1625561626 0.6473526666666667 -0.25519200000000003
1627047505 0.6472346666666666 -0.2575343333333333
1628533384 0.6487573333333333 -0.25847766666666666
1630019263 0.6499896666666667 -0.25533233333333333
1631505142 0.6492616666666666 -0.260658
1632991021 0.651595 -0.25832933333333336
1634476900 0.6525303333333333 -0.25800333333333336
1635962779 0.6509643333333334 -0.25790566666666664
1637448658 0.6500243333333334 -0.25940799999999997
1638934537 0.648972 -0.25900799999999996
1640420416 0.6482536666666667 -0.25831
1641906295 0.6453099999999999 -0.2586383333333333
1643392174 0.646648 -0.25517833333333334
1644878053 0.6429633333333333 -0.2573236666666667
1646363932 0.6401323333333333 -0.25596966666666665
1647849811 0.6378913333333333 -0.2538416666666667
1649335690 0.63483 -0.25565666666666664
1650821569 0.6349906666666667 -0.25565933333333335
1652307448 0.6363759999999999 -0.25721866666666665
1653793327 0.6382593333333334 -0.25788733333333336
1655279206 0.6400099999999999 -0.25751366666666664
1656765085 0.641416 -0.261625
1658250964 0.643453 -0.25971733333333336
1659736843 0.6435333333333332 -0.2596336666666667
1661222722 0.6442106666666667 -0.2616446666666667
1662708601 0.6439586666666667 -0.26197600000000004
1664194480 0.644607 -0.26066133333333336
1665680359 0.6448466666666667 -0.26072233333333333
1667166238 0.6430859999999999 -0.26124033333333335
1668652117 0.6430753333333333 -0.260999
1670137996 0.6419503333333333 -0.25963033333333335
1671623875 0.6410906666666667 -0.259113
1673109754 0.6389046666666668 -0.260043
1674595633 0.6367303333333334 -0.2588143333333333
1676081512 0.6006123333333334 -0.2496683333333333
1677567391 0.6326036666666667 -0.25742233333333336
1679053270 0.630739 -0.25505466666666665
1680539149 0.6289836666666667 -0.2544113333333333
1682025028 0.630728 -0.259794
1683510907 0.635266 -0.25576366666666667
1684996786 0.6352016666666668 -0.25951900000000006
1686482665 0.6366206666666666 -0.2601153333333333
1687968544 0.6395723333333333 -0.2614146666666667
1689454423 0.640254 -0.2634186666666667
1690940302 0.6413679999999999 -0.2616716666666667
1692426181 0.6422370000000001 -0.2620726666666667
1693912060 0.6443633333333333 -0.26225000000000004
1695397939 0.642096 -0.2607813333333333
1696883818 0.6425246666666667 -0.25984999999999997
1698369697 0.642734 -0.263582
1699855576 0.641435 -0.260262
1701341455 0.6419819999999999 -0.25765599999999994
1702827334 0.639647 -0.25809533333333334
1704313213 0.6384146666666667 -0.2555883333333333
1705799092 0.6369163333333333 -0.252998
1707284971 0.6352519999999999 -0.2525816666666667
1708770850 0.6335386666666668 -0.249119
1710256729 0.6305696666666667 -0.2522876666666667
1711742608 0.632343 -0.25295833333333334
1713228487 0.6340596666666666 -0.253992
1714714366 0.6358323333333333 -0.25367999999999996
1716200245 0.6361826666666667 -0.256693
1717686124 0.6398876666666666 -0.256329
1719172003 0.6407033333333333 -0.2594646666666667
1720657882 0.641439 -0.2565033333333333
1722143761 0.641243 -0.25783700000000004
1723629640 0.6376513333333333 -0.25507833333333335
1725115519 0.640696 -0.2588623333333333
1726601398 0.639973 -0.25984566666666664
1728087277 0.6405346666666666 -0.25492933333333334
1729573156 0.6402563333333333 -0.251878
1731059035 0.6375646666666666 -0.254823
1732544914 0.635011 -0.25638066666666665
1734030793 0.63257 -0.251526
1735516672 0.6312436666666668 -0.253592
1737002551 0.6307130000000001 -0.25101733333333337
1738488430 0.6245233333333333 -0.249275
1739974309 0.6233736666666667 -0.2508073333333333
1741460188 0.6257940000000001 -0.2513516666666667
1742946067 0.6278756666666666 -0.25499166666666667
1744431946 0.6296286666666667 -0.2526473333333333
1745917825 0.6327263333333334 -0.25440666666666667
1747403704 0.6334073333333333 -0.2560466666666667
1748889583 0.6348556666666667 -0.255139
1750375462 0.6380536666666666 -0.25538533333333335
1751861341 0.6355926666666667 -0.25807833333333335
1753347220 0.6376656666666667 -0.25596366666666664
1754833099 0.6383503333333332 -0.25645166666666663
1756318978 0.637573 -0.25760900000000003
1757804857 0.63664 -0.258688
1759290736 0.6381546666666668 -0.25420466666666663
1760776615 0.6384253333333333 -0.254823
1762262494 0.63451 -0.25329766666666664
1763748373 0.634341 -0.25439933333333337
1765234252 0.6321063333333333 -0.24908566666666668
1766720131 0.630236 -0.25278300000000004
1768206010 0.6288306666666666 -0.251735
1769691889 0.6257806666666667 -0.25016900000000003
1771177768 0.6277683333333334 -0.2505633333333333
1772663647 0.6295540000000001 -0.2533856666666667
1774149526 0.6309836666666667 -0.25392366666666666
1775635405 0.6355400000000001 -0.25117366666666663
1777121284 0.635719 -0.253961
1778607163 0.638302 -0.25255299999999997
1780093042 0.6385883333333333 -0.25419866666666663
1781578921 0.640593 -0.2527873333333333
1783064800 0.6392393333333334 -0.25510933333333335
1784550679 0.6427026666666666 -0.2513416666666667
1786036558 0.6412753333333333 -0.25178633333333333
1787522437 0.6416229999999999 -0.24947633333333333
1789008316 0.6431226666666667 -0.25248
1790494195 0.6398916666666666 -0.25029166666666663
1791980074 0.6384136666666667 -0.25052366666666664
1793465953 0.636205 -0.24859566666666666
1794951832 0.6347543333333334 -0.24641866666666667
1796437711 0.632785 -0.24627666666666667
1797923590 0.6312023333333333 -0.24255400000000002
1799409469 0.6265106666666668 -0.24227966666666667
1800895348 0.628969 -0.24193433333333333
1802381227 0.6331106666666667 -0.24204433333333333
1803867106 0.634089 -0.24495333333333336
1805352985 0.635383 -0.24574166666666666
1806838864 0.6377596666666667 -0.24623466666666669
1808324743 0.6399226666666666 -0.24716833333333335
1809810622 0.6380543333333333 -0.25032766666666667
1811296501 0.64006 -0.2459273333333333
1812782380 0.6393413333333333 -0.2499136666666667
1814268259 0.6399493333333334 -0.24715266666666666
1815754138 0.6406206666666666 -0.24930700000000003
1817240017 0.6384056666666668 -0.2485723333333333
1818725896 0.6171403333333333 -0.23685133333333333
1820211775 0.6379193333333334 -0.24752166666666667
1821697654 0.6365253333333333 -0.248596
1823183533 0.6337193333333333 -0.2465303333333333
1824669412 0.6328393333333334 -0.24543366666666666
1826155291 0.6469093333333333 -0.23813166666666666
1827641170 0.630937 -0.24361766666666665
1829127049 0.6228056666666667 -0.24320466666666665
1830612928 0.6257336666666666 -0.24169733333333332
1832098807 0.6254273333333333 -0.24354866666666666
1833584686 0.62545 -0.249193
1835070565 0.6302546666666666 -0.24898233333333333
1836556444 0.6318566666666667 -0.2487883333333333
1838042323 0.631892 -0.24898133333333336
1839528202 0.6337403333333333 -0.250283
1841014081 0.636888 -0.24849200000000002
1842499960 0.635708 -0.2524996666666667
1843985839 0.6382496666666667 -0.2508983333333334
1845471718 0.6360723333333334 -0.250538
1846957597 0.6360956666666667 -0.25210933333333335
1848443476 0.6353843333333334 -0.2519816666666666
1849929355 0.631259 -0.253382
1851415234 0.6324806666666668 -0.253643
1852901113 0.6314826666666665 -0.251609
1854386992 0.6295646666666667 -0.24884499999999998
1855872871 0.6271656666666666 -0.24835166666666667
1857358750 0.6226146666666668 -0.25171933333333335
1858844629 0.6219796666666667 -0.24862733333333334
1860330508 0.6210973333333333 -0.246776
1861816387 0.6222056666666667 -0.24933466666666668
1863302266 0.6268366666666667 -0.248097
1864788145 0.6271533333333333 -0.25089933333333336
1866274024 0.629503 -0.25045500000000004
1867759903 0.6316856666666667 -0.25187933333333334
1869245782 0.633028 -0.2529633333333334
1870731661 0.633641 -0.25196999999999997
1872217540 0.630723 -0.2585493333333333
1873703419 0.636173 -0.25346566666666664
1875189298 0.6361256666666667 -0.25070566666666666
1876675177 0.637161 -0.24937433333333334
1878161056 0.6347063333333333 -0.251274
1879646935 0.635111 -0.2512663333333333
1881132814 0.633463 -0.248565
1882618693 0.6319206666666667 -0.247078
1884104572 0.6298473333333333 -0.249413
1885590451 0.6289176666666667 -0.245727
1887076330 0.6251886666666667 -0.24661600000000003
1888562209 0.622663 -0.24369333333333335
1890048088 0.6192716666666667 -0.24245799999999998
1891533967 0.622397 -0.24594533333333332
1893019846 0.6223403333333334 -0.24736433333333332
1894505725 0.6253873333333333 -0.24692100000000003
1895991604 0.6283236666666666 -0.24593066666666666
1897477483 0.6295113333333333 -0.24658900000000003
1898963362 0.6291030000000001 -0.24889366666666668
1900449241 0.6314533333333333 -0.24698866666666666
1901935120 0.6300113333333334 -0.24877133333333334
1903420999 0.6304076666666667 -0.2509983333333333
1904906878 0.6310693333333334 -0.24530966666666668
1906392757 0.6304306666666667 -0.24945666666666666
1907878636 0.631465 -0.24698133333333336
1909364515 0.6301686666666667 -0.24541500000000002
1910850394 0.6286503333333333 -0.24627666666666667
1912336273 0.626632 -0.24472166666666664
1913822152 0.624374 -0.244509
1915308031 0.6231853333333334 -0.243004
1916793910 0.6193069999999999 -0.24427266666666667
1918279789 0.6175056666666666 -0.2419543333333333
1919765668 0.612866 -0.24341833333333338
1921251547 0.6180616666666666 -0.23964733333333332
1922737426 0.6173573333333332 -0.2454086666666667
1924223305 0.618048 -0.24673366666666666
1925709184 0.6215149999999999 -0.24587933333333334
1927195063 0.6243003333333333 -0.24477800000000002
1928680942 0.6267406666666666 -0.24572133333333332
1930166821 0.625769 -0.248211
1931652700 0.628861 -0.24450266666666667
1933138579 0.627671 -0.24749033333333334
1934624458 0.6277186666666666 -0.24641566666666667
1936110337 0.629309 -0.24617066666666665
1937596216 0.628243 -0.2444873333333333
1939082095 0.6276573333333334 -0.24780866666666668
1940567974 0.6282373333333334 -0.24401166666666665
1942053853 0.6265846666666667 -0.24283233333333332
1943539732 0.6244283333333334 -0.242553
1945025611 0.6224913333333334 -0.24343800000000002
1946511490 0.6205563333333334 -0.24074700000000002
1947997369 0.617036 -0.24011000000000002
1949483248 0.616118 -0.23912333333333335
1950969127 0.6176043333333333 -0.2402146666666667
1952455006 0.6202913333333333 -0.24031433333333332
1953940885 0.6201146666666667 -0.24352666666666667
1955426764 0.6209563333333333 -0.244421
1956912643 0.624801 -0.241224
1958398522 0.6248836666666667 -0.24545333333333333
1959884401 0.625684 -0.244101
1961370280 0.627825 -0.24374133333333334
1962856159 0.6248076666666667 -0.24651233333333333
1964342038 0.6227816666666667 -0.24588566666666667
1965827917 0.6227746666666666 -0.24789033333333332
1967313796 0.6239866666666667 -0.2465726666666667
1968799675 0.618691 -0.24990500000000002
1970285554 0.6243596666666668 -0.243974
1971771433 0.62063 -0.24449833333333335
1973257312 0.6184406666666667 -0.24364566666666668
1974743191 0.61673 -0.24509466666666668
1976229070 0.6145533333333333 -0.24033633333333335
1977714949 0.6140966666666666 -0.23812999999999998
1979200828 0.6118223333333334 -0.23812733333333336
1980686707 0.611075 -0.23676233333333338
1982172586 0.6121513333333334 -0.24167066666666667
1983658465 0.6125973333333333 -0.241884
1985144344 0.6168406666666667 -0.24362766666666666
1986630223 0.6161236666666667 -0.24601066666666668
1988116102 0.6155849999999999 -0.24606799999999998
1989601981 0.6108316666666667 -0.2527023333333333
1991087860 0.617841 -0.24705033333333334
1992573739 0.6196769999999999 -0.24665066666666668
1994059618 0.617813 -0.24839366666666665
1995545497 0.619907 -0.246582
1997031376 0.6208043333333334 -0.24852566666666664
1998517255 0.6200736666666667 -0.24656633333333333
2000003134 0.6202763333333334 -0.242416
2001489013 0.617947 -0.24446066666666666
2002974892 0.6159436666666667 -0.24434866666666666
2004460771 0.614739 -0.24613166666666664
2005946650 0.612009 -0.24224466666666666
2007432529 0.6096560000000001 -0.24212
2008918408 0.6083503333333333 -0.24128133333333332
2010404287 0.605271 -0.24401533333333333
2011890166 0.6083569999999999 -0.24434133333333333
2013376045 0.6083716666666668 -0.2474913333333333
2014861924 0.6134986666666667 -0.24411933333333335
2016347803 0.6143373333333333 -0.24753233333333333
2017833682 0.6135893333333334 -0.2563113333333333
2019319561 0.6185776666666666 -0.24820033333333333
2020805440 0.6176716666666667 -0.24677666666666664
2022291319 0.622448 -0.24454833333333334
2023777198 0.620829 -0.24814366666666665
2025263077 0.6222156666666666 -0.24439133333333332
2026748956 0.6220926666666667 -0.2445453333333333
2028234835 0.6205626666666667 -0.24786266666666665
2029720714 0.6225343333333333 -0.243569
2031206593 0.622524 -0.24057366666666669
2032692472 0.6189403333333333 -0.24595833333333336
2034178351 0.6163706666666666 -0.24442433333333333
2035664230 0.6155763333333333 -0.240675
2037150109 0.6124790000000001 -0.2427256666666667
2038635988 0.612598 -0.23740666666666665
2040121867 0.610127 -0.238178
2041607746 0.610188 -0.24003666666666668
2043093625 0.6135906666666667 -0.23613933333333334
2044579504 0.6136186666666666 -0.24129066666666668
2046065383 0.6146973333333333 -0.241407
2047551262 0.6153586666666667 -0.240797
2049037141 0.6170563333333333 -0.24143233333333333
2050523020 0.616694 -0.243521
2052008899 0.6187253333333333 -0.242298
2053494778 0.6153996666666667 -0.24502733333333335
2054980657 0.6163966666666667 -0.24453133333333335
2056466536 0.6148886666666667 -0.245818
2057952415 0.6127956666666666 -0.24349400000000002
2059438294 0.6130173333333334 -0.24309366666666665
2060924173 0.6115433333333333 -0.24487099999999998
2062410052 0.608702 -0.24163533333333334
2063895931 0.6074716666666666 -0.23990733333333333
2065381810 0.6059783333333333 -0.2412356666666667
2066867689 0.60308 -0.24098766666666668
2068353568 0.6009730000000001 -0.24149600000000002
2069839447 0.5998113333333334 -0.238016
2071325326 0.6001493333333333 -0.2396946666666667
2072811205 0.6031393333333334 -0.240582
2074297084 0.6043143333333333 -0.24291666666666667
2075782963 0.6053933333333333 -0.24440566666666666
2077268842 0.608638 -0.2434126666666667
2078754721 0.6076906666666667 -0.24479466666666663
2080240600 0.6104806666666667 -0.2438296666666667
2081726479 0.6105146666666666 -0.246788
2083212358 0.6119899999999999 -0.24644033333333334
2084698237 0.6123233333333333 -0.24779266666666666
2086184116 0.6118026666666667 -0.24387566666666669
2087669995 0.611546 -0.24267066666666667
2089155874 0.6106280000000001 -0.240115
2090641753 0.6119303333333334 -0.24173233333333335
2092127632 0.609684 -0.2425733333333333
2093613511 0.6088706666666667 -0.238738
2095099390 0.6084993333333334 -0.24065266666666665
2096585269 0.605538 -0.23673266666666667
2098071148 0.6015416666666666 -0.2404736666666667
2099557027 0.5996199999999999 -0.237223
2101042906 0.6013306666666667 -0.23553466666666667
2102528785 0.603593 -0.23833366666666667
2104014664 0.6048946666666667 -0.23865833333333333
2105500543 0.6085643333333333 -0.24294200000000002
2106986422 0.6098206666666667 -0.24175266666666664
2108472301 0.6105263333333334 -0.24186300000000002
2109958180 0.6112036666666668 -0.2408916666666667
2111444059 0.6116426666666667 -0.24279133333333333
2112929938 0.6122246666666668 -0.24458766666666668
2114415817 0.6143386666666667 -0.24241666666666664
2115901696 0.6147793333333333 -0.244043
2117387575 0.6143339999999999 -0.24285666666666664
2118873454 0.6352623333333333 -0.23733
2120359333 0.6120923333333333 -0.24273066666666668
2121845212 0.6113853333333333 -0.23934599999999998
2123331091 0.6092886666666666 -0.241378
2124816970 0.608918 -0.23821033333333333
2126302849 0.6061306666666666 -0.23952700000000002
2127788728 0.6052566666666667 -0.236198
2129274607 0.6018690000000001 -0.234362
2130760486 0.6017593333333334 -0.23754233333333333
2132246365 0.605543 -0.24075166666666667
2133732244 0.6062286666666666 -0.23957833333333334
2135218123 0.6064436666666667 -0.23992099999999997
2136704002 0.605004 -0.243456
2138189881 0.608763 -0.2429083333333333
2139675760 0.6094086666666666 -0.24381700000000003
2141161639 0.6096963333333333 -0.243969
2142647518 0.6097343333333333 -0.243652
2144133397 0.6105999999999999 -0.24350766666666668
2145619276 0.6104093333333332 -0.24430200000000002
2147105155 0.610432 -0.243354
2148591034 0.608822 -0.24608833333333335
2150076913 0.6070153333333334 -0.24498433333333333
2151562792 0.6064693333333334 -0.24400133333333332
2153048671 0.605705 -0.24145499999999998
2154534550 0.6030706666666666 -0.24275066666666664
2156020429 0.59948 -0.24364966666666668
2157506308 0.5966816666666667 -0.24197933333333332
2158992187 0.5970556666666668 -0.23897433333333332
2160478066 0.5932313333333333 -0.24137633333333333
2161963945 0.5959296666666666 -0.24061733333333332
2163449824 0.596402 -0.24752533333333335
2164935703 0.6018006666666667 -0.24607199999999999
2166421582 0.6031956666666666 -0.247152
2167907461 0.6011890000000001 -0.24764166666666668
2169393340 0.6039776666666666 -0.246632
2170879219 0.6061733333333333 -0.246726
2172365098 0.605858 -0.24793433333333334
2173850977 0.6072743333333332 -0.24697566666666668
2175336856 0.6095306666666667 -0.24420866666666666
2176822735 0.6057176666666667 -0.2459543333333333
2178308614 0.609 -0.24388966666666667
2179794493 0.6049126666666668 -0.24648033333333333
2181280372 0.6067596666666667 -0.24350266666666665
2182766251 0.6050936666666665 -0.24352966666666664
2184252130 0.6067746666666667 -0.24095833333333336
2185738009 0.60035 -0.241953
2187223888 0.59831 -0.24237733333333333
2188709767 0.5981026666666667 -0.23889899999999997
2190195646 0.59491 -0.23739366666666664
2191681525 0.5979933333333334 -0.24131666666666665
2193167404 0.6002373333333334 -0.240482
2194653283 0.6030233333333334 -0.24108699999999997
2196139162 0.6020373333333333 -0.24093433333333333
2197625041 0.6074393333333333 -0.24285800000000002
2199110920 0.6076086666666667 -0.2422513333333333
2200596799 0.6085356666666667 -0.24277533333333332
2202082678 0.607707 -0.24351699999999998
2203568557 0.6072190000000001 -0.24409733333333336
2205054436 0.611039 -0.24095199999999997
2206540315 0.6073486666666666 -0.24282166666666669
2208026194 0.5708326666666667 -0.25328666666666666
2209512073 0.608938 -0.23938700000000002
2210997952 0.6073663333333333 -0.23658500000000002
2212483831 0.6024523333333334 -0.23884533333333333
2213969710 0.605389 -0.23587966666666668
2215455589 0.6032843333333333 -0.23648233333333332
2216941468 0.6006816666666667 -0.23573
2218427347 0.5973203333333333 -0.232506
2219913226 0.5940219999999999 -0.23255099999999998
2221399105 0.5970643333333333 -0.23293433333333335
2222884984 0.5987166666666667 -0.23683433333333334
2224370863 0.600802 -0.23524533333333333
2225856742 0.600999 -0.24162633333333336
2227342621 0.6029366666666666 -0.24154266666666668
2228828500 0.6041606666666667 -0.24188600000000002
2230314379 0.6039169999999999 -0.24401233333333336
2231800258 0.6092733333333333 -0.24220233333333333
2233286137 0.6075353333333334 -0.2472386666666667
2234772016 0.6073719999999999 -0.24317066666666665
2236257895 0.607997 -0.23961166666666667
2237743774 0.6073883333333333 -0.24405866666666667
2239229653 0.6104073333333333 -0.24301399999999998
2240715532 0.6070536666666667 -0.24382366666666666
2242201411 0.6049773333333334 -0.24100633333333335
2243687290 0.6054516666666666 -0.23750533333333335
2245173169 0.6041839999999999 -0.23805099999999998
2246659048 0.6008933333333334 -0.23892533333333332
2248144927 0.5992756666666667 -0.23793566666666666
2249630806 0.5973666666666667 -0.2377463333333333
2251116685 0.60147 -0.23475633333333334
2252602564 0.602871 -0.23528433333333332
2254088443 0.6034043333333333 -0.23823266666666668
2255574322 0.604253 -0.23880233333333334
2257060201 0.6015816666666667 -0.24043233333333333
2258546080 0.6088680000000001 -0.23976366666666668
2260031959 0.6021373333333333 -0.24550466666666668
2261517838 0.606443 -0.24079899999999999
2263003717 0.6039819999999999 -0.23871033333333336
2264489596 0.6059563333333333 -0.24072633333333335
2265975475 0.6049623333333334 -0.24087133333333333
2267461354 0.6042456666666668 -0.238027
2268947233 0.634285 -0.2638006666666667
2270433112 0.6040956666666667 -0.24054699999999998
2271918991 0.602914 -0.23938233333333334
2273404870 0.5989779999999999 -0.23928866666666668
2274890749 0.5967926666666666 -0.24145433333333333
2276376628 0.5910756666666667 -0.24047233333333332
2277862507 0.593379 -0.237792
2279348386 0.5913183333333333 -0.2352196666666667
2280834265 0.5901816666666667 -0.24050333333333332
2282320144 0.5897453333333332 -0.24097500000000002
2283806023 0.5922860000000001 -0.24026033333333333
2285291902 0.5968566666666667 -0.237619
2286777781 0.5955406666666667 -0.2385286666666667
2288263660 0.5985746666666666 -0.23785766666666666
2289749539 0.5969193333333332 -0.24069700000000002
2291235418 0.6007300000000001 -0.23893366666666668
2292721297 0.5983726666666667 -0.2404466666666667
2294207176 0.5998043333333334 -0.24225600000000003
2295693055 0.6002986666666666 -0.23761999999999997
2297178934 0.5994643333333334 -0.23790133333333333
2298664813 0.6002953333333333 -0.23659133333333335
2300150692 0.5988496666666667 -0.23936900000000003
2301636571 0.5948146666666667 -0.23928233333333335
2303122450 0.5965216666666667 -0.23488066666666665
2304608329 0.595117 -0.23427566666666666
2306094208 0.594671 -0.23299
2307580087 0.5913246666666666 -0.23197933333333334
2309065966 0.590262 -0.23160466666666668
2310551845 0.5881683333333333 -0.23320233333333337
2312037724 0.5916359999999999 -0.23366533333333336
2313523603 0.5916596666666666 -0.2344436666666667
2315009482 0.592834 -0.235945
2316495361 0.5981383333333333 -0.23577333333333336
2317981240 0.5987783333333333 -0.23461866666666667
2319467119 0.5987746666666667 -0.2360606666666667
2320952998 0.6035196666666667 -0.23500433333333334
2322438877 0.568741 -0.22351966666666667
2323924756 0.608494 -0.23290233333333332
2325410635 0.603287 -0.23562833333333333
2326896514 0.601995 -0.23759266666666667
2328382393 0.6038049999999999 -0.235062
2329868272 0.604586 -0.23468566666666668
2331354151 0.606159 -0.23040966666666665
2332840030 0.6040646666666668 -0.23320166666666667
2334325909 0.6015053333333333 -0.23576933333333336
2335811788 0.5977426666666666 -0.234505
2337297667 0.600184 -0.22820133333333334
2338783546 0.5975383333333334 -0.23154066666666664
2340269425 0.5940923333333333 -0.23100533333333337
2341755304 0.5981709999999999 -0.231581
2343241183 0.5966253333333333 -0.234752
2344727062 0.5992679999999999 -0.23253733333333335
2346212941 0.6016320000000001 -0.234599
2347698820 0.5978559999999999 -0.24024500000000001
2349184699 0.6022696666666666 -0.23597466666666667
2350670578 0.6004276666666667 -0.23967133333333335
2352156457 0.601007 -0.238654
2353642336 0.6027216666666666 -0.23775500000000002
2355128215 0.6037036666666666 -0.23760166666666668
2356614094 0.605095 -0.23748
2358099973 0.6037170000000001 -0.24186733333333335
2359585852 0.5989516666666667 -0.24003133333333335
2361071731 0.6016216666666666 -0.23844633333333332
2362557610 0.5962556666666666 -0.23823933333333333
2364043489 0.6004996666666667 -0.23749999999999996
2365529368 0.5927389999999999 -0.24159666666666668
2367015247 0.5933356666666666 -0.23831733333333335
2368501126 0.588911 -0.23983933333333332
2369987005 0.5846553333333334 -0.23852833333333334
2371472884 0.591482 -0.24086200000000002
2372958763 0.5931476666666666 -0.24073066666666665
2374444642 0.5946523333333333 -0.24061500000000002
2375930521 0.593423 -0.24378066666666667
2377416400 0.5995853333333333 -0.2394253333333333
2378902279 0.6003673333333334 -0.24177133333333334
2380388158 0.6012863333333334 -0.24207700000000001
2381874037 0.6025976666666667 -0.23829766666666666
2383359916 0.6007246666666667 -0.244131
2384845795 0.600527 -0.24093033333333333
2386331674 0.605009 -0.2373213333333333
2387817553 0.6003373333333334 -0.23807566666666666
2389303432 0.5999453333333333 -0.2399
2390789311 0.6013126666666667 -0.238557
2392275190 0.5990143333333333 -0.23502566666666666
2393761069 0.5970966666666667 -0.23612933333333333
2395246948 0.5965233333333333 -0.238492
2396732827 0.5951750000000001 -0.23527066666666666
2398218706 0.5943573333333334 -0.23250633333333334
2399704585 0.5922869999999999 -0.232903
2401190464 0.5949713333333334 -0.23069933333333334
2402676343 0.5945146666666666 -0.233981
2404162222 0.595781 -0.23424
2405648101 0.598196 -0.236236
2407133980 0.5979346666666666 -0.23975533333333332
2408619859 0.5969883333333333 -0.24084466666666668
2410105738 0.5995229999999999 -0.24111033333333332
2411591617 0.6021466666666667 -0.23534333333333332
2413077496 0.600276 -0.24123566666666665
2414563375 0.6007473333333333 -0.24051666666666668
2416049254 0.602458 -0.24419633333333332
2417535133 0.6008946666666666 -0.23568966666666666
2419021012 0.5981803333333334 -0.236739
2420506891 0.5971386666666666 -0.24126433333333333
2421992770 0.599094 -0.23730866666666664
2423478649 0.5989726666666667 -0.23861266666666667
2424964528 0.5946076666666666 -0.24125033333333334
2426450407 0.5978943333333332 -0.22416633333333333
2427936286 0.5881346666666667 -0.23633366666666666
2429422165 0.5851646666666667 -0.24383366666666664
2430908044 0.585841 -0.23998833333333333
2432393923 0.5899693333333332 -0.23979466666666668
2433879802 0.5957703333333334 -0.239684
2435365681 0.5912476666666666 -0.247789
2436851560 0.5922673333333334 -0.247687
2438337439 0.5931000000000001 -0.2410206666666667
2439823318 0.5955946666666666 -0.24172333333333332
2441309197 0.600496 -0.23842466666666665
2442795076 0.5972959999999999 -0.23733866666666667
2444280955 0.596815 -0.24056333333333332
2445766834 0.5924056666666666 -0.24324366666666666
2447252713 0.596386 -0.23750233333333334
2448738592 0.5932353333333334 -0.239111
2450224471 0.591048 -0.24654933333333331
2451710350 0.5940676666666667 -0.23943833333333334
2453196229 0.5906526666666667 -0.24358133333333334
2454682108 0.5895526666666667 -0.24028533333333332
2456167987 0.5838606666666667 -0.23976733333333333
2457653866 0.5838943333333334 -0.23585533333333333
2459139745 0.579262 -0.23436633333333334
2460625624 0.579238 -0.23508933333333334
2462111503 0.5818153333333332 -0.23582199999999998
2463597382 0.5892386666666667 -0.23813566666666666
2465083261 0.5875243333333334 -0.23757833333333334
2466569140 0.58805 -0.23619266666666663
2468055019 0.5878113333333334 -0.24310666666666667
2469540898 0.5876063333333333 -0.241749
2471026777 0.590132 -0.23301166666666664
2472512656 0.5893806666666666 -0.23611800000000002
2473998535 0.5926066666666666 -0.242197
2475484414 0.590472 -0.24008833333333332
2476970293 0.5914013333333333 -0.23865433333333333
2478456172 0.5898536666666666 -0.23651
2479942051 0.587777 -0.237488
2481427930 0.5868453333333333 -0.23539999999999997
2482913809 0.5869666666666666 -0.23702333333333334
2484399688 0.586537 -0.23619466666666666
2485885567 0.5817436666666667 -0.2364923333333333
2487371446 0.5818393333333334 -0.23088300000000003
2488857325 0.5766049999999999 -0.2350576666666667
2490343204 0.5786943333333333 -0.23227966666666666
2491829083 0.5807043333333333 -0.23445666666666667
2493314962 0.5840086666666667 -0.23635366666666666
2494800841 0.5829303333333334 -0.23952133333333334
2496286720 0.5876103333333333 -0.2384113333333333
2497772599 0.5880986666666667 -0.2409956666666667
2499258478 0.5935276666666667 -0.24048533333333333
2500744357 0.5927973333333333 -0.23699699999999999
2502230236 0.5959976666666665 -0.23691933333333334
2503716115 0.5948033333333332 -0.23875933333333332
2505201994 0.5946153333333334 -0.23821533333333333
2506687873 0.5949133333333334 -0.23530700000000002
2508173752 0.5930623333333332 -0.23796033333333333
2509659631 0.5934036666666667 -0.23557833333333333
2511145510 0.5910963333333333 -0.23386566666666667
2512631389 0.5938643333333333 -0.23386366666666666
2514117268 0.5915066666666666 -0.23332933333333336
2515603147 0.589484 -0.231098
2517089026 0.587182 -0.227895
2518574905 0.588454 -0.2312616666666667
2520060784 0.582415 -0.229827
2521546663 0.5868563333333333 -0.232367
2523032542 0.5881446666666666 -0.23176466666666665
2524518421 0.5904410000000001 -0.2320013333333333
2526004300 0.5886309999999999 -0.231796
2527490179 0.5904743333333334 -0.231401
2528976058 0.5922466666666666 -0.23357166666666665
2530461937 0.5929733333333332 -0.23539333333333334
2531947816 0.592758 -0.23540166666666665
2533433695 0.5934606666666667 -0.234371
2534919574 0.594953 -0.23503933333333335
2536405453 0.5930836666666667 -0.23546666666666669
2537891332 0.5922583333333333 -0.2342776666666667
2539377211 0.5901893333333333 -0.235635
2540863090 0.591412 -0.23416500000000004
2542348969 0.5903713333333332 -0.23369699999999996
2543834848 0.5878353333333334 -0.23574533333333333
2545320727 0.5849449999999999 -0.23523066666666667
2546806606 0.5850350000000001 -0.232194
2548292485 0.5827973333333334 -0.230177
2549778364 0.5812 -0.232024
2551264243 0.581331 -0.230021
2552750122 0.583504 -0.23343800000000003
2554236001 0.5833603333333334 -0.233903
2555721880 0.5864916666666667 -0.23534933333333333
2557207759 0.5853863333333332 -0.237268
2558693638 0.5887616666666666 -0.23807933333333334
2560179517 0.5898370000000001 -0.237163
2561665396 0.5885446666666666 -0.24163533333333334
2563151275 0.5897633333333333 -0.23871866666666666
2564637154 0.5892339999999999 -0.24090633333333333
2566123033 0.5898403333333334 -0.24199800000000002
2567608912 0.5894823333333333 -0.24157700000000001
2569094791 0.6036796666666667 -0.227791
2570580670 0.5876513333333334 -0.24370166666666662
2572066549 0.5882803333333334 -0.24086266666666667
2573552428 0.5850556666666668 -0.24303833333333333
2575038307 0.583653 -0.24404233333333336
2576524186 0.5835736666666667 -0.24340566666666666
2578010065 0.5803933333333333 -0.239256
2579495944 0.5783243333333333 -0.24049066666666666
2580981823 0.5787363333333334 -0.24080233333333334
2582467702 0.5810283333333333 -0.24439
2583953581 0.5841893333333333 -0.24141899999999997
2585439460 0.5839053333333334 -0.24409033333333333
2586925339 0.5855456666666666 -0.2437883333333333
2588411218 0.5864113333333334 -0.24150266666666667
2589897097 0.587228 -0.24398766666666663
2591382976 0.5868516666666667 -0.24095733333333333
2592868855 0.588954 -0.239927
2594354734 0.5877766666666667 -0.240676
2595840613 0.58658 -0.24005566666666667
2597326492 0.584857 -0.24147133333333334
2598812371 0.5865950000000001 -0.235637
2600298250 0.584791 -0.23490466666666668
2601784129 0.5841203333333334 -0.23358700000000002
2603270008 0.5816606666666666 -0.23310566666666666
2604755887 0.5774203333333333 -0.23410766666666669
2606241766 0.5767293333333333 -0.234349
2607727645 0.5737403333333333 -0.2304453333333333
2609213524 0.5705416666666667 -0.22968833333333336
2610699403 0.5734659999999999 -0.2266796666666667
2612185282 0.5721526666666666 -0.23268633333333333
2613671161 0.5762300000000001 -0.23071166666666665
2615157040 0.5782143333333334 -0.23156733333333332
2616642919 0.5782313333333332 -0.23404966666666668
2618128798 0.5791656666666667 -0.23438866666666666
2619614677 0.5819216666666667 -0.23215
2621100556 0.5753183333333333 -0.22382633333333332
2622586435 0.5659433333333334 -0.23705233333333334
2624072314 0.5804469999999999 -0.23388966666666666
2625558193 0.5794056666666667 -0.23524266666666668
2627044072 0.580818 -0.23374099999999998
2628529951 0.579855 -0.23429133333333332
2630015830 0.5829916666666667 -0.23016533333333333
2631501709 0.58179 -0.23243566666666668
2632987588 0.576587 -0.23200433333333334
2634473467 0.575501 -0.2307416666666667
2635959346 0.5745456666666666 -0.23380599999999999
2637445225 0.5726483333333333 -0.2294763333333333
2638931104 0.5689626666666667 -0.22903300000000001
2640416983 0.5680230000000001 -0.23071566666666665
2641902862 0.5694443333333333 -0.23329366666666665
2643388741 0.5738183333333334 -0.23033533333333334
2644874620 0.5764953333333334 -0.23180733333333334
2646360499 0.5722376666666666 -0.23837633333333333
2647846378 0.5752913333333334 -0.23397333333333334
2649332257 0.578963 -0.236113
2650818136 0.5804823333333333 -0.23446966666666666
2652304015 0.5767666666666666 -0.234344
2653789894 0.5813526666666666 -0.23568266666666668
2655275773 0.58273 -0.236801
2656761652 0.581051 -0.23655166666666663
2658247531 0.5874163333333333 -0.236347
2659733410 0.582572 -0.23687133333333332
2661219289 0.578365 -0.23592033333333332
2662705168 0.5768986666666667 -0.23467433333333335
2664191047 0.5790173333333333 -0.235851
2665676926 0.5738746666666666 -0.23655933333333334
2667162805 0.5728226666666667 -0.23741533333333334
2668648684 0.577886 -0.23660266666666666
2670134563 0.5702663333333333 -0.2328323333333333
2671620442 0.5781353333333333 -0.23396433333333333
2673106321 0.574932 -0.23825700000000002
2674592200 0.5775653333333333 -0.23690266666666668
2676078079 0.5766383333333334 -0.23865599999999998
2677563958 0.57635 -0.24139933333333333
2679049837 0.5782406666666667 -0.23548166666666667
2680535716 0.5776696666666666 -0.23669766666666667
2682021595 0.5755363333333333 -0.23514633333333335
2683507474 0.575594 -0.23895633333333333
2684993353 0.5771086666666667 -0.23483866666666667
2686479232 0.574023 -0.23639966666666667
2687965111 0.5940603333333333 -0.22652466666666668
2689450990 0.5766406666666667 -0.23476466666666665
2690936869 0.5716666666666667 -0.2336693333333333
2692422748 0.5752276666666667 -0.23227933333333337
2693908627 0.569041 -0.236912
2695394506 0.568234 -0.22975966666666667
2696880385 0.5637183333333333 -0.233332
2698366264 0.5624170000000001 -0.23177666666666666
2699852143 0.5657883333333333 -0.231565
2701338022 0.5568396666666667 -0.23299966666666663
2702823901 0.556584 -0.236967
2704309780 0.5705536666666666 -0.23579033333333332
2705795659 0.5655920000000001 -0.23429666666666668
2707281538 0.5730873333333334 -0.23561333333333334
2708767417 0.5709560000000001 -0.236801
2710253296 0.5720716666666666 -0.23498933333333336
2711739175 0.574782 -0.23878
2713225054 0.5745863333333334 -0.23561333333333334
2714710933 0.5794696666666667 -0.23592100000000002
2716196812 0.5782743333333333 -0.2319716666666667
2717682691 0.577938 -0.231529
2719168570 0.5826216666666667 -0.2296126666666667
2720654449 0.5760823333333334 -0.23418766666666668
2722140328 0.5751996666666667 -0.231307
2723626207 0.5771106666666667 -0.23064933333333335
2725112086 0.5701456666666667 -0.230998
2726597965 0.5738686666666667 -0.22920733333333332
2728083844 0.5731773333333333 -0.24804266666666663
2729569723 0.5737753333333333 -0.22458866666666666
2731055602 0.5699529999999999 -0.22687366666666667
2732541481 0.5714779999999999 -0.22741833333333336
2734027360 0.5702486666666666 -0.23223533333333335
2735513239 0.5743383333333334 -0.232761
2736999118 0.5758086666666666 -0.234112
2738484997 0.573986 -0.23623300000000003
2739970876 0.5762943333333334 -0.23492533333333335
2741456755 0.5771976666666667 -0.23590133333333332
2742942634 0.5752076666666667 -0.23917766666666665
2744428513 0.5737063333333333 -0.24150866666666668
2745914392 0.5748293333333333 -0.239641
2747400271 0.5823153333333333 -0.23686733333333332
2748886150 0.5805206666666667 -0.23540399999999997
2750372029 0.578074 -0.23662266666666665
2751857908 0.5792250000000001 -0.23736233333333334
2753343787 0.5808676666666667 -0.23596833333333334
2754829666 0.5743653333333333 -0.24014066666666667
2756315545 0.5764806666666668 -0.23735033333333333
2757801424 0.5665846666666666 -0.24279033333333333
2759287303 0.5686666666666667 -0.24244100000000002
2760773182 0.5701796666666668 -0.24183133333333331
2762259061 0.571897 -0.24009100000000003
2763744940 0.5689963333333333 -0.24532466666666666
2765230819 0.577816 -0.24171833333333334
2766716698 0.5765686666666666 -0.241061
2768202577 0.5798003333333334 -0.24309900000000004
2769688456 0.575848 -0.24435833333333334
2771174335 0.5803556666666666 -0.24095966666666668
2772660214 0.5793856666666666 -0.24217766666666665
2774146093 0.5774593333333333 -0.24639066666666667
2775631972 0.5843756666666666 -0.24060366666666666
2777117851 0.5808026666666667 -0.24462433333333333
2778603730 0.580647 -0.24134633333333336
2780089609 0.5800316666666667 -0.24243
2781575488 0.595366 -0.2450483333333333
2783061367 0.5803539999999999 -0.2371323333333333
2784547246 0.5765453333333334 -0.23816866666666667
2786033125 0.5740693333333334 -0.23944666666666667
2787519004 0.5733353333333333 -0.23896133333333336
2789004883 0.5727476666666665 -0.23745733333333333
2790490762 0.571579 -0.23336933333333335
2791976641 0.5713750000000001 -0.237464
2793462520 0.5766326666666667 -0.241954
2794948399 0.5760226666666667 -0.24050333333333332
2796434278 0.5785159999999999 -0.24427333333333334
2797920157 0.5782986666666666 -0.24245466666666668
2799406036 0.5805243333333333 -0.244897
2800891915 0.5805166666666667 -0.24048899999999998
2802377794 0.5772003333333333 -0.2511586666666667
2803863673 0.5834913333333334 -0.24306166666666665
2805349552 0.5851350000000001 -0.2414713333333333
2806835431 0.5822713333333333 -0.23953666666666665
2808321310 0.5834586666666667 -0.24065166666666668
2809807189 0.579717 -0.24050766666666668
2811293068 0.5793976666666668 -0.24173033333333335
2812778947 0.5801586666666667 -0.239904
2814264826 0.5756023333333334 -0.241138
2815750705 0.573182 -0.23560866666666666
2817236584 0.5715816666666665 -0.23563433333333336
2818722463 0.5689206666666667 -0.23243566666666668
2820208342 0.5638736666666667 -0.24370166666666668
2821694221 0.5756553333333333 -0.236482
2823180100 0.5750546666666666 -0.242761
2824665979 0.5745423333333334 -0.24040599999999998
2826151858 0.5799776666666667 -0.24253433333333332
2827637737 0.574916 -0.24915600000000002
2829123616 0.5827393333333334 -0.247574
2830609495 0.5790593333333333 -0.24239733333333333
2832095374 0.5800973333333334 -0.23786300000000002
2833581253 0.5815073333333333 -0.2478736666666667
2835067132 0.5798683333333333 -0.24315533333333336
2836553011 0.578164 -0.247507
2838038890 0.578383 -0.24085366666666666
2839524769 0.576561 -0.239694
2841010648 0.5757936666666666 -0.232202
2842496527 0.5702256666666666 -0.23705133333333336
2843982406 0.5721723333333334 -0.23415300000000003
2845468285 0.5721223333333333 -0.23594733333333331
2846954164 0.5640853333333334 -0.232874
2848440043 0.56601 -0.23196566666666665
2849925922 0.557935 -0.23061966666666667
2851411801 0.5676756666666667 -0.226352
2852897680 0.567507 -0.22679866666666668
2854383559 0.5707056666666667 -0.22796000000000002
2855869438 0.5765893333333333 -0.2324286666666667
2857355317 0.575367 -0.228326
2858841196 0.575727 -0.22839466666666666
2860327075 0.5787173333333334 -0.227699
2861812954 0.573904 -0.23134633333333335
2863298833 0.5759533333333333 -0.23025433333333334
2864784712 0.5718473333333334 -0.23250133333333334
2866270591 0.576847 -0.22277966666666668
2867756470 0.5816563333333333 -0.22856100000000001
2869242349 0.6017513333333334 -0.18540399999999999
2870728228 0.5775243333333333 -0.22893233333333332
2872214107 0.5757726666666666 -0.22817633333333331
2873699986 0.5767423333333332 -0.22843533333333332
2875185865 0.5723356666666667 -0.21615933333333334
2876671744 0.5680986666666666 -0.22725333333333333
2878157623 0.5740146666666667 -0.2251763333333333
2879643502 0.5650276666666666 -0.22060033333333331
2881129381 0.5647993333333333 -0.22439466666666666
2882615260 0.5681036666666667 -0.22404400000000002
2884101139 0.5703686666666666 -0.22290266666666667
2885587018 0.5707216666666667 -0.22532433333333335
2887072897 0.5791176666666666 -0.22705133333333335
2888558776 0.5779219999999999 -0.23056633333333335
2890044655 0.5736803333333332 -0.22762800000000002
2891530534 0.5803736666666667 -0.231052
2893016413 0.5783046666666666 -0.22949833333333336
2894502292 0.5767363333333334 -0.22595766666666664
2895988171 0.5773593333333333 -0.23002799999999998
2897474050 0.5764403333333333 -0.23006333333333331
2898959929 0.5806643333333333 -0.23030533333333333
2900445808 0.576925 -0.225853
2901931687 0.5737836666666666 -0.22467433333333334
2903417566 0.5753520000000001 -0.22626266666666664
2904903445 0.572965 -0.22639866666666664
2906389324 0.5754566666666667 -0.22218400000000002
2907875203 0.5696603333333333 -0.22577766666666665
2909361082 0.5710966666666667 -0.2257296666666667
2910846961 0.5692566666666666 -0.22314599999999998
2912332840 0.5705646666666667 -0.223428
2913818719 0.5702153333333334 -0.2282033333333333
2915304598 0.5706559999999999 -0.225577
2916790477 0.5763553333333333 -0.22754033333333334
2918276356 0.573636 -0.22745866666666667
2919762235 0.5748043333333334 -0.231949
2921248114 0.5765576666666666 -0.2325763333333333
2922733993 0.5981740000000001 -0.223614
2924219872 0.5745106666666667 -0.23477433333333333
2925705751 0.5755560000000001 -0.23546666666666669
2927191630 0.5638993333333333 -0.22055800000000003
2928677509 0.577041 -0.23860499999999998
2930163388 0.5729866666666666 -0.23259700000000003
2931649267 0.5704323333333333 -0.23350300000000002
2933135146 0.5685163333333333 -0.23419133333333333
2934621025 0.5701776666666666 -0.23692766666666665
2936106904 0.568996 -0.23438099999999998
2937592783 0.568969 -0.231681
2939078662 0.5647463333333334 -0.23465466666666668
2940564541 0.563831 -0.234403
2942050420 0.5641536666666668 -0.23690833333333336
2943536299 0.5676616666666666 -0.23493433333333333
2945022178 0.5685790000000001 -0.23429333333333335
2946508057 0.5705023333333333 -0.23674566666666666
2947993936 0.571077 -0.23824466666666666
2949479815 0.5757593333333334 -0.238283
2950965694 0.5745523333333333 -0.2385556666666667
2952451573 0.575343 -0.23831666666666665
2953937452 0.574905 -0.23617566666666667
2955423331 0.5808436666666666 -0.23590366666666665
2956909210 0.5743506666666667 -0.23444966666666667
2958395089 0.5733773333333333 -0.236442
2959880968 0.572685 -0.23260166666666668
2961366847 0.5735143333333333 -0.23212999999999998
2962852726 0.5700729999999999 -0.232855
2964338605 0.5728110000000001 -0.22652233333333335
2965824484 0.5692913333333333 -0.22774833333333333
2967310363 0.5661523333333334 -0.22626633333333335
2968796242 0.565189 -0.22465100000000002
2970282121 0.5629293333333334 -0.22473666666666667
2971768000 0.5641206666666666 -0.22644300000000003
2973253879 0.5670976666666666 -0.227152
2974739758 0.5651123333333333 -0.22837799999999997
2976225637 0.570559 -0.228658
2977711516 0.569522 -0.22936033333333336
2979197395 0.5711536666666667 -0.22965833333333333
2980683274 0.5726939999999999 -0.229596
2982169153 0.571628 -0.23161733333333334
2983655032 0.573168 -0.23111766666666667
2985140911 0.5727303333333333 -0.231851
2986626790 0.572455 -0.229152
2988112669 0.5727183333333333 -0.23090266666666667
2989598548 0.572437 -0.22515533333333335
2991084427 0.5715653333333334 -0.22573433333333334
2992570306 0.569567 -0.22764033333333333
2994056185 0.5698016666666667 -0.22322066666666665
2995542064 0.5682353333333333 -0.22155100000000003
2997027943 0.565815 -0.223692
2998513822 0.5660906666666666 -0.22214133333333333
2999999701 0.5634296666666666 -0.22087066666666666
