# HZ S RI R 50
10000000 0.997865 -0.002867
12963330 1.000635 -0.006436
15926660 1.008033 -0.010142
18889990 1.01024 -0.013876
21853320 1.013872 -0.016033
24816650 1.014287 -0.017943
27779980 1.015698 -0.018103
30743310 1.013128 -0.016903
33706640 1.009674 -0.018301
36669970 1.004085 -0.017907
39633300 0.995578 -0.015983
42596630 1.001072 -0.02054
45559960 1.007539 -0.023847
48523290 1.011579 -0.026102
51486620 1.016785 -0.027726
54449950 1.015635 -0.028286
57413280 1.016071 -0.028972
60376610 1.012647 -0.028676
63339940 1.007609 -0.027358
66303270 0.999663 -0.027683
69266600 0.992273 -0.026507
72229930 0.996196 -0.028635
75193260 1.000802 -0.032389
78156590 1.005489 -0.034446
81119920 1.00679 -0.034665
84083250 1.00777 -0.035329
87046580 1.006593 -0.036513
90009910 1.00526 -0.035741
92973240 0.999694 -0.035376
95936570 0.995092 -0.034797
98899900 0.986119 -0.034469
101863230 0.988612 -0.036199
104826560 0.994856 -0.036806
107789890 0.996851 -0.039154
110753220 0.999736 -0.039451
113716550 1.001427 -0.040331
116679880 0.999427 -0.039932
119643210 0.996619 -0.039522
122606540 0.992772 -0.039805
125569870 0.986862 -0.038218
128533200 0.98954 -0.002644
131496530 0.983509 -0.038847
134459860 0.989857 -0.040138
137423190 0.981496 -0.051444
140386520 0.98612 -0.053599
143349850 0.987907 -0.051131
146313180 0.988777 -0.049606
149276510 0.989675 -0.048062
152239840 0.986295 -0.046919
155203170 0.981339 -0.045182
158166500 0.975824 -0.042937
161129830 0.977254 -0.043461
164093160 0.983102 -0.043827
167056490 0.985352 -0.044915
170019820 0.9899 -0.044362
172983150 0.989937 -0.043719
175946480 0.990007 -0.043803
178909810 0.986763 -0.04333
181873140 0.983369 -0.043235
184836470 0.976708 -0.043593
187799800 0.971068 -0.045385
190763130 0.970603 -0.045966
193726460 0.976467 -0.045571
196689790 0.981247 -0.046144
199653120 0.984039 -0.045114
202616450 0.985299 -0.044763
205579780 0.985917 -0.044181
208543110 0.983655 -0.044181
211506440 0.98056 -0.045449
214469770 0.975123 -0.044634
217433100 0.968052 -0.046259
220396430 0.966626 -0.048513
223359760 0.974256 -0.047301
226323090 0.97782 -0.046887
229286420 0.981663 -0.046219
232249750 0.984261 -0.046426
235213080 0.983656 -0.0458
238176410 0.981432 -0.046256
241139740 0.978563 -0.044697
244103070 0.973179 -0.045725
247066400 0.966284 -0.047665
250029730 0.961962 -0.050735
252993060 0.970033 -0.050154
255956390 0.97601 -0.049607
258919720 0.979796 -0.05036
261883050 0.983499 -0.04797
264846380 0.983097 -0.048136
267809710 0.979805 -0.04852
270773040 0.976351 -0.048358
273736370 0.9714 -0.046689
276699700 0.964652 -0.050319
279663030 0.957215 -0.050965
282626360 0.966947 -0.052132
285589690 0.978095 -0.053601
288553020 0.977724 -0.051862
291516350 0.979207 -0.051522
294479680 0.980465 -0.050407
297443010 0.978742 -0.051612
300406340 0.97451 -0.047588
303369670 0.96822 -0.04866
306333000 0.960109 -0.050718
309296330 0.952926 -0.05344
312259660 0.960832 -0.05379
315222990 0.969974 -0.054939
318186320 0.972274 -0.05654
321149650 0.974985 -0.055446
324112980 0.977367 -0.055337
327076310 0.975933 -0.053806
330039640 0.972662 -0.054163
333002970 0.966344 -0.053487
335966300 0.959795 -0.05284
338929630 0.95099 -0.054202
341892960 0.96125 -0.055629
344856290 0.967392 -0.058817
347819620 0.971465 -0.056211
350782950 0.973413 -0.059586
353746280 0.97381 -0.057621
356709610 0.973252 -0.05654
359672940 0.971809 -0.057022
362636270 0.965799 -0.057904
365599600 0.959104 -0.05563
368562930 0.949258 -0.05516
371526260 0.955954 -0.057385
374489590 0.963093 -0.059896
377452920 0.966684 -0.060029
380416250 0.971679 -0.059998
383379580 0.972149 -0.060184
386342910 0.971531 -0.059458
389306240 0.968342 -0.058652
392269570 0.963787 -0.058923
395232900 0.957056 -0.059248
398196230 0.948888 -0.057987
401159560 0.954974 -0.060987
404122890 0.95933 -0.062234
407086220 0.965267 -0.062082
410049550 0.968297 -0.062597
413012880 0.969397 -0.062458
415976210 0.969598 -0.0614
418939540 0.966563 -0.060703
421902870 0.962934 -0.058682
424866200 0.956383 -0.058848
427829530 0.948046 -0.056464
430792860 0.950754 -0.059181
433756190 0.958662 -0.059381
436719520 0.962424 -0.061525
439682850 0.965006 -0.06254
442646180 0.965773 -0.061402
445609510 0.965247 -0.060843
448572840 0.962676 -0.060989
451536170 0.957753 -0.058883
454499500 0.951904 -0.057644
457462830 0.945619 -0.057061
460426160 0.946787 -0.060987
463389490 0.952246 -0.061523
466352820 0.957974 -0.063674
469316150 0.960151 -0.063953
472279480 0.960889 -0.063742
475242810 0.960821 -0.063911
478206140 0.958063 -0.060523
481169470 0.95577 -0.060122
484132800 0.948275 -0.061595
487096130 0.941311 -0.06143
490059460 0.942038 -0.061269
493022790 0.949208 -0.064652
495986120 0.954524 -0.06389
498949450 0.958142 -0.062351
501912780 0.960832 -0.062239
504876110 0.962338 -0.062603
507839440 0.95819 -0.061986
510802770 0.956882 -0.059581
513766100 0.95307 -0.05837
516729430 0.945365 -0.060567
519692760 0.944531 -0.057678
522656090 0.952653 -0.061076
525619420 0.956413 -0.061484
528582750 0.960608 -0.063308
531546080 0.962283 -0.060115
534509410 0.960966 -0.0602
537472740 0.959217 -0.059713
540436070 0.956697 -0.06076
543399400 0.951385 -0.057743
546362730 0.943337 -0.061501
549326060 0.943356 -0.064543
552289390 0.949913 -0.063806
555252720 0.9553 -0.063794
558216050 0.959594 -0.063002
561179380 0.960702 -0.060781
564142710 0.964928 -0.065487
567106040 0.961909 -0.062962
570069370 0.956753 -0.063903
573032700 0.950725 -0.058597
575996030 0.960601 -0.050923
578959360 0.942031 -0.060247
581922690 0.95254 -0.060477
584886020 0.957132 -0.0636
587849350 0.958305 -0.064027
590812680 0.962845 -0.063877
593776010 0.962713 -0.062172
596739340 0.961807 -0.062508
599702670 0.958043 -0.061096
602666000 0.951375 -0.061128
605629330 0.945968 -0.064274
608592660 0.938824 -0.06228
611555990 0.946055 -0.063203
614519320 0.954104 -0.064936
617482650 0.958414 -0.068875
620445980 0.961688 -0.065869
623409310 0.962154 -0.064897
626372640 0.961006 -0.064049
629335970 0.95835 -0.063356
632299300 0.952535 -0.060621
635262630 0.946426 -0.058949
638225960 0.939785 -0.062344
641189290 0.946708 -0.066786
644152620 0.95582 -0.065424
647115950 0.95758 -0.069609
650079280 0.961826 -0.065496
653042610 0.962643 -0.065552
656005940 0.960771 -0.064461
658969270 0.9581 -0.063005
661932600 0.951486 -0.061428
664895930 0.947652 -0.062437
667859260 0.936506 -0.063628
670822590 0.945548 -0.063702
673785920 0.951716 -0.066019
676749250 0.956308 -0.067706
679712580 0.96001 -0.067476
682675910 0.961672 -0.067392
685639240 0.959476 -0.070023
688602570 0.95709 -0.066282
691565900 0.952003 -0.063941
694529230 0.94701 -0.064878
697492560 0.938192 -0.062848
700455890 0.944843 -0.065467
703419220 0.950167 -0.066381
706382550 0.954979 -0.068197
709345880 0.96057 -0.067859
712309210 0.958981 -0.070363
715272540 0.957957 -0.068699
718235870 0.95745 -0.067709
721199200 0.950111 -0.06731
724162530 0.945466 -0.06377
727125860 0.935852 -0.064657
730089190 0.942339 -0.068226
733052520 0.946358 -0.069817
736015850 0.953072 -0.072717
738979180 0.954644 -0.071554
741942510 0.955056 -0.068806
744905840 0.954975 -0.067766
747869170 0.953514 -0.066598
750832500 0.948785 -0.068991
753795830 0.944775 -0.062412
756759160 0.937191 -0.063331
759722490 0.940227 -0.065888
762685820 0.945331 -0.067351
765649150 0.949447 -0.066698
768612480 0.953221 -0.068758
771575810 0.955343 -0.071087
774539140 0.953063 -0.070553
777502470 0.953169 -0.065802
780465800 0.951614 -0.063261
783429130 0.943182 -0.063003
786392460 0.936012 -0.06285
789355790 0.937384 -0.067443
792319120 0.94566 -0.065224
795282450 0.95111 -0.066417
798245780 0.952196 -0.068288
801209110 0.952537 -0.070693
804172440 0.953392 -0.068505
807135770 0.951176 -0.068211
810099100 0.945087 -0.070514
813062430 0.940916 -0.069139
816025760 0.931321 -0.067554
818989090 0.935227 -0.07166
821952420 0.941911 -0.073244
824915750 0.948583 -0.071745
827879080 0.950114 -0.075282
830842410 0.950975 -0.071964
833805740 0.950754 -0.074713
836769070 0.94902 -0.072532
839732400 0.945946 -0.071929
842695730 0.939438 -0.073796
845659060 0.932351 -0.072801
848622390 0.932223 -0.075052
851585720 0.938958 -0.079424
854549050 0.943824 -0.07787
857512380 0.947875 -0.081585
860475710 0.950114 -0.078017
863439040 0.952116 -0.076459
866402370 0.947441 -0.074879
869365700 0.946006 -0.077437
872329030 0.938309 -0.077452
875292360 0.932412 -0.078632
878255690 0.92881 -0.079507
881219020 0.937342 -0.08112
884182350 0.94442 -0.081558
887145680 0.949422 -0.082364
890109010 0.950023 -0.080931
893072340 0.951755 -0.082161
896035670 0.950433 -0.082382
898999000 0.946163 -0.081312
901962330 0.942146 -0.076666
904925660 0.93319 -0.080245
907888990 0.931724 -0.078282
910852320 0.938879 -0.080387
913815650 0.945693 -0.080835
916778980 0.948195 -0.084326
919742310 0.950991 -0.084911
922705640 0.949997 -0.086361
925668970 0.949468 -0.077026
928632300 0.946654 -0.07618
931595630 0.939976 -0.077436
934558960 0.931765 -0.07861
937522290 0.926657 -0.073598
940485620 0.934657 -0.077771
943448950 0.939429 -0.079886
946412280 0.943175 -0.081118
949375610 0.947221 -0.080903
952338940 0.947328 -0.080696
955302270 0.972338 -0.006022
958265600 0.94296 -0.080844
961228930 0.939956 -0.079133
964192260 0.934031 -0.073017
967155590 0.927239 -0.079728
970118920 0.93488 -0.079097
973082250 0.940166 -0.082465
976045580 0.944636 -0.083329
979008910 0.947641 -0.078446
981972240 0.947983 -0.083416
984935570 0.946706 -0.082958
987898900 0.942973 -0.081707
990862230 0.940758 -0.079652
993825560 0.936132 -0.077897
996788890 0.927752 -0.076385
999752220 0.93624 -0.080497
1002715550 0.9391 -0.082582
1005678880 0.944131 -0.081733
1008642210 0.94566 -0.08029
1011605540 0.946659 -0.081534
1014568870 0.946437 -0.078782
1017532200 0.94412 -0.077414
1020495530 0.938988 -0.082392
1023458860 0.934536 -0.078145
1026422190 0.926116 -0.075487
1029385520 0.932142 -0.076131
1032348850 0.938032 -0.077787
1035312180 0.945026 -0.078465
1038275510 0.944924 -0.081184
1041238840 0.946355 -0.08161
1044202170 0.945373 -0.079475
1047165500 0.944113 -0.077127
1050128830 0.941063 -0.077955
1053092160 0.936811 -0.078792
1056055490 0.93037 -0.076589
1059018820 0.936152 -0.075202
1061982150 0.936293 -0.082182
1064945480 0.943931 -0.079592
1067908810 0.947563 -0.077806
1070872140 0.949131 -0.081889
1073835470 0.947979 -0.079317
1076798800 0.947174 -0.075424
1079762130 0.942672 -0.071796
1082725460 0.936267 -0.076028
1085688790 0.93346 -0.074005
1088652120 0.933799 -0.076702
1091615450 0.940101 -0.079564
1094578780 0.94377 -0.077217
1097542110 0.947978 -0.074892
1100505440 0.948187 -0.076396
1103468770 0.947125 -0.077192
1106432100 0.945481 -0.073188
1109395430 0.942116 -0.076597
1112358760 0.936262 -0.077565
1115322090 0.92998 -0.075847
1118285420 0.932826 -0.074537
1121248750 0.941264 -0.076913
1124212080 0.944233 -0.077033
1127175410 0.944519 -0.073822
1130138740 0.946229 -0.078102
1133102070 0.945536 -0.079626
1136065400 0.943805 -0.079884
1139028730 0.939233 -0.084736
1141992060 0.931982 -0.084427
1144955390 0.928188 -0.083578
1147918720 0.930744 -0.085258
1150882050 0.935247 -0.086907
1153845380 0.944854 -0.085937
1156808710 0.946891 -0.089634
1159772040 0.947529 -0.087034
1162735370 0.948192 -0.088436
1165698700 0.946684 -0.090529
1168662030 0.944222 -0.086655
1171625360 0.935965 -0.085446
1174588690 0.92967 -0.092444
1177552020 0.929862 -0.089454
1180515350 0.936957 -0.088917
1183478680 0.945494 -0.091127
1186442010 0.949302 -0.089539
1189405340 0.947317 -0.094946
1192368670 0.947389 -0.091528
1195332000 0.947828 -0.08859
1198295330 0.942312 -0.088007
1201258660 0.937315 -0.091799
1204221990 0.92813 -0.090308
1207185320 0.923553 -0.090328
1210148650 0.932509 -0.097171
1213111980 0.939435 -0.097675
1216075310 0.944302 -0.096682
1219038640 0.943446 -0.098313
1222001970 0.947512 -0.098881
1224965300 0.944357 -0.098036
1227928630 0.940323 -0.098173
1230891960 0.934572 -0.095645
1233855290 0.924383 -0.095729
1236818620 0.924558 -0.098794
1239781950 0.93095 -0.101163
1242745280 0.937875 -0.10207
1245708610 0.943094 -0.10442
1248671940 0.945018 -0.106258
1251635270 0.947035 -0.101194
1254598600 0.942426 -0.101855
1257561930 0.938447 -0.10377
1260525260 0.933583 -0.097617
1263488590 0.927306 -0.098008
1266451920 0.91938 -0.097998
1269415250 0.92884 -0.09772
1272378580 0.934384 -0.099597
1275341910 0.938165 -0.103032
1278305240 0.938268 -0.101277
1281268570 0.939931 -0.1072
1284231900 0.939671 -0.103945
1287195230 0.935197 -0.104859
1290158560 0.929957 -0.101895
1293121890 0.923388 -0.100233
1296085220 0.917895 -0.105131
1299048550 0.924606 -0.10231
1302011880 0.929406 -0.104148
1304975210 0.932922 -0.107107
1307938540 0.936506 -0.107642
1310901870 0.938297 -0.100493
1313865200 0.935293 -0.110479
1316828530 0.932544 -0.10277
1319791860 0.928336 -0.105177
1322755190 0.922597 -0.103905
1325718520 0.915757 -0.098571
1328681850 0.921931 -0.096581
1331645180 0.927114 -0.102526
1334608510 0.928566 -0.103146
1337571840 0.929641 -0.102303
1340535170 0.930824 -0.107888
1343498500 0.929909 -0.109536
1346461830 0.930282 -0.104009
1349425160 0.926905 -0.105545
1352388490 0.921027 -0.100763
1355351820 0.914275 -0.09942
1358315150 0.917921 -0.105267
1361278480 0.926261 -0.108947
1364241810 0.92989 -0.103309
1367205140 0.933201 -0.109697
1370168470 0.934841 -0.104515
1373131800 0.934971 -0.103806
1376095130 0.932473 -0.096281
1379058460 0.928966 -0.10122
1382021790 0.927208 -0.101497
1384985120 0.920719 -0.095842
1387948450 0.920348 -0.099608
1390911780 0.929857 -0.107019
1393875110 0.93268 -0.10352
1396838440 0.937404 -0.09804
1399801770 0.936596 -0.10244
1402765100 0.934945 -0.104606
1405728430 0.934226 -0.094445
1408691760 0.927806 -0.101506
1411655090 0.924806 -0.104579
1414618420 0.920857 -0.099822
1417581750 0.924108 -0.09951
1420545080 0.929779 -0.100357
1423508410 0.934234 -0.099404
1426471740 0.936335 -0.101403
1429435070 0.933786 -0.10387
1432398400 0.937401 -0.103256
1435361730 0.936036 -0.103511
1438325060 0.929349 -0.106504
1441288390 0.924603 -0.102049
1444251720 0.91803 -0.10257
1447215050 0.923661 -0.103445
1450178380 0.929044 -0.109829
1453141710 0.936352 -0.103961
1456105040 0.937946 -0.099948
1459068370 0.938621 -0.100021
1462031700 0.941512 -0.093153
1464995030 0.937138 -0.100434
1467958360 0.934198 -0.092071
1470921690 0.929114 -0.094902
1473885020 0.9225 -0.094181
1476848350 0.921025 -0.098146
1479811680 0.929802 -0.095502
1482775010 0.933914 -0.100824
1485738340 0.937292 -0.099778
1488701670 0.939891 -0.0934
1491665000 0.939914 -0.09385
1494628330 0.937741 -0.100692
1497591660 0.934292 -0.09909
1500554990 0.928412 -0.09619
1503518320 0.921191 -0.096732
1506481650 0.921198 -0.101413
1509444980 0.929423 -0.0993
1512408310 0.936462 -0.100525
1515371640 0.93867 -0.103552
1518334970 0.940286 -0.105391
1521298300 0.94097 -0.103761
1524261630 0.938009 -0.103193
1527224960 0.934193 -0.103946
1530188290 0.929513 -0.102939
1533151620 0.918466 -0.108189
1536114950 0.922006 -0.107548
1539078280 0.930026 -0.105804
1542041610 0.936018 -0.112506
1545004940 0.936261 -0.112912
1547968270 0.941537 -0.112345
1550931600 0.941709 -0.110682
1553894930 0.943558 -0.098425
1556858260 0.934825 -0.105913
1559821590 0.929896 -0.107337
1562784920 0.924208 -0.102002
1565748250 0.925771 -0.078319
1568711580 0.937382 -0.079311
1571674910 0.942137 -0.091261
1574638240 0.947827 -0.083937
1577601570 0.95164 -0.086873
1580564900 0.950257 -0.089885
1583528230 0.947253 -0.080197
1586491560 0.94572 -0.081634
1589454890 0.938256 -0.079988
1592418220 0.929248 -0.076541
1595381550 0.923727 -0.079567
1598344880 0.930422 -0.083448
1601308210 0.937501 -0.082521
1604271540 0.941245 -0.082807
1607234870 0.944039 -0.085687
1610198200 0.942568 -0.082517
1613161530 0.931244 -0.114391
1616124860 0.930425 -0.116535
1619088190 0.923625 -0.119744
1622051520 0.917357 -0.116224
1625014850 0.911498 -0.107076
1627978180 0.91719 -0.113986
1630941510 0.923849 -0.116316
1633904840 0.927435 -0.120134
1636868170 0.930482 -0.118473
1639831500 0.932905 -0.116521
1642794830 0.928657 -0.116471
1645758160 0.928281 -0.116201
1648721490 0.922189 -0.111271
1651684820 0.917548 -0.109015
1654648150 0.907857 -0.108497
1657611480 0.913244 -0.110372
1660574810 0.918205 -0.116666
1663538140 0.923706 -0.112067
1666501470 0.926475 -0.114471
1669464800 0.92479 -0.121179
1672428130 0.925494 -0.117497
1675391460 0.922916 -0.117564
1678354790 0.919459 -0.117384
1681318120 0.911134 -0.117032
1684281450 0.905728 -0.114216
1687244780 0.911654 -0.120813
1690208110 0.915383 -0.119424
1693171440 0.918428 -0.12124
1696134770 0.922105 -0.12654
1699098100 0.924044 -0.120124
1702061430 0.921952 -0.127027
1705024760 0.919008 -0.122998
1707988090 0.916362 -0.119756
1710951420 0.912464 -0.112737
1713914750 0.90567 -0.115041
1716878080 0.908495 -0.11886
1719841410 0.917074 -0.123012
1722804740 0.9215 -0.123348
1725768070 0.922287 -0.12729
1728731400 0.922996 -0.118144
1731694730 0.921565 -0.117713
1734658060 0.920019 -0.125819
1737621390 0.914706 -0.120843
1740584720 0.911731 -0.120702
1743548050 0.906666 -0.117091
1746511380 0.912423 -0.115355
1749474710 0.91706 -0.124882
1752438040 0.919556 -0.128551
1755401370 0.92649 -0.124015
1758364700 0.927491 -0.12257
1761328030 0.921825 -0.1189
1764291360 0.917314 -0.124849
1767254690 0.919246 -0.127143
1770218020 0.91258 -0.115003
1773181350 0.905616 -0.123598
1776144680 0.906501 -0.129966
1779108010 0.920763 -0.123645
1782071340 0.920115 -0.124334
1785034670 0.926189 -0.132424
1787998000 0.928284 -0.12168
1790961330 0.926696 -0.123991
1793924660 0.922589 -0.121332
1796887990 0.922123 -0.118747
1799851320 0.914406 -0.116053
1802814650 0.907937 -0.113306
1805777980 0.910956 -0.11853
1808741310 0.918466 -0.116114
1811704640 0.921589 -0.123397
1814667970 0.921321 -0.123301
1817631300 0.924855 -0.120992
1820594630 0.926462 -0.11451
1823557960 0.928863 -0.114091
1826521290 0.921166 -0.121616
1829484620 0.913624 -0.116008
1832447950 0.912845 -0.114722
1835411280 0.909904 -0.114261
1838374610 0.919376 -0.11368
1841337940 0.920573 -0.112866
1844301270 0.923031 -0.116417
1847264600 0.927897 -0.117043
1850227930 0.928842 -0.11935
1853191260 0.932768 -0.11526
1856154590 0.918495 -0.132804
1859117920 0.915648 -0.117584
1862081250 0.907824 -0.116219
1865044580 0.909167 -0.116095
1868007910 0.914356 -0.121067
1870971240 0.919849 -0.119417
1873934570 0.924729 -0.121436
1876897900 0.92853 -0.116629
1879861230 0.928521 -0.117402
1882824560 0.926009 -0.11442
1885787890 0.922587 -0.117277
1888751220 0.915999 -0.118618
1891714550 0.913713 -0.112984
1894677880 0.910662 -0.109946
1897641210 0.916552 -0.114599
1900604540 0.919286 -0.120195
1903567870 0.922932 -0.120805
1906531200 0.925281 -0.115429
1909494530 0.924857 -0.122446
1912457860 0.924822 -0.121003
1915421190 0.923576 -0.112295
1918384520 0.913463 -0.118994
1921347850 0.910351 -0.105066
1924311180 0.906291 -0.110968
1927274510 0.912338 -0.117395
1930237840 0.917136 -0.116177
1933201170 0.922042 -0.118655
1936164500 0.924197 -0.11851
1939127830 0.925355 -0.120574
1942091160 0.917492 -0.126811
1945054490 0.919687 -0.116641
1948017820 0.911101 -0.118898
1950981150 0.906752 -0.114395
1953944480 0.900016 -0.110363
1956907810 0.911439 -0.11186
1959871140 0.91528 -0.118229
1962834470 0.916706 -0.125487
1965797800 0.920802 -0.115894
1968761130 0.915826 -0.121932
1971724460 0.916859 -0.12945
1974687790 0.913933 -0.128336
1977651120 0.913289 -0.123474
1980614450 0.908045 -0.117226
1983577780 0.901102 -0.116448
1986541110 0.910017 -0.115975
1989504440 0.91619 -0.125356
1992467770 0.917457 -0.119975
1995431100 0.921297 -0.121589
1998394430 0.919493 -0.125752
2001357760 0.922844 -0.11704
2004321090 0.913348 -0.124483
2007284420 0.912726 -0.125047
2010247750 0.902813 -0.121454
2013211080 0.897684 -0.121093
2016174410 0.904487 -0.122611
2019137740 0.905941 -0.136161
2022101070 0.917934 -0.120098
2025064400 0.922768 -0.119254
2028027730 0.919841 -0.118058
2030991060 0.919863 -0.121535
2033954390 0.919426 -0.121586
2036917720 0.910929 -0.112959
2039881050 0.910306 -0.11479
2042844380 0.898651 -0.116089
2045807710 0.905474 -0.114583
2048771040 0.910935 -0.124158
2051734370 0.91442 -0.115494
2054697700 0.919625 -0.119282
2057661030 0.914742 -0.124826
2060624360 0.917797 -0.120579
2063587690 0.917613 -0.11789
2066551020 0.913488 -0.123616
2069514350 0.904833 -0.118592
2072477680 0.896922 -0.126524
2075441010 0.901319 -0.134971
2078404340 0.919743 -0.132959
2081367670 0.912004 -0.13007
2084331000 0.913402 -0.130832
2087294330 0.914781 -0.127089
2090257660 0.916801 -0.129969
2093220990 0.910352 -0.131092
2096184320 0.911858 -0.117232
2099147650 0.904712 -0.128426
2102110980 0.899351 -0.129567
2105074310 0.902419 -0.123018
2108037640 0.908249 -0.132476
2111000970 0.912041 -0.127615
2113964300 0.912922 -0.131662
2116927630 0.917573 -0.132221
2119890960 0.916883 -0.131526
2122854290 0.915308 -0.128311
2125817620 0.915548 -0.122998
2128780950 0.904362 -0.130475
2131744280 0.900936 -0.12245
2134707610 0.899779 -0.12539
2137670940 0.90638 -0.126198
2140634270 0.911339 -0.126796
2143597600 0.915341 -0.125105
2146560930 0.911992 -0.12961
2149524260 0.922477 -0.127677
2152487590 0.911312 -0.13879
2155450920 0.909301 -0.128599
2158414250 0.905881 -0.127541
2161377580 0.898941 -0.127446
2164340910 0.89708 -0.132654
2167304240 0.907265 -0.133922
2170267570 0.911598 -0.135716
2173230900 0.913338 -0.132568
2176194230 0.91302 -0.141792
2179157560 0.916968 -0.134192
2182120890 0.914552 -0.130359
2185084220 0.913116 -0.131671
2188047550 0.90717 -0.12831
2191010880 0.897955 -0.128678
2193974210 0.902127 -0.129036
2196937540 0.904658 -0.128122
2199900870 0.911318 -0.131852
2202864200 0.911232 -0.137779
2205827530 0.922622 -0.127006
2208790860 0.921019 -0.133859
2211754190 0.917412 -0.135045
2214717520 0.918133 -0.124948
2217680850 0.909083 -0.140489
2220644180 0.896218 -0.129504
2223607510 0.893821 -0.13809
2226570840 0.903575 -0.134871
2229534170 0.91097 -0.148141
2232497500 0.91329 -0.136018
2235460830 0.907042 -0.144763
2238424160 0.912209 -0.146778
2241387490 0.912054 -0.133264
2244350820 0.906181 -0.135654
2247314150 0.907584 -0.137993
2250277480 0.894774 -0.140594
2253240810 0.914668 -0.109085
2256204140 0.897705 -0.136567
2259167470 0.909189 -0.134489
2262130800 0.90504 -0.142668
2265094130 0.909341 -0.142129
2268057460 0.911379 -0.140096
2271020790 0.90935 -0.140827
2273984120 0.90812 -0.139578
2276947450 0.910433 -0.133602
2279910780 0.903585 -0.134815
2282874110 0.891458 -0.129814
2285837440 0.900165 -0.135933
2288800770 0.903611 -0.137334
2291764100 0.90841 -0.141891
2294727430 0.912132 -0.136466
2297690760 0.910925 -0.144617
2300654090 0.909259 -0.133009
2303617420 0.910649 -0.137324
2306580750 0.901241 -0.137646
2309544080 0.897993 -0.134425
2312507410 0.896562 -0.12836
2315470740 0.898993 -0.127385
2318434070 0.906005 -0.129137
2321397400 0.907765 -0.132431
2324360730 0.91194 -0.136499
2327324060 0.905034 -0.137599
2330287390 0.910462 -0.137783
2333250720 0.903552 -0.144523
2336214050 0.901819 -0.143002
2339177380 0.899534 -0.130999
2342140710 0.900786 -0.130548
2345104040 0.905817 -0.118255
2348067370 0.898135 -0.145071
2351030700 0.914988 -0.119474
2353994030 0.899862 -0.161796
2356957360 0.910553 -0.127341
2359920690 0.900383 -0.14869
2362884020 0.912567 -0.129148
2365847350 0.892892 -0.149692
2368810680 0.9038 -0.122053
2371774010 0.887035 -0.148758
2374737340 0.896009 -0.130236
2377700670 0.886732 -0.156959
2380664000 0.906076 -0.125273
2383627330 0.896248 -0.155681
2386590660 0.906831 -0.135092
2389553990 0.900583 -0.156237
2392517320 0.9104 -0.126026
2395480650 0.890341 -0.161924
2398443980 0.902785 -0.120212
2401407310 0.882761 -0.147792
2404370640 0.889631 -0.146639
2407333970 0.895477 -0.151298
2410297300 0.902096 -0.144964
2413260630 0.899307 -0.152251
2416223960 0.90059 -0.147857
2419187290 0.906658 -0.144225
2422150620 0.903722 -0.137646
2425113950 0.896973 -0.147976
2428077280 0.8902 -0.1551
2431040610 0.887187 -0.135781
2434003940 0.891755 -0.135817
2436967270 0.899051 -0.145273
2439930600 0.90295 -0.149672
2442893930 0.961333 -0.101214
2445857260 0.900962 -0.159917
2448820590 0.904952 -0.145083
2451783920 0.899271 -0.1479
2454747250 0.89999 -0.153845
2457710580 0.892867 -0.151618
2460673910 0.885176 -0.155546
2463637240 0.887242 -0.159273
2466600570 0.894187 -0.159631
2469563900 0.899098 -0.152549
2472527230 0.90723 -0.158275
2475490560 0.9125 -0.13458
2478453890 0.907685 -0.151593
2481417220 0.907941 -0.146804
2484380550 0.901033 -0.144455
2487343880 0.899189 -0.153875
2490307210 0.890463 -0.141475
2493270540 0.894555 -0.144533
2496233870 0.901591 -0.138321
2499197200 0.900921 -0.133305
2502160530 0.90213 -0.142244
2505123860 0.910999 -0.135312
2508087190 0.913135 -0.133765
2511050520 0.904915 -0.141928
2514013850 0.901745 -0.131256
2516977180 0.89771 -0.137003
2519940510 0.888044 -0.130702
2522903840 0.890343 -0.138454
2525867170 0.893917 -0.131887
2528830500 0.904588 -0.134172
2531793830 0.896907 -0.149013
2534757160 0.902194 -0.143733
2537720490 0.900921 -0.144005
2540683820 0.904384 -0.14243
2543647150 0.898635 -0.141369
2546610480 0.8984 -0.141925
2549573810 0.883841 -0.148632
2552537140 0.887644 -0.151595
2555500470 0.895599 -0.1484
2558463800 0.902862 -0.146075
2561427130 0.904644 -0.154078
2564390460 0.902547 -0.148592
2567353790 0.905571 -0.149635
2570317120 0.904124 -0.145858
2573280450 0.904282 -0.145652
2576243780 0.893354 -0.146854
2579207110 0.889329 -0.146312
2582170440 0.886831 -0.149453
2585133770 0.89258 -0.145204
2588097100 0.89391 -0.149216
2591060430 0.89731 -0.144933
2594023760 0.899395 -0.154174
2596987090 0.897694 -0.154311
2599950420 0.895931 -0.146535
2602913750 0.89605 -0.146858
2605877080 0.892332 -0.14544
2608840410 0.885597 -0.146359
2611803740 0.885751 -0.140116
2614767070 0.889006 -0.150614
2617730400 0.883215 -0.158693
2620693730 0.891441 -0.146823
2623657060 0.890728 -0.15408
2626620390 0.89234 -0.149377
2629583720 0.894161 -0.152402
2632547050 0.890297 -0.151391
2635510380 0.88675 -0.152902
2638473710 0.877808 -0.160379
2641437040 0.873796 -0.149903
2644400370 0.877551 -0.154849
2647363700 0.884088 -0.16018
2650327030 0.889953 -0.159336
2653290360 0.893898 -0.157999
2656253690 0.892669 -0.148456
2659217020 0.887088 -0.157499
2662180350 0.887396 -0.149494
2665143680 0.8858 -0.148657
2668107010 0.878882 -0.156905
2671070340 0.872514 -0.153034
2674033670 0.878252 -0.157451
2676997000 0.884194 -0.155978
2679960330 0.880505 -0.161175
2682923660 0.887031 -0.163865
2685886990 0.885654 -0.157681
2688850320 0.887316 -0.160937
2691813650 0.884975 -0.160175
2694776980 0.888542 -0.162345
2697740310 0.880005 -0.159672
2700703640 0.879507 -0.16113
2703666970 0.880807 -0.158633
2706630300 0.898864 -0.158118
2709593630 0.889131 -0.156973
2712556960 0.905791 -0.153222
2715520290 0.89892 -0.154817
2718483620 0.900072 -0.161435
2721446950 0.902875 -0.154469
2724410280 0.897067 -0.153233
2727373610 0.88963 -0.148525
2730336940 0.877248 -0.148334
2733300270 0.887689 -0.152616
2736263600 0.89086 -0.152129
2739226930 0.899918 -0.152931
2742190260 0.910262 -0.158786
2745153590 0.89205 -0.154893
2748116920 0.90121 -0.146242
2751080250 0.884155 -0.159511
2754043580 0.8889 -0.154622
2757006910 0.889306 -0.152999
2759970240 0.878352 -0.157022
2762933570 0.878192 -0.15669
2765896900 0.884412 -0.157113
2768860230 0.884778 -0.164036
2771823560 0.885313 -0.162702
2774786890 0.898779 -0.153521
2777750220 0.880834 -0.174802
2780713550 0.893727 -0.163292
2783676880 0.880557 -0.16819
2786640210 0.872909 -0.170371
2789603540 0.875581 -0.170268
2792566870 0.884623 -0.165342
2795530200 0.880449 -0.170557
2798493530 0.89373 -0.167252
2801456860 0.893184 -0.17314
2804420190 0.89476 -0.170493
2807383520 0.90144 -0.160752
2810346850 0.902555 -0.163943
2813310180 0.893036 -0.179945
2816273510 0.889022 -0.165091
2819236840 0.881829 -0.178272
2822200170 0.87837 -0.184344
2825163500 0.892022 -0.161255
2828126830 0.898323 -0.171516
2831090160 0.89698 -0.183365
2834053490 0.897824 -0.169363
2837016820 0.896162 -0.16263
2839980150 0.90386 -0.161632
2842943480 0.902998 -0.16552
2845906810 0.884102 -0.17761
2848870140 0.893148 -0.15375
2851833470 0.886761 -0.158101
2854796800 0.890506 -0.162644
2857760130 0.90396 -0.160643
2860723460 0.906961 -0.168577
2863686790 0.900195 -0.170509
2866650120 0.895953 -0.161982
2869613450 0.896306 -0.181478
2872576780 0.898894 -0.169221
2875540110 0.894752 -0.165459
2878503440 0.884987 -0.168862
2881466770 0.875393 -0.178861
2884430100 0.884323 -0.172513
2887393430 0.892546 -0.155387
2890356760 0.893459 -0.193613
2893320090 0.894363 -0.171932
2896283420 0.89004 -0.179642
2899246750 0.888526 -0.169552
2902210080 0.884539 -0.162051
2905173410 0.883465 -0.183359
2908136740 0.881244 -0.177693
2911100070 0.871145 -0.184808
2914063400 0.878417 -0.159107
2917026730 0.887631 -0.172756
2919990060 0.887596 -0.175574
2922953390 0.884975 -0.162717
2925916720 0.886351 -0.165303
2928880050 0.892343 -0.166584
2931843380 0.885365 -0.164313
2934806710 0.878255 -0.165254
2937770040 0.869808 -0.164451
2940733370 0.870601 -0.150872
2943696700 0.868271 -0.16821
2946660030 0.873604 -0.16208
2949623360 0.881235 -0.1643
2952586690 0.87478 -0.164194
2955550020 0.880176 -0.161491
2958513350 0.880894 -0.166244
2961476680 0.878166 -0.164617
2964440010 0.872077 -0.161573
2967403340 0.869373 -0.16065
2970366670 0.861371 -0.156264
2973330000 0.868812 -0.1581
2976293330 0.870474 -0.16966
2979256660 0.88025 -0.160386
2982219990 0.873124 -0.167984
2985183320 0.880872 -0.170007
2988146650 0.878269 -0.167438
2991109980 0.876766 -0.16158
2994073310 0.874197 -0.160147
2997036640 0.870952 -0.157348
2999999970 0.861349 -0.149371
