# HZ S RI R 50
10000000 0.996701 -0.003427
12963330 1.000278 -0.007824
15926660 1.004966 -0.010728
18889990 1.009274 -0.015063
21853320 1.011968 -0.018611
24816650 1.013159 -0.018779
27779980 1.013865 -0.019882
30743310 1.012022 -0.01837
33706640 1.007844 -0.018781
36669970 1.002248 -0.017928
39633300 0.994214 -0.017312
42596630 0.999929 -0.021215
45559960 1.005036 -0.024205
48523290 1.010021 -0.026494
51486620 1.011991 -0.027292
54449950 1.014463 -0.029561
57413280 1.011426 -0.027574
60376610 1.008385 -0.027709
63339940 1.004057 -0.027312
66303270 0.998292 -0.025728
69266600 0.98905 -0.023672
72229930 0.99227 -0.027977
75193260 0.989559 -0.062871
78156590 1.001626 -0.032205
81119920 1.00467 -0.031839
84083250 1.005162 -0.033749
87046580 1.003804 -0.032178
90009910 1.000206 -0.032342
92973240 0.996083 -0.03108
95936570 0.989799 -0.0286
98899900 0.981793 -0.028882
101863230 0.986289 -0.030783
104826560 0.990319 -0.033171
107789890 0.99418 -0.033782
110753220 0.995922 -0.032562
113716550 0.996593 -0.034168
116679880 0.996583 -0.034092
119643210 0.994012 -0.032938
122606540 0.989946 -0.031635
125569870 0.986009 -0.032481
128533200 0.977847 -0.029938
131496530 0.980878 -0.032774
134459860 0.987422 -0.031462
137423190 0.980488 -0.042226
140386520 0.985015 -0.042344
143349850 0.987235 -0.042018
146313180 0.988058 -0.040094
149276510 0.98724 -0.038474
152239840 0.986013 -0.035916
155203170 0.981537 -0.034569
158166500 0.977088 -0.033238
161129830 0.976575 -0.032514
164093160 0.981927 -0.034027
167056490 0.98506 -0.033998
170019820 0.989718 -0.033605
172983150 0.990228 -0.033561
175946480 0.989225 -0.032815
178909810 0.987199 -0.031504
181873140 0.984594 -0.031483
184836470 0.979978 -0.033074
187799800 0.972663 -0.033894
190763130 0.973668 -0.034716
193726460 0.979063 -0.034575
196689790 0.985157 -0.033062
199653120 0.987052 -0.033961
202616450 0.989671 -0.032668
205579780 0.989251 -0.032534
208543110 0.987284 -0.032029
211506440 0.983289 -0.03304
214469770 0.979568 -0.032272
217433100 0.972009 -0.034348
220396430 0.970386 -0.035926
223359760 0.977917 -0.034108
226323090 0.984206 -0.034413
229286420 0.987223 -0.035273
232249750 0.988851 -0.033595
235213080 0.988908 -0.032647
238176410 0.987599 -0.034211
241139740 0.983491 -0.033628
244103070 0.977757 -0.034134
247066400 0.971696 -0.035306
250029730 0.968062 -0.037563
252993060 0.976316 -0.037899
255956390 0.982779 -0.036695
258919720 0.985633 -0.038445
261883050 0.989554 -0.035511
264846380 0.989675 -0.03509
267809710 0.988089 -0.035198
270773040 0.98392 -0.035726
273736370 0.978905 -0.037066
276699700 0.97194 -0.037633
279663030 0.967743 -0.038663
282626360 0.974974 -0.040923
285589690 0.982879 -0.043333
288553020 0.98638 -0.039934
291516350 0.988907 -0.039375
294479680 0.988969 -0.038313
297443010 0.985895 -0.037261
300406340 0.982931 -0.036949
303369670 0.977611 -0.037789
306333000 0.969775 -0.038625
309296330 0.962904 -0.041021
312259660 0.970849 -0.041163
315222990 0.977531 -0.042995
318186320 0.982934 -0.044416
321149650 0.988154 -0.044024
324112980 0.987456 -0.042123
327076310 0.987381 -0.044146
330039640 0.983312 -0.042415
333002970 0.977107 -0.041237
335966300 0.969632 -0.0415
338929630 0.962362 -0.044196
341892960 0.971838 -0.044274
344856290 0.977138 -0.046215
347819620 0.983048 -0.048985
350782950 0.985525 -0.046917
353746280 0.988539 -0.04529
356709610 0.983886 -0.046834
359672940 0.982781 -0.04539
362636270 0.977144 -0.044812
365599600 0.970037 -0.044154
368562930 0.960196 -0.044487
371526260 0.968411 -0.047903
374489590 0.974028 -0.047254
377452920 0.981264 -0.050976
380416250 0.983187 -0.049851
383379580 0.984482 -0.04929
386342910 0.984194 -0.051428
389306240 0.981723 -0.050704
392269570 0.975743 -0.048725
395232900 0.969529 -0.049016
398196230 0.961402 -0.046433
401159560 0.966956 -0.048904
404122890 0.973333 -0.051625
407086220 0.9782 -0.053921
410049550 0.982025 -0.051795
413012880 0.982905 -0.053046
415976210 0.98266 -0.049602
418939540 0.979379 -0.050481
421902870 0.976039 -0.050427
424866200 0.969648 -0.048471
427829530 0.961165 -0.050096
430792860 0.964397 -0.048041
433756190 0.970907 -0.051526
436719520 0.975465 -0.053385
439682850 0.978353 -0.052497
442646180 0.980677 -0.052195
445609510 0.979181 -0.049319
448572840 0.976569 -0.049863
451536170 0.971071 -0.049116
454499500 0.967134 -0.05064
457462830 0.959749 -0.04996
460426160 0.961256 -0.05238
463389490 0.969104 -0.051501
466352820 0.971379 -0.053715
469316150 0.974331 -0.053068
472279480 0.975131 -0.053779
475242810 0.974903 -0.054276
478206140 0.973067 -0.053607
481169470 0.969201 -0.053767
484132800 0.963159 -0.053253
487096130 0.956036 -0.054524
490059460 0.9557 -0.052784
493022790 0.963556 -0.055107
495986120 0.970218 -0.054727
498949450 0.973232 -0.05443
501912780 0.975448 -0.052879
504876110 0.976655 -0.053125
507839440 0.973883 -0.052427
510802770 0.971292 -0.053623
513766100 0.965781 -0.052058
516729430 0.96005 -0.049196
519692760 0.959394 -0.04967
522656090 0.965891 -0.052662
525619420 0.972148 -0.050091
528582750 0.977364 -0.052719
531546080 0.977759 -0.051488
534509410 0.975609 -0.05199
537472740 0.975525 -0.052439
540436070 0.972691 -0.052217
543399400 0.966388 -0.051934
546362730 0.960157 -0.052385
549326060 0.958352 -0.056385
552289390 0.964359 -0.055401
555252720 0.973139 -0.059007
558216050 0.975947 -0.054955
561179380 0.978521 -0.056176
564142710 0.979949 -0.053994
567106040 0.977212 -0.053966
570069370 0.97369 -0.055027
573032700 0.968927 -0.052633
575996030 0.946978 -0.062765
578959360 0.958934 -0.054008
581922690 0.964711 -0.054827
584886020 0.970527 -0.057458
587849350 0.976991 -0.055763
590812680 0.97741 -0.057804
593776010 0.979205 -0.056752
596739340 0.977032 -0.056286
599702670 0.974001 -0.055004
602666000 0.967346 -0.054414
605629330 0.961811 -0.053155
608592660 0.957045 -0.056817
611555990 0.96262 -0.057705
614519320 0.970283 -0.059515
617482650 0.973118 -0.061506
620445980 0.978714 -0.061058
623409310 0.979089 -0.058352
626372640 0.978042 -0.056204
629335970 0.973794 -0.056535
632299300 0.96857 -0.058475
635262630 0.962392 -0.055076
638225960 0.955472 -0.056048
641189290 0.961841 -0.058697
644152620 0.971837 -0.056958
647115950 0.974873 -0.06033
650079280 0.978378 -0.057811
653042610 0.981798 -0.060116
656005940 0.978269 -0.058752
658969270 0.973729 -0.057439
661932600 0.970919 -0.058451
664895930 0.962852 -0.056453
667859260 0.952507 -0.055208
670822590 0.961995 -0.058879
673785920 0.969607 -0.061262
676749250 0.973425 -0.06536
679712580 0.9748 -0.063462
682675910 0.979581 -0.061676
685639240 0.977244 -0.061711
688602570 0.97681 -0.059018
691565900 0.969187 -0.058517
694529230 0.960525 -0.074109
697492560 0.956948 -0.056322
700455890 0.960791 -0.058641
703419220 0.968203 -0.059677
706382550 0.971744 -0.060852
709345880 0.974014 -0.062859
712309210 0.973484 -0.065922
715272540 0.973286 -0.059329
718235870 0.972668 -0.058446
721199200 0.966839 -0.062374
724162530 0.962035 -0.06104
727125860 0.955083 -0.059655
730089190 0.959732 -0.06133
733052520 0.964017 -0.064308
736015850 0.969323 -0.065186
738979180 0.97106 -0.065252
741942510 0.974598 -0.062346
744905840 0.973371 -0.062962
747869170 0.970369 -0.062743
750832500 0.965326 -0.060751
753795830 0.961227 -0.060635
756759160 0.953633 -0.059218
759722490 0.956528 -0.06123
762685820 0.963784 -0.063752
765649150 0.967491 -0.064761
768612480 0.969998 -0.063702
771575810 0.971417 -0.064485
774539140 0.971078 -0.062362
777502470 0.970945 -0.061504
780465800 0.963984 -0.063803
783429130 0.962058 -0.06059
786392460 0.953051 -0.059649
789355790 0.955966 -0.061279
792319120 0.961678 -0.061733
795282450 0.968134 -0.063529
798245780 0.971244 -0.063656
801209110 0.971839 -0.065762
804172440 0.971088 -0.064963
807135770 0.96835 -0.06406
810099100 0.963205 -0.063144
813062430 0.958251 -0.065948
816025760 0.952714 -0.068095
818989090 0.952564 -0.064878
821952420 0.96012 -0.068606
824915750 0.965246 -0.068992
827879080 0.966788 -0.06705
830842410 0.969727 -0.067581
833805740 0.970639 -0.068457
836769070 0.96844 -0.066689
839732400 0.962853 -0.06869
842695730 0.957764 -0.067414
845659060 0.949783 -0.068943
848622390 0.949956 -0.068364
851585720 0.955956 -0.072991
854549050 0.962354 -0.073933
857512380 0.965697 -0.071279
860475710 0.968156 -0.075602
863439040 0.969036 -0.073566
866402370 0.965234 -0.077317
869365700 0.963667 -0.072297
872329030 0.957928 -0.071898
875292360 0.949918 -0.077224
878255690 0.946629 -0.073147
881219020 0.956668 -0.079283
884182350 0.962122 -0.078614
887145680 0.965591 -0.082432
890109010 0.968542 -0.081261
893072340 0.96785 -0.078495
896035670 0.96592 -0.083466
898999000 0.964009 -0.077056
901962330 0.959206 -0.075166
904925660 0.950552 -0.077491
907888990 0.948296 -0.079569
910852320 0.957541 -0.07765
913815650 0.962543 -0.075133
916778980 0.965752 -0.080173
919742310 0.967337 -0.082805
922705640 0.969675 -0.080927
925668970 0.970221 -0.07349
928632300 0.965023 -0.076519
931595630 0.957341 -0.075321
934558960 0.95097 -0.070697
937522290 0.94494 -0.073472
940485620 0.951111 -0.072722
943448950 0.958813 -0.077938
946412280 0.962263 -0.078878
949375610 0.833341 -0.114558
952338940 0.965696 -0.077314
955302270 0.96493 -0.077766
958265600 0.96122 -0.078151
961228930 0.95712 -0.077954
964192260 0.951166 -0.075651
967155590 0.94303 -0.076032
970118920 0.950258 -0.078898
973082250 0.957805 -0.080656
976045580 0.959384 -0.078097
979008910 0.963433 -0.084197
981972240 0.965888 -0.080006
984935570 0.966999 -0.078381
987898900 0.96184 -0.076913
990862230 0.957121 -0.080221
993825560 0.952916 -0.073805
996788890 0.944883 -0.073904
999752220 0.95309 -0.080269
1002715550 0.95716 -0.080438
1005678880 0.960376 -0.079567
1008642210 0.964184 -0.078551
1011605540 0.964863 -0.077427
1014568870 0.962235 -0.081762
1017532200 0.959999 -0.077766
1020495530 0.957737 -0.074775
1023458860 0.951026 -0.072532
1026422190 0.945548 -0.069698
1029385520 0.952012 -0.073007
1032348850 0.956823 -0.079508
1035312180 0.9624 -0.080731
1038275510 0.963758 -0.077929
1041238840 0.963866 -0.077492
1044202170 0.964556 -0.077537
1047165500 0.963008 -0.077649
1050128830 0.959699 -0.075726
1053092160 0.954426 -0.075315
1056055490 1.025711 0.000459
1059018820 0.953701 -0.077798
1061982150 0.958622 -0.080063
1064945480 0.960135 -0.073697
1067908810 0.965676 -0.077284
1070872140 0.965973 -0.079656
1073835470 0.964604 -0.072071
1076798800 0.962302 -0.078503
1079762130 0.958942 -0.074668
1082725460 0.955078 -0.073256
1085688790 0.950959 -0.073035
1088652120 0.951861 -0.073601
1091615450 0.958197 -0.076033
1094578780 0.963149 -0.074719
1097542110 0.967024 -0.073238
1100505440 0.964599 -0.074006
1103468770 0.964074 -0.07515
1106432100 0.962732 -0.073246
1109395430 0.958702 -0.07202
1112358760 0.954239 -0.071668
1115322090 0.947542 -0.073232
1118285420 0.950732 -0.077312
1121248750 0.956747 -0.072905
1124212080 0.960518 -0.07753
1127175410 0.966258 -0.078121
1130138740 0.964518 -0.080287
1133102070 0.963843 -0.078759
1136065400 0.964736 -0.084756
1139028730 0.961115 -0.079166
1141992060 0.950124 -0.085124
1144955390 0.946182 -0.080651
1147918720 0.947073 -0.08538
1150882050 0.955321 -0.087354
1153845380 0.960032 -0.085414
1156808710 0.964255 -0.085916
1159772040 0.965367 -0.087173
1162735370 0.966438 -0.088685
1165698700 0.965074 -0.087624
1168662030 0.962227 -0.087286
1171625360 0.953922 -0.085437
1174588690 0.94519 -0.082424
1177552020 0.947732 -0.089694
1180515350 0.954413 -0.089652
1183478680 0.961336 -0.091671
1186442010 0.967488 -0.091616
1189405340 0.966991 -0.087069
1192368670 0.965869 -0.091904
1195332000 0.964759 -0.093438
1198295330 0.959531 -0.090831
1201258660 0.955932 -0.088124
1204221990 0.945191 -0.087001
1207185320 0.945497 -0.087834
1210148650 0.951066 -0.093499
1213111980 0.958075 -0.095148
1216075310 0.963015 -0.095437
1219038640 0.963293 -0.098121
1222001970 0.963415 -0.10059
1224965300 0.958817 -0.099241
1227928630 0.958549 -0.099061
1230891960 0.952507 -0.098652
1233855290 0.943717 -0.098055
1236818620 0.942661 -0.099107
1239781950 0.946381 -0.108635
1242745280 0.954594 -0.102511
1245708610 0.961574 -0.105646
1248671940 0.962874 -0.101155
1251635270 0.962967 -0.100777
1254598600 0.959518 -0.103728
1257561930 0.959136 -0.099575
1260525260 0.952475 -0.100541
1263488590 0.944734 -0.098407
1266451920 0.937709 -0.098547
1269415250 0.943282 -0.099022
1272378580 0.951464 -0.101964
1275341910 0.956565 -0.104746
1278305240 0.956303 -0.109718
1281268570 0.956562 -0.11079
1284231900 0.955873 -0.107034
1287195230 0.956105 -0.099608
1290158560 0.947714 -0.106252
1293121890 0.941362 -0.104157
1296085220 0.932906 -0.103233
1299048550 0.939598 -0.105439
1302011880 0.948932 -0.106941
1304975210 0.950751 -0.107822
1307938540 0.954625 -0.106091
1310901870 0.954627 -0.107416
1313865200 0.956018 -0.102279
1316828530 0.950277 -0.103162
1319791860 0.948238 -0.103972
1322755190 0.937259 -0.102361
1325718520 0.931548 -0.10041
1328681850 0.937411 -0.107379
1331645180 0.94589 -0.102596
1334608510 0.947467 -0.105159
1337571840 0.947912 -0.106985
1340535170 0.952946 -0.108561
1343498500 0.950694 -0.106672
1346461830 0.946157 -0.108854
1349425160 0.945141 -0.106368
1352388490 0.937751 -0.098147
1355351820 0.930058 -0.102134
1358315150 0.937274 -0.108924
1361278480 0.944719 -0.10334
1364241810 0.949465 -0.107788
1367205140 0.950034 -0.106048
1370168470 0.948114 -0.109166
1373131800 0.953014 -0.105732
1376095130 0.951995 -0.103913
1379058460 0.946355 -0.101121
1382021790 0.942548 -0.098339
1384985120 0.938053 -0.102442
1387948450 0.942718 -0.099892
1390911780 0.949381 -0.104071
1393875110 0.949813 -0.10244
1396838440 0.955111 -0.099316
1399801770 0.953927 -0.103163
1402765100 0.95354 -0.104986
1405728430 0.94961 -0.103895
1408691760 0.945449 -0.09979
1411655090 0.941906 -0.097827
1414618420 0.935378 -0.107395
1417581750 0.94317 -0.098786
1420545080 0.944981 -0.102586
1423508410 0.952707 -0.102345
1426471740 0.953087 -0.104838
1429435070 0.957711 -0.103493
1432398400 0.951605 -0.110231
1435361730 0.951846 -0.101043
1438325060 0.950086 -0.104616
1441288390 0.943485 -0.102987
1444251720 0.935117 -0.103866
1447215050 0.942025 -0.105509
1450178380 0.948891 -0.107987
1453141710 0.95208 -0.106882
1456105040 0.955105 -0.107308
1459068370 0.955508 -0.103352
1462031700 0.957496 -0.100508
1464995030 0.956088 -0.101686
1467958360 0.952853 -0.099159
1470921690 0.945116 -0.098974
1473885020 0.939602 -0.09485
1476848350 0.941104 -0.098886
1479811680 0.947605 -0.094956
1482775010 0.950646 -0.099913
1485738340 0.955257 -0.097411
1488701670 0.957768 -0.096103
1491665000 0.95622 -0.10654
1494628330 0.955187 -0.098862
1497591660 0.949757 -0.099073
1500554990 0.94642 -0.100835
1503518320 0.939402 -0.097153
1506481650 0.93894 -0.105178
1509444980 0.948722 -0.103045
1512408310 0.952093 -0.105744
1515371640 0.956836 -0.102087
1518334970 0.961062 -0.098801
1521298300 0.9584 -0.104714
1524261630 0.955346 -0.106625
1527224960 0.951394 -0.110847
1530188290 0.947181 -0.1065
1533151620 0.939841 -0.106678
1536114950 0.93766 -0.110755
1539078280 0.943772 -0.120095
1542041610 0.950988 -0.111545
1545004940 0.954792 -0.114389
1547968270 1.056234 -0.213215
1550931600 0.961483 -0.108149
1553894930 0.958262 -0.10311
1556858260 0.954835 -0.108596
1559821590 0.946885 -0.111258
1562784920 0.94186 -0.114401
1565748250 0.932361 -0.111615
1568711580 0.943442 -0.110579
1571674910 0.949506 -0.115428
1574638240 0.954108 -0.117899
1577601570 0.957529 -0.116093
1580564900 0.958725 -0.110633
1583528230 0.954409 -0.112315
1586491560 0.950552 -0.116914
1589454890 0.946018 -0.111026
1592418220 0.937384 -0.107439
1595381550 0.92851 -0.107374
1598344880 0.942294 -0.113631
1601308210 0.948348 -0.117229
1604271540 0.948979 -0.120661
1607234870 0.956486 -0.115694
1610198200 0.950032 -0.12075
1613161530 0.950019 -0.11887
1616124860 0.947567 -0.115955
1619088190 0.942491 -0.114482
1622051520 0.935536 -0.116331
1625014850 0.930303 -0.108118
1627978180 0.936847 -0.116833
1630941510 0.941245 -0.11724
1633904840 0.945442 -0.122386
1636868170 0.947821 -0.121778
1639831500 0.950858 -0.122504
1642794830 0.947766 -0.115659
1645758160 0.946253 -0.114354
1648721490 0.940048 -0.112623
1651684820 0.930784 -0.118108
1654648150 0.942857 -0.104179
1657611480 0.93348 -0.106394
1660574810 0.936134 -0.11698
1663538140 0.942305 -0.121443
1666501470 0.941951 -0.120072
1669464800 0.942988 -0.119043
1672428130 0.941624 -0.120775
1675391460 0.938744 -0.119688
1678354790 0.937063 -0.118143
1681318120 0.930774 -0.108927
1684281450 0.923399 -0.11863
1687244780 0.928746 -0.118928
1690208110 0.932967 -0.125914
1693171440 0.939945 -0.127604
1696134770 0.940338 -0.130428
1699098100 0.938332 -0.12642
1702061430 0.93843 -0.126347
1705024760 0.938807 -0.117171
1707988090 0.934517 -0.119706
1710951420 0.929936 -0.124428
1713914750 0.922204 -0.119963
1716878080 0.926686 -0.12322
1719841410 0.930214 -0.127686
1722804740 0.936904 -0.131461
1725768070 0.940661 -0.122525
1728731400 0.940085 -0.125608
1731694730 0.942109 -0.122608
1734658060 0.935429 -0.128545
1737621390 0.932317 -0.127094
1740584720 0.92805 -0.124686
1743548050 0.92253 -0.128746
1746511380 0.929789 -0.12437
1749474710 0.931494 -0.127827
1752438040 0.936281 -0.12259
1755401370 0.938956 -0.126005
1758364700 0.942914 -0.132078
1761328030 0.940222 -0.128976
1764291360 0.94116 -0.125285
1767254690 0.93882 -0.128936
1770218020 0.929497 -0.121149
1773181350 0.923299 -0.125397
1776144680 0.933026 -0.125067
1779108010 0.931124 -0.127014
1782071340 0.936254 -0.13385
1785034670 0.940199 -0.130441
1787998000 0.946472 -0.118406
1790961330 0.943364 -0.127931
1793924660 0.94172 -0.128453
1796887990 0.932986 -0.124801
1799851320 0.93415 -0.120786
1802814650 0.925207 -0.123731
1805777980 0.9222 -0.13114
1808741310 0.934979 -0.123358
1811704640 0.939974 -0.124975
1814667970 0.945117 -0.122209
1817631300 0.949876 -0.12387
1820594630 0.948535 -0.120114
1823557960 0.943043 -0.123204
1826521290 0.93889 -0.120613
1829484620 0.932673 -0.115567
1832447950 0.930474 -0.118424
1835411280 0.924511 -0.120053
1838374610 0.933865 -0.119177
1841337940 0.942486 -0.120313
1844301270 0.939846 -0.12668
1847264600 0.945214 -0.121758
1850227930 0.959977 -0.081376
1853191260 0.940113 -0.12442
1856154590 0.939669 -0.120567
1859117920 0.932837 -0.120568
1862081250 0.924948 -0.121773
1865044580 0.927116 -0.119294
1868007910 0.928942 -0.131797
1870971240 0.941158 -0.122409
1873934570 0.944515 -0.122
1876897900 0.943016 -0.127077
1879861230 0.945143 -0.124276
1882824560 0.940048 -0.126812
1885787890 0.940212 -0.11755
1888751220 0.936164 -0.118339
1891714550 0.930213 -0.115887
1894677880 0.924226 -0.113877
1897641210 0.93088 -0.120275
1900604540 0.933984 -0.124732
1903567870 0.943356 -0.114455
1906531200 0.939646 -0.12703
1909494530 0.939648 -0.126416
1912457860 0.940302 -0.120226
1915421190 0.937274 -0.120247
1918384520 0.933496 -0.119882
1921347850 0.923418 -0.12179
1924311180 0.917397 -0.12492
1927274510 0.930279 -0.11582
1930237840 0.934581 -0.123203
1933201170 0.94193 -0.11682
1936164500 0.937252 -0.128298
1939127830 0.943495 -0.120655
1942091160 0.938266 -0.122831
1945054490 0.937362 -0.12192
1948017820 0.928377 -0.119811
1950981150 0.928511 -0.110716
1953944480 0.918431 -0.110833
1956907810 0.927121 -0.117904
1959871140 0.931808 -0.123302
1962834470 0.935592 -0.120672
1965797800 0.936043 -0.126393
1968761130 0.936875 -0.130138
1971724460 0.940211 -0.120318
1974687790 0.934659 -0.122637
1977651120 0.935561 -0.110848
1980614450 0.930308 -0.116162
1983577780 0.917105 -0.122133
1986541110 0.926301 -0.127157
1989504440 0.934382 -0.126532
1992467770 0.936935 -0.126169
1995431100 0.937463 -0.127676
1998394430 0.937098 -0.123551
2001357760 0.938725 -0.125217
2004321090 0.931945 -0.134467
2007284420 0.927082 -0.134587
2010247750 0.92611 -0.130749
2013211080 0.915421 -0.126984
2016174410 0.920927 -0.125108
2019137740 0.930782 -0.129742
2022101070 0.931729 -0.131991
2025064400 0.93463 -0.129073
2028027730 0.934372 -0.12419
2030991060 0.932463 -0.127965
2033954390 0.934425 -0.119233
2036917720 0.928971 -0.128608
2039881050 0.921843 -0.130201
2042844380 0.917991 -0.116518
2045807710 0.922123 -0.120823
2048771040 0.931933 -0.130763
2051734370 0.931453 -0.131893
2054697700 0.934979 -0.123413
2057661030 0.93645 -0.126063
2060624360 0.933848 -0.137484
2063587690 0.934034 -0.123827
2066551020 0.927007 -0.134565
2069514350 0.922069 -0.128764
2072477680 0.915249 -0.130466
2075441010 0.921212 -0.131527
2078404340 0.915717 -0.129607
2081367670 0.925947 -0.134807
2084331000 0.93581 -0.132891
2087294330 0.938543 -0.132688
2090257660 0.931573 -0.14154
2093220990 0.931652 -0.136989
2096184320 0.925812 -0.138321
2099147650 0.920347 -0.132617
2102110980 0.915622 -0.139405
2105074310 0.916738 -0.13608
2108037640 0.921256 -0.137696
2111000970 0.929278 -0.138364
2113964300 0.93358 -0.13109
2116927630 0.934585 -0.13766
2119890960 0.932958 -0.136353
2122854290 0.929878 -0.136206
2125817620 0.92774 -0.136197
2128780950 0.923685 -0.133466
2131744280 0.918037 -0.124134
2134707610 0.918537 -0.129009
2137670940 0.925296 -0.132349
2140634270 0.92904 -0.1323
2143597600 0.931249 -0.130112
2146560930 0.935329 -0.133424
2149524260 0.932733 -0.138235
2152487590 0.93021 -0.139618
2155450920 0.926225 -0.137914
2158414250 0.926487 -0.135209
2161377580 0.910313 -0.154319
2164340910 0.913539 -0.141426
2167304240 0.911584 -0.173749
2170267570 0.927003 -0.136705
2173230900 0.930954 -0.136095
2176194230 0.935931 -0.133766
2179157560 0.921048 -0.15627
2182120890 0.932304 -0.137306
2185084220 0.928305 -0.13784
2188047550 0.92559 -0.127412
2191010880 0.912959 -0.128544
2193974210 0.91143 -0.133278
2196937540 0.940319 -0.085844
2199900870 0.928162 -0.142895
2202864200 0.929557 -0.142578
2205827530 0.934922 -0.143661
2208790860 0.932169 -0.14386
2211754190 0.934187 -0.135559
2214717520 0.931722 -0.140328
2217680850 0.912119 -0.144804
2220644180 0.917869 -0.145685
2223607510 0.912102 -0.139253
2226570840 0.915935 -0.141301
2229534170 0.922457 -0.147399
2232497500 0.922776 -0.144748
2235460830 0.930737 -0.142543
2238424160 0.923394 -0.146989
2241387490 0.927478 -0.14497
2244350820 0.9264 -0.139561
2247314150 0.919116 -0.147761
2250277480 0.913246 -0.143979
2253240810 0.910238 -0.149847
2256204140 0.911352 -0.144111
2259167470 0.922509 -0.14025
2262130800 0.922072 -0.14456
2265094130 0.92646 -0.150513
2268057460 0.929095 -0.142877
2271020790 0.921779 -0.149175
2273984120 0.929516 -0.143141
2276947450 0.922323 -0.143494
2279910780 0.914955 -0.144723
2282874110 0.918441 -0.139813
2285837440 0.916916 -0.144151
2288800770 0.919072 -0.144901
2291764100 0.928485 -0.142644
2294727430 0.931541 -0.139941
2297690760 0.929126 -0.14663
2300654090 0.928622 -0.139621
2303617420 0.92519 -0.143569
2306580750 0.919136 -0.139096
2309544080 0.920535 -0.130184
2312507410 0.908267 -0.134808
2315470740 0.913186 -0.142486
2318434070 0.918003 -0.142636
2321397400 0.929784 -0.135731
2324360730 0.929487 -0.141277
2327324060 0.925269 -0.147216
2330287390 0.923266 -0.144229
2333250720 0.922272 -0.144346
2336214050 0.913692 -0.148932
2339177380 0.917102 -0.136477
2342140710 0.913239 -0.139105
2345104040 0.910595 -0.145876
2348067370 0.919 -0.151136
2351030700 0.917243 -0.153518
2353994030 0.923661 -0.141032
2356957360 0.926225 -0.135843
2359920690 0.922698 -0.150755
2362884020 0.9213 -0.154117
2365847350 0.918971 -0.140774
2368810680 0.910793 -0.14338
2371774010 0.907665 -0.137021
2374737340 0.911349 -0.1443
2377700670 0.915058 -0.141615
2380664000 0.916146 -0.152739
2383627330 0.928609 -0.139114
2386590660 0.922507 -0.140109
2389553990 0.921352 -0.141927
2392517320 0.919927 -0.149936
2395480650 0.917746 -0.151439
2398443980 0.905998 -0.147592
2401407310 0.901886 -0.14679
2404370640 0.905131 -0.148616
2407333970 0.9247 -0.138518
2410297300 0.917638 -0.143609
2413260630 0.92039 -0.143412
2416223960 0.926127 -0.155588
2419187290 0.915906 -0.149936
2422150620 0.922295 -0.15084
2425113950 0.909876 -0.152462
2428077280 0.907262 -0.156989
2431040610 0.901107 -0.153664
2434003940 0.914544 -0.152802
2436967270 0.905974 -0.160003
2439930600 1.000458 -0.072864
2442893930 0.919191 -0.161614
2445857260 0.919723 -0.164074
2448820590 0.923943 -0.156567
2451783920 0.917601 -0.166499
2454747250 0.913065 -0.152994
2457710580 0.908306 -0.150194
2460673910 0.902581 -0.153125
2463637240 0.901162 -0.147108
2466600570 0.91286 -0.146167
2469563900 0.916335 -0.161282
2472527230 0.924436 -0.153458
2475490560 0.925859 -0.161406
2478453890 0.929755 -0.154842
2481417220 0.924501 -0.158874
2484380550 0.91644 -0.154702
2487343880 0.921324 -0.161948
2490307210 0.913005 -0.153368
2493270540 0.904322 -0.144024
2496233870 0.909569 -0.156017
2499197200 0.923537 -0.150663
2502160530 0.921927 -0.152391
2505123860 0.927002 -0.157814
2508087190 0.93044 -0.145232
2511050520 0.922392 -0.139257
2514013850 0.914124 -0.134841
2516977180 0.915105 -0.127408
2519940510 0.901695 -0.136854
2522903840 0.900523 -0.138684
2525867170 0.907334 -0.146861
2528830500 0.913619 -0.141336
2531793830 0.912824 -0.154336
2534757160 0.916497 -0.152237
2537720490 0.918126 -0.152705
2540683820 0.920918 -0.151573
2543647150 0.916315 -0.156193
2546610480 0.91241 -0.146925
2549573810 0.907868 -0.151972
2552537140 0.906807 -0.155954
2555500470 0.909047 -0.153263
2558463800 0.912215 -0.16196
2561427130 0.917521 -0.15537
2564390460 0.921177 -0.152525
2567353790 0.922519 -0.152313
2570317120 0.918805 -0.159134
2573280450 0.916875 -0.154633
2576243780 0.91031 -0.152139
2579207110 0.90833 -0.151598
2582170440 0.901936 -0.152731
2585133770 0.902622 -0.160323
2588097100 0.910741 -0.155456
2591060430 0.912659 -0.159264
2594023760 0.914932 -0.150789
2596987090 0.916416 -0.149054
2599950420 0.912002 -0.155019
2602913750 0.909448 -0.159705
2605877080 0.909626 -0.156564
2608840410 0.901082 -0.14992
2611803740 0.895102 -0.150712
2614767070 0.900542 -0.159058
2617730400 0.905456 -0.156144
2620693730 0.908838 -0.161442
2623657060 0.909601 -0.161056
2626620390 0.910884 -0.161535
2629583720 0.90503 -0.163034
2632547050 0.900437 -0.164973
2635510380 0.905006 -0.162429
2638473710 0.894503 -0.163421
2641437040 0.89249 -0.164662
2644400370 0.896024 -0.161504
2647363700 0.896726 -0.16271
2650327030 0.899271 -0.167795
2653290360 0.906327 -0.164437
2656253690 0.898402 -0.167306
2659217020 0.899152 -0.162775
2662180350 0.901132 -0.156591
2665143680 0.897453 -0.161266
2668107010 0.890056 -0.157633
2671070340 0.886457 -0.158173
2674033670 0.891952 -0.163449
2676997000 0.902237 -0.157048
2679960330 0.897405 -0.171071
2682923660 0.908162 -0.163437
2685886990 0.912671 -0.159988
2688850320 0.903432 -0.165879
2691813650 0.907599 -0.173912
2694776980 0.903125 -0.170145
2697740310 0.903198 -0.166726
2700703640 0.894025 -0.16258
2703666970 0.903177 -0.173687
2706630300 0.903599 -0.167121
2709593630 0.903156 -0.166053
2712556960 0.918235 -0.170762
2715520290 0.915217 -0.168492
2718483620 0.911956 -0.159958
2721446950 0.914747 -0.161117
2724410280 0.909593 -0.162476
2727373610 0.908994 -0.154307
2730336940 0.901189 -0.161937
2733300270 0.910164 -0.14705
2736263600 0.908091 -0.158812
2739226930 0.90443 -0.16509
2742190260 0.907716 -0.169209
2745153590 0.893268 -0.177092
2748116920 0.928568 -0.166627
2751080250 0.907659 -0.160699
2754043580 0.909744 -0.155118
2757006910 0.905324 -0.161382
2759970240 0.894856 -0.160457
2762933570 0.892326 -0.166556
2765896900 0.899915 -0.162267
2768860230 0.906531 -0.157936
2771823560 0.900102 -0.173166
2774786890 0.906574 -0.169418
2777750220 0.910225 -0.165053
2780713550 0.899197 -0.165163
2783676880 0.896802 -0.180436
2786640210 0.897813 -0.171867
2789603540 0.886437 -0.181825
2792566870 0.894269 -0.161553
2795530200 0.889187 -0.189709
2798493530 0.899752 -0.181334
2801456860 0.90396 -0.181498
2804420190 0.911207 -0.177146
2807383520 0.912939 -0.180461
2810346850 0.908258 -0.174525
2813310180 0.897001 -0.20114
2816273510 0.905545 -0.164879
2819236840 0.913799 -0.171009
2822200170 0.89496 -0.190943
2825163500 0.902622 -0.182178
2828126830 0.916052 -0.200372
2831090160 0.917144 -0.174489
2834053490 0.923259 -0.180991
2837016820 0.929155 -0.180496
2839980150 0.927469 -0.177525
2842943480 0.917647 -0.173375
2845906810 0.92389 -0.166383
2848870140 0.901435 -0.154462
2851833470 0.897815 -0.186207
2854796800 0.91734 -0.177008
2857760130 0.907091 -0.166
2860723460 0.908123 -0.186455
2863686790 0.917183 -0.194606
2866650120 0.920892 -0.188812
2869613450 0.910803 -0.167195
2872576780 0.906953 -0.175696
2875540110 0.914085 -0.180334
2878503440 0.905856 -0.17198
2881466770 0.898729 -0.178909
2884430100 0.902855 -0.173826
2887393430 0.897794 -0.221044
2890356760 0.9065 -0.15953
2893320090 0.90661 -0.208265
2896283420 0.91729 -0.170038
2899246750 0.89899 -0.189467
2902210080 0.905252 -0.164634
2905173410 0.894607 -0.191794
2908136740 0.895355 -0.16333
2911100070 0.879811 -0.187633
2914063400 0.888635 -0.16278
2917026730 0.890528 -0.196424
2919990060 0.90779 -0.160169
2922953390 0.90445 -0.187805
2925916720 0.908572 -0.164567
2928880050 0.90241 -0.186863
2931843380 0.905775 -0.151639
2934806710 0.881155 -0.178738
2937770040 0.876178 -0.168152
2940733370 0.87909 -0.177254
2943696700 0.891731 -0.15031
2946660030 0.881031 -0.194162
2949623360 0.900976 -0.160318
2952586690 0.892796 -0.190192
2955550020 0.904599 -0.15818
2958513350 0.895153 -0.187064
2961476680 0.899518 -0.170023
2964440010 0.884095 -0.181494
2967403340 0.88654 -0.164883
2970366670 0.870467 -0.176493
2973330000 0.885334 -0.144899
2976293330 0.877587 -0.170858
2979256660 0.895071 -0.171503
2982219990 0.893289 -0.174268
2985183320 0.893469 -0.17232
2988146650 0.897208 -0.168308
2991109980 0.893284 -0.165738
2994073310 0.889269 -0.165457
2997036640 0.885141 -0.168187
2999999970 0.879137 -0.160512
