# HZ S RI R 50
10000000 0.999498 -0.002211
12963330 1.001628 -0.007307
15926660 1.00804 0.004431
18889990 1.009445 -0.014864
21853320 1.012964 -0.015623
24816650 1.014376 -0.017287
27779980 1.014109 -0.020518
30743310 1.010369 -0.017434
33706640 1.008037 -0.01771
36669970 1.000735 -0.017501
39633300 0.994386 -0.016016
42596630 0.998357 -0.018975
45559960 1.004501 -0.022807
48523290 1.008596 -0.02437
51486620 1.012349 -0.02638
54449950 1.012813 -0.025021
57413280 1.010109 -0.025296
60376610 1.00664 -0.025393
63339940 1.002535 -0.023769
66303270 0.995329 -0.022867
69266600 0.986833 -0.021261
72229930 0.989979 -0.022933
75193260 0.996199 -0.025301
78156590 1.001736 -0.027142
81119920 1.003081 -0.027961
84083250 1.00287 -0.025844
87046580 1.003018 -0.02722
90009910 1.000983 -0.024769
92973240 0.997238 -0.026803
95936570 0.992369 -0.024771
98899900 0.98303 -0.023458
101863230 0.985997 -0.026632
104826560 0.990087 -0.025414
107789890 0.994801 -0.028314
110753220 0.997437 -0.026589
113716550 0.997087 -0.027146
116679880 0.997378 -0.026914
119643210 0.995121 -0.026675
122606540 0.992611 -0.023342
125569870 0.985312 -0.024387
128533200 0.979312 -0.025317
131496530 0.982066 -0.026113
134459860 0.991646 -0.023735
137423190 0.981837 -0.036565
140386520 0.986955 -0.035149
143349850 0.989107 -0.034094
146313180 0.99102 -0.032504
149276510 0.989732 -0.030865
152239840 0.989259 -0.029557
155203170 0.983542 -0.026912
158166500 0.979952 -0.026305
161129830 0.979703 -0.026777
164093160 0.986596 -0.026094
167056490 0.990381 -0.026052
170019820 0.993949 -0.025774
172983150 0.993962 -0.026457
175946480 0.994384 -0.025654
178909810 0.992025 -0.024911
181873140 0.989321 -0.025068
184836470 0.983783 -0.025623
187799800 0.977165 -0.02566
190763130 0.977338 -0.027693
193726460 0.984016 -0.026748
196689790 0.989146 -0.025944
199653120 0.992655 -0.027003
202616450 0.993216 -0.02637
205579780 0.994124 -0.023781
208543110 0.991687 -0.024512
211506440 0.989485 -0.024919
214469770 0.984255 -0.026429
217433100 0.978581 -0.026824
220396430 0.976438 -0.028281
223359760 0.983185 -0.027723
226323090 0.990955 -0.027008
229286420 0.991999 -0.027622
232249750 0.994936 -0.026094
235213080 0.995472 -0.026636
238176410 0.993969 -0.026787
241139740 0.989815 -0.027321
244103070 0.983891 -0.027253
247066400 0.97747 -0.029377
250029730 0.975862 -0.03008
252993060 0.982903 -0.031108
255956390 0.989152 -0.030723
258919720 0.994043 -0.031
261883050 0.996171 -0.030201
264846380 0.995983 -0.030223
267809710 0.994127 -0.029944
270773040 0.992051 -0.028222
273736370 0.985685 -0.029566
276699700 0.979233 -0.032144
279663030 0.972353 -0.033994
282626360 0.981686 -0.032947
285589690 0.98982 -0.036842
288553020 0.993287 -0.031231
291516350 0.996404 -0.031992
294479680 0.996539 -0.031798
297443010 0.995093 -0.03115
300406340 0.990443 -0.031582
303369670 0.984879 -0.029849
306333000 0.977686 -0.031946
309296330 0.969377 -0.035176
312259660 0.978167 -0.035454
315222990 0.986347 -0.037539
318186320 0.990295 -0.035017
321149650 0.994414 -0.038745
324112980 0.994753 -0.038351
327076310 0.995323 -0.036097
330039640 0.991095 -0.036722
333002970 0.98593 -0.036818
335966300 0.979408 -0.036937
338929630 0.968784 -0.037498
341892960 0.978293 -0.041195
344856290 0.98502 -0.042175
347819620 0.988447 -0.039725
350782950 1.122816 0.01441
353746280 0.995968 -0.040456
356709610 0.992594 -0.0413
359672940 0.990065 -0.040614
362636270 0.985234 -0.039616
365599600 0.978736 -0.03864
368562930 0.969671 -0.038447
371526260 0.97661 -0.043111
374489590 0.982088 -0.045775
377452920 0.988998 -0.043472
380416250 0.991637 -0.04381
383379580 0.992467 -0.045727
386342910 0.991812 -0.04325
389306240 0.989657 -0.04303
392269570 0.98319 -0.042247
395232900 0.978351 -0.043099
398196230 0.968914 -0.042256
401159560 0.973733 -0.045321
404122890 0.981403 -0.04549
407086220 0.986402 -0.047649
410049550 0.989968 -0.048197
413012880 0.991198 -0.046391
415976210 0.991202 -0.046554
418939540 0.989583 -0.045176
421902870 0.983119 -0.043071
424866200 0.979825 -0.04384
427829530 0.969517 -0.042594
430792860 0.974671 -0.043681
433756190 0.979989 -0.04542
436719520 0.984937 -0.046379
439682850 0.98798 -0.045961
442646180 0.989351 -0.047768
445609510 0.988513 -0.045493
448572840 0.984667 -0.047052
451536170 0.982019 -0.043813
454499500 0.974542 -0.045053
457462830 0.969817 -0.045088
460426160 0.96965 -0.047508
463389490 0.976838 -0.04886
466352820 0.98038 -0.048306
469316150 0.98405 -0.050076
472279480 0.983472 -0.050258
475242810 0.984312 -0.047641
478206140 0.981573 -0.048101
481169470 0.979129 -0.046963
484132800 0.973373 -0.047125
487096130 0.964945 -0.048139
490059460 0.966475 -0.049371
493022790 0.97337 -0.050217
495986120 0.978939 -0.053021
498949450 0.983394 -0.052534
501912780 0.986002 -0.050303
504876110 0.984238 -0.05167
507839440 0.982759 -0.047907
510802770 0.980533 -0.044721
513766100 0.975383 -0.046275
516729430 0.968938 -0.047574
519692760 0.968597 -0.044967
522656090 0.975819 -0.047171
525619420 0.981152 -0.050877
528582750 0.985516 -0.050042
531546080 0.987425 -0.048684
534509410 0.986767 -0.049523
537472740 0.98498 -0.050663
540436070 0.980842 -0.04868
543399400 0.97768 -0.046388
546362730 0.967725 -0.048519
549326060 0.967955 -0.052352
552289390 0.975856 -0.052102
555252720 0.980429 -0.051974
558216050 0.984657 -0.056171
561179380 0.989674 -0.051319
564142710 0.988428 -0.04995
567106040 0.988338 -0.051335
570069370 0.981175 -0.051109
573032700 0.979494 -0.051709
575996030 0.984399 -0.03342
578959360 0.966568 -0.050237
581922690 0.974348 -0.055515
584886020 0.982783 -0.054554
587849350 0.985804 -0.052404
590812680 0.987348 -0.051149
593776010 0.988287 -0.053209
596739340 0.986328 -0.055081
599702670 0.983086 -0.052471
602666000 0.976947 -0.049993
605629330 0.970486 -0.050894
608592660 0.965787 -0.054502
611555990 0.972079 -0.052794
614519320 0.98062 -0.054576
617482650 0.985246 -0.056603
620445980 0.988117 -0.056095
623409310 0.989918 -0.053406
626372640 0.987457 -0.056025
629335970 0.983552 -0.051677
632299300 0.979013 -0.053712
635262630 0.971452 -0.051676
638225960 0.965209 -0.050649
641189290 0.972247 -0.053209
644152620 0.97996 -0.05411
647115950 0.984316 -0.058641
650079280 0.988523 -0.057642
653042610 0.989053 -0.058175
656005940 0.985942 -0.055767
658969270 0.984844 -0.05318
661932600 0.980195 -0.05713
664895930 0.972198 -0.05437
667859260 0.964843 -0.053896
670822590 0.972004 -0.053959
673785920 0.977491 -0.059635
676749250 0.985114 -0.057909
679712580 0.987543 -0.060796
682675910 0.988403 -0.055923
685639240 0.986611 -0.055832
688602570 0.984538 -0.058671
691565900 0.979589 -0.057638
694529230 0.974016 -0.055383
697492560 0.963967 -0.057571
700455890 0.971284 -0.053932
703419220 0.975811 -0.060108
706382550 0.981346 -0.05924
709345880 0.985648 -0.059306
712309210 0.986116 -0.060568
715272540 0.985954 -0.059128
718235870 0.982439 -0.057299
721199200 0.978415 -0.055621
724162530 0.971684 -0.057486
727125860 0.964463 -0.058095
730089190 0.968339 -0.05955
733052520 0.975812 -0.061811
736015850 0.97982 -0.061275
738979180 0.982487 -0.060767
741942510 0.981136 -0.063507
744905840 0.982459 -0.061168
747869170 0.982158 -0.058924
750832500 0.975686 -0.059299
753795830 0.969914 -0.059008
756759160 0.963459 -0.057183
759722490 0.96677 -0.059051
762685820 0.970782 -0.060173
765649150 0.97595 -0.062832
768612480 0.98072 -0.059238
771575810 0.981321 -0.060351
774539140 0.98203 -0.06051
777502470 0.98225 -0.05658
780465800 0.976279 -0.061197
783429130 0.969339 -0.055484
786392460 0.961945 -0.056615
789355790 0.967197 -0.058808
792319120 0.971835 -0.060387
795282450 0.975035 -0.061024
798245780 0.980958 -0.063048
801209110 0.980129 -0.061641
804172440 0.979507 -0.06351
807135770 0.978696 -0.06089
810099100 0.974438 -0.063699
813062430 0.970375 -0.060455
816025760 0.964373 -0.060288
818989090 0.962254 -0.062286
821952420 0.968673 -0.066849
824915750 0.974087 -0.067778
827879080 0.978078 -0.068216
830842410 0.979638 -0.066147
833805740 0.97841 -0.069324
836769070 0.976858 -0.065147
839732400 0.974296 -0.067884
842695730 0.966453 -0.066816
845659060 0.959211 -0.0683
848622390 0.958967 -0.068274
851585720 0.967963 -0.070132
854549050 0.973214 -0.069181
857512380 0.975615 -0.072711
860475710 0.97826 -0.070812
863439040 0.97961 -0.072647
866402370 0.975327 -0.070727
869365700 0.974868 -0.069591
872329030 0.966724 -0.068318
875292360 0.962063 -0.066883
878255690 0.959217 -0.071943
881219020 0.963123 -0.075872
884182350 0.973314 -0.072639
887145680 0.976213 -0.078332
890109010 0.978423 -0.076889
893072340 0.977336 -0.080615
896035670 0.979179 -0.076069
898999000 0.976628 -0.077214
901962330 0.968026 -0.075668
904925660 0.963134 -0.073797
907888990 0.958935 -0.074063
910852320 0.96696 -0.077473
913815650 0.971289 -0.076331
916778980 0.977786 -0.075617
919742310 0.978736 -0.079427
922705640 0.978891 -0.073539
925668970 0.978371 -0.071243
928632300 0.972957 -0.074286
931595630 0.968208 -0.067832
934558960 0.95911 -0.066766
937522290 0.95531 -0.067156
940485620 0.961085 -0.075246
943448950 0.966727 -0.075213
946412280 0.972738 -0.075959
949375610 0.973019 -0.075763
952338940 0.97528 -0.074179
955302270 0.974869 -0.074495
958265600 0.971762 -0.076375
961228930 0.966084 -0.074774
964192260 0.959983 -0.07369
967155590 0.954966 -0.072442
970118920 0.963109 -0.073879
973082250 0.965667 -0.073867
976045580 0.974198 -0.077489
979008910 0.973237 -0.076531
981972240 0.975725 -0.08166
984935570 0.975053 -0.077253
987898900 0.973631 -0.076402
990862230 0.96856 -0.07744
993825560 0.962702 -0.078275
996788890 0.955028 -0.072452
999752220 0.963123 -0.073878
1002715550 0.967834 -0.074209
1005678880 0.972009 -0.077461
1008642210 0.974108 -0.075414
1011605540 0.975518 -0.079694
1014568870 0.973077 -0.075288
1017532200 0.974215 -0.070523
1020495530 0.967453 -0.07269
1023458860 0.96054 -0.07389
1026422190 0.954108 -0.070928
1029385520 0.961511 -0.072095
1032348850 0.964703 -0.075096
1035312180 0.96991 -0.075781
1038275510 0.973889 -0.076716
1041238840 0.973611 -0.075918
1044202170 0.975572 -0.07622
1047165500 0.972773 -0.07322
1050128830 0.969945 -0.069068
1053092160 1.062286 -0.000621
1056055490 0.958845 -0.073145
1059018820 0.962816 -0.071697
1061982150 0.968471 -0.073562
1064945480 0.972127 -0.076035
1067908810 0.975491 -0.077598
1070872140 0.977092 -0.07309
1073835470 0.976727 -0.071512
1076798800 0.975085 -0.074781
1079762130 0.969251 -0.070308
1082725460 0.966611 -0.067176
1085688790 0.95884 -0.071688
1088652120 0.961131 -0.07325
1091615450 0.968489 -0.073144
1094578780 0.973023 -0.075758
1097542110 0.976577 -0.06852
1100505440 0.97577 -0.071065
1103468770 0.977321 -0.071866
1106432100 0.97565 -0.072809
1109395430 0.970504 -0.069679
1112358760 0.96532 -0.068708
1115322090 0.959328 -0.071542
1118285420 0.961725 -0.068928
1121248750 0.965376 -0.069461
1124212080 0.974329 -0.070205
1127175410 0.974437 -0.076316
1130138740 0.975218 -0.072146
1133102070 0.973496 -0.072602
1136065400 0.970425 -0.079117
1139028730 0.970418 -0.07812
1141992060 0.967711 -0.077545
1144955390 0.956852 -0.080301
1147918720 0.95901 -0.085304
1150882050 0.966188 -0.081163
1153845380 0.971628 -0.088873
1156808710 0.975114 -0.086247
1159772040 0.978162 -0.086822
1162735370 0.980753 -0.080449
1165698700 0.975655 -0.083444
1168662030 0.968916 -0.083781
1171625360 0.965059 -0.084361
1174588690 0.957236 -0.084222
1177552020 0.95796 -0.088902
1180515350 0.966561 -0.088393
1183478680 0.969903 -0.088676
1186442010 0.977796 -0.084255
1189405340 0.980295 -0.087427
1192368670 0.977659 -0.0895
1195332000 0.976595 -0.088558
1198295330 0.971122 -0.087883
1201258660 0.964548 -0.084089
1204221990 0.958955 -0.087233
1207185320 0.952743 -0.087324
1210148650 0.960001 -0.091237
1213111980 0.967836 -0.091133
1216075310 0.973303 -0.096042
1219038640 0.975986 -0.093741
1222001970 0.976952 -0.090408
1224965300 0.975012 -0.091515
1227928630 0.971804 -0.093035
1230891960 0.963039 -0.092936
1233855290 0.956863 -0.093752
1236818620 0.952671 -0.095561
1239781950 0.96187 -0.095098
1242745280 0.966022 -0.099617
1245708610 0.970394 -0.099238
1248671940 0.974126 -0.100473
1251635270 0.973536 -0.094608
1254598600 0.973378 -0.100272
1257561930 0.970334 -0.094582
1260525260 0.964256 -0.095782
1263488590 0.955271 -0.089863
1266451920 0.949556 -0.095206
1269415250 0.957568 -0.094688
1272378580 0.962695 -0.099164
1275341910 0.965892 -0.100563
1278305240 0.968855 -0.105651
1281268570 0.969936 -0.108003
1284231900 0.966732 -0.106508
1287195230 0.9636 -0.103296
1290158560 0.959746 -0.10158
1293121890 0.951301 -0.09786
1296085220 0.945078 -0.100742
1299048550 0.954018 -0.102381
1302011880 0.958966 -0.102192
1304975210 0.963148 -0.102009
1307938540 0.964149 -0.109139
1310901870 0.966203 -0.102196
1313865200 0.961849 -0.107882
1316828530 0.961806 -0.104499
1319791860 0.958913 -0.103783
1322755190 0.951077 -0.099519
1325718520 0.942284 -0.095616
1328681850 0.952738 -0.095291
1331645180 0.956389 -0.102432
1334608510 0.958083 -0.100776
1337571840 0.961532 -0.105047
1340535170 0.961245 -0.098643
1343498500 0.9634 -0.106163
1346461830 0.956397 -0.106593
1349425160 0.954654 -0.099566
1352388490 0.951067 -0.097786
1355351820 0.941222 -0.102027
1358315150 0.946799 -0.09936
1361278480 0.957841 -0.108919
1364241810 0.959469 -0.10076
1367205140 0.961753 -0.100506
1370168470 0.963443 -0.103926
1373131800 0.962768 -0.105033
1376095130 0.965275 -0.094949
1379058460 0.958655 -0.097069
1382021790 0.95523 -0.095796
1384985120 0.945197 -0.093903
1387948450 0.956178 -0.094601
1390911780 0.961493 -0.098846
1393875110 0.961625 -0.097804
1396838440 0.964462 -0.101024
1399801770 0.965999 -0.101474
1402765100 0.965034 -0.105698
1405728430 0.961261 -0.102763
1408691760 0.956478 -0.096942
1411655090 0.954493 -0.10193
1414618420 0.950173 -0.100807
1417581750 0.95195 -0.101774
1420545080 0.957665 -0.101898
1423508410 0.959902 -0.101546
1426471740 0.962689 -0.107975
1429435070 0.967193 -0.10203
1432398400 0.967676 -0.100279
1435361730 0.963117 -0.102414
1438325060 0.959258 -0.102638
1441288390 0.956533 -0.100087
1444251720 0.943408 -0.10177
1447215050 0.950094 -0.104629
1450178380 0.959847 -0.102621
1453141710 0.963107 -0.098521
1456105040 0.967948 -0.096297
1459068370 0.9709 -0.097749
1462031700 0.967743 -0.100117
1464995030 0.966104 -0.09629
1467958360 0.965495 -0.091724
1470921690 0.956595 -0.09309
1473885020 0.950018 -0.092922
1476848350 0.950489 -0.093264
1479811680 0.957961 -0.097662
1482775010 0.964721 -0.092287
1485738340 0.96627 -0.095857
1488701670 0.969415 -0.094866
1491665000 0.96865 -0.092562
1494628330 0.966756 -0.09294
1497591660 0.963535 -0.093552
1500554990 0.95818 -0.095109
1503518320 0.95104 -0.098057
1506481650 0.950041 -0.09856
1509444980 0.958544 -0.098488
1512408310 0.963613 -0.096979
1515371640 0.966483 -0.105713
1518334970 0.972035 -0.096924
1521298300 0.967584 -0.102488
1524261630 0.969099 -0.098108
1527224960 0.965042 -0.100412
1530188290 0.955855 -0.106435
1533151620 0.948491 -0.107573
1536114950 0.947284 -0.108788
1539078280 0.95833 -0.106744
1542041610 0.962206 -0.111082
1545004940 0.970307 -0.103958
1547968270 0.964154 -0.122659
1550931600 0.970403 -0.11273
1553894930 0.969371 -0.107164
1556858260 0.9667 -0.103647
1559821590 0.958473 -0.102213
1562784920 0.949266 -0.108273
1565748250 0.94577 -0.100194
1568711580 0.954273 -0.108237
1571674910 0.961042 -0.115764
1574638240 0.963335 -0.112813
1577601570 0.960627 -0.118489
1580564900 0.96724 -0.114978
1583528230 0.962032 -0.117172
1586491560 0.962481 -0.106724
1589454890 0.954509 -0.111132
1592418220 0.945879 -0.111216
1595381550 0.940438 -0.104767
1598344880 0.951568 -0.105893
1601308210 0.958882 -0.111931
1604271540 0.960712 -0.117747
1607234870 0.963162 -0.115851
1610198200 0.962534 -0.115618
1613161530 0.962216 -0.122559
1616124860 0.956352 -0.115193
1619088190 0.954059 -0.107333
1622051520 0.947001 -0.112806
1625014850 0.940058 -0.10855
1627978180 0.952194 -0.110529
1630941510 0.954834 -0.110383
1633904840 0.959845 -0.120395
1636868170 0.958553 -0.11892
1639831500 0.962688 -0.117356
1642794830 0.958517 -0.113828
1645758160 0.957119 -0.110918
1648721490 0.954044 -0.110564
1651684820 0.961225 -0.100446
1654648150 0.938415 -0.104983
1657611480 0.944527 -0.106263
1660574810 0.946355 -0.111302
1663538140 0.951832 -0.112797
1666501470 0.953691 -0.119747
1669464800 0.953122 -0.125284
1672428130 0.954635 -0.107612
1675391460 0.950447 -0.121789
1678354790 0.948268 -0.112173
1681318120 0.940157 -0.113748
1684281450 0.932794 -0.118862
1687244780 0.941259 -0.118007
1690208110 0.944868 -0.123192
1693171440 0.947906 -0.118522
1696134770 0.952001 -0.118793
1699098100 0.953635 -0.120983
1702061430 0.951253 -0.127476
1705024760 0.950137 -0.115507
1707988090 0.945315 -0.11679
1710951420 0.942759 -0.116667
1713914750 0.934238 -0.117895
1716878080 0.937475 -0.121585
1719841410 0.94424 -0.11962
1722804740 0.94625 -0.124411
1725768070 0.952655 -0.121685
1728731400 0.951222 -0.120482
1731694730 0.950323 -0.127493
1734658060 0.948006 -0.123782
1737621390 0.944851 -0.119977
1740584720 0.943085 -0.119398
1743548050 0.931185 -0.123961
1746511380 0.936034 -0.120313
1749474710 0.944728 -0.119533
1752438040 0.947275 -0.127561
1755401370 0.954135 -0.130193
1758364700 0.950665 -0.125591
1761328030 0.953447 -0.132448
1764291360 0.949721 -0.126056
1767254690 0.944822 -0.124061
1770218020 0.945669 -0.119498
1773181350 0.936632 -0.12312
1776144680 0.939744 -0.12715
1779108010 0.949482 -0.121477
1782071340 0.949911 -0.121589
1785034670 0.956603 -0.12453
1787998000 0.949942 -0.128279
1790961330 0.958078 -0.120384
1793924660 0.953678 -0.11632
1796887990 0.95217 -0.114588
1799851320 0.94324 -0.117232
1802814650 0.938056 -0.117536
1805777980 0.937038 -0.120182
1808741310 0.950096 -0.115338
1811704640 0.952798 -0.123692
1814667970 0.953961 -0.115775
1817631300 0.953073 -0.118491
1820594630 0.95331 -0.122053
1823557960 0.957216 -0.119571
1826521290 0.949308 -0.111838
1829484620 0.947972 -0.119043
1832447950 0.937919 -0.110671
1835411280 0.936367 -0.118136
1838374610 0.940242 -0.116008
1841337940 0.926172 -0.153348
1844301270 0.951458 -0.122809
1847264600 0.956057 -0.116186
1850227930 0.954252 -0.12279
1853191260 0.953276 -0.117389
1856154590 0.95118 -0.118806
1859117920 0.944849 -0.120963
1862081250 0.936407 -0.123182
1865044580 0.934831 -0.120567
1868007910 0.943283 -0.126079
1870971240 0.951609 -0.121464
1873934570 0.953017 -0.123417
1876897900 0.957077 -0.121078
1879861230 0.956447 -0.12472
1882824560 0.955346 -0.120208
1885787890 0.950732 -0.123908
1888751220 0.944594 -0.123524
1891714550 0.938844 -0.113777
1894677880 0.942175 -0.112735
1897641210 0.94127 -0.119598
1900604540 0.949154 -0.11789
1903567870 0.94867 -0.123917
1906531200 0.952859 -0.118991
1909494530 0.95284 -0.120702
1912457860 0.951614 -0.115164
1915421190 0.946674 -0.118043
1918384520 0.942508 -0.122969
1921347850 0.933395 -0.123126
1924311180 0.93294 -0.115858
1927274510 0.940055 -0.122296
1930237840 0.945444 -0.121493
1933201170 0.949506 -0.115102
1936164500 0.950671 -0.128153
1939127830 0.953054 -0.119588
1942091160 0.953864 -0.1109
1945054490 0.945458 -0.122844
1948017820 0.937779 -0.119896
1950981150 0.938325 -0.112277
1953944480 0.925418 -0.117973
1956907810 0.938387 -0.116528
1959871140 0.940703 -0.121258
1962834470 0.945676 -0.118265
1965797800 0.954026 -0.118528
1968761130 0.949392 -0.124019
1971724460 0.951892 -0.117946
1974687790 0.944245 -0.120076
1977651120 0.942231 -0.129505
1980614450 0.934103 -0.124317
1983577780 0.932168 -0.113906
1986541110 0.936841 -0.125413
1989504440 0.944682 -0.127282
1992467770 0.948909 -0.123301
1995431100 0.949093 -0.131532
1998394430 0.948462 -0.120592
2001357760 0.945347 -0.136399
2004321090 0.945218 -0.125812
2007284420 0.94521 -0.119002
2010247750 0.934287 -0.123377
2013211080 0.925707 -0.123184
2016174410 0.936558 -0.127581
2019137740 0.943123 -0.12016
2022101070 0.943348 -0.128143
2025064400 0.94767 -0.121495
2028027730 0.947227 -0.12828
2030991060 0.954692 -0.120589
2033954390 0.947363 -0.121215
2036917720 0.939504 -0.121813
2039881050 0.933385 -0.121213
2042844380 0.925355 -0.120197
2045807710 0.934317 -0.117064
2048771040 0.939485 -0.124208
2051734370 0.942681 -0.122916
2054697700 0.945719 -0.121847
2057661030 0.945584 -0.13585
2060624360 0.944785 -0.125309
2063587690 0.945799 -0.119078
2066551020 0.940027 -0.125628
2069514350 0.933326 -0.122419
2072477680 0.928321 -0.121817
2075441010 0.934438 -0.129796
2078404340 0.938202 -0.144755
2081367670 0.941909 -0.135003
2084331000 0.943513 -0.133963
2087294330 0.946439 -0.13193
2090257660 0.945789 -0.13033
2093220990 0.941653 -0.135642
2096184320 0.938545 -0.136627
2099147650 0.931153 -0.134166
2102110980 0.925976 -0.123952
2105074310 0.925976 -0.137125
2108037640 0.934926 -0.127468
2111000970 0.940484 -0.13314
2113964300 0.94532 -0.133476
2116927630 0.947941 -0.134258
2119890960 0.946938 -0.129032
2122854290 0.944441 -0.130989
2125817620 0.939464 -0.129156
2128780950 0.934043 -0.128801
2131744280 0.927256 -0.122582
2134707610 0.928906 -0.129003
2137670940 0.933204 -0.126653
2140634270 0.939802 -0.136466
2143597600 0.940979 -0.133488
2146560930 0.953041 -0.133207
2149524260 0.94527 -0.138909
2152487590 0.937432 -0.136449
2155450920 0.9364 -0.134587
2158414250 0.934754 -0.138706
2161377580 0.928467 -0.129539
2164340910 0.930466 -0.136381
2167304240 0.933191 -0.141688
2170267570 0.939512 -0.139367
2173230900 0.94571 -0.140234
2176194230 0.944262 -0.131284
2179157560 0.949708 -0.137259
2182120890 0.947798 -0.133116
2185084220 0.939595 -0.133852
2188047550 0.936516 -0.134244
2191010880 0.928648 -0.126807
2193974210 0.92382 -0.127452
2196937540 0.927333 -0.143362
2199900870 0.940068 -0.131119
2202864200 0.944738 -0.134635
2205827530 0.946235 -0.126606
2208790860 0.946557 -0.13262
2211754190 0.944716 -0.138467
2214717520 0.939618 -0.132653
2217680850 0.935192 -0.139926
2220644180 0.926067 -0.136872
2223607510 0.925688 -0.135758
2226570840 0.92879 -0.145407
2229534170 0.931552 -0.14558
2232497500 0.932004 -0.143593
2235460830 0.937755 -0.143996
2238424160 0.939105 -0.145292
2241387490 0.933573 -0.138358
2244350820 0.935194 -0.14312
2247314150 0.928559 -0.146282
2250277480 0.908218 -0.143386
2253240810 0.915895 -0.137408
2256204140 0.925028 -0.137152
2259167470 0.925846 -0.141598
2262130800 0.935414 -0.141713
2265094130 0.934506 -0.146569
2268057460 0.941861 -0.1415
2271020790 0.937555 -0.150695
2273984120 0.936356 -0.138548
2276947450 0.935038 -0.137023
2279910780 0.926114 -0.146229
2282874110 0.925505 -0.12719
2285837440 0.932031 -0.134645
2288800770 0.928535 -0.143343
2291764100 0.938468 -0.14263
2294727430 0.93534 -0.14647
2297690760 0.941814 -0.132553
2300654090 0.940722 -0.135944
2303617420 0.93767 -0.134662
2306580750 0.936071 -0.127365
2309544080 0.929165 -0.135844
2312507410 0.928239 -0.12416
2315470740 0.926599 -0.131226
2318434070 0.928603 -0.13401
2321397400 0.938772 -0.137231
2324360730 0.934286 -0.137952
2327324060 0.939435 -0.137269
2330287390 0.944178 -0.130634
2333250720 0.930809 -0.143632
2336214050 0.93819 -0.134765
2339177380 0.933775 -0.135443
2342140710 0.92069 -0.143195
2345104040 0.928716 -0.134736
2348067370 0.934354 -0.134042
2351030700 0.928503 -0.147911
2353994030 0.933129 -0.149297
2356957360 0.940743 -0.134413
2359920690 0.934264 -0.143286
2362884020 0.931719 -0.143489
2365847350 0.931686 -0.140644
2368810680 0.927549 -0.130084
2371774010 0.914643 -0.142689
2374737340 0.898164 -0.182257
2377700670 0.940124 -0.123634
2380664000 0.920911 -0.166769
2383627330 0.945798 -0.125272
2386590660 0.926083 -0.164208
2389553990 0.940086 -0.129033
2392517320 0.924656 -0.168269
2395480650 0.932967 -0.136261
2398443980 0.908846 -0.170971
2401407310 0.923649 -0.129383
2404370640 0.920457 -0.160657
2407333970 0.922653 -0.15398
2410297300 0.928349 -0.150255
2413260630 0.930709 -0.154653
2416223960 0.934571 -0.144725
2419187290 0.931149 -0.156942
2422150620 0.934201 -0.151399
2425113950 0.923309 -0.148763
2428077280 0.916435 -0.152263
2431040610 0.914419 -0.144375
2434003940 0.915421 -0.141455
2436967270 0.924126 -0.151754
2439930600 0.934333 -0.13953
2442893930 0.933569 -0.148953
2445857260 0.931238 -0.160076
2448820590 0.925394 -0.159583
2451783920 0.933788 -0.163854
2454747250 0.925283 -0.157633
2457710580 0.915824 -0.156194
2460673910 0.913759 -0.150863
2463637240 0.917252 -0.158812
2466600570 0.927293 -0.160556
2469563900 0.931582 -0.154495
2472527230 0.931822 -0.153068
2475490560 0.937141 -0.145374
2478453890 0.936548 -0.153182
2481417220 0.931272 -0.146389
2484380550 0.933187 -0.132785
2487343880 0.924862 -0.159665
2490307210 0.921433 -0.152764
2493270540 0.914753 -0.147173
2496233870 0.929114 -0.153143
2499197200 0.934829 -0.14905
2502160530 0.935129 -0.153838
2505123860 0.93607 -0.154396
2508087190 0.938397 -0.130453
2511050520 0.933856 -0.141053
2514013850 0.926023 -0.12822
2516977180 0.92146 -0.135983
2519940510 0.9191 -0.128008
2522903840 0.911227 -0.139145
2525867170 0.918718 -0.140623
2528830500 0.925534 -0.137972
2531793830 0.927939 -0.147088
2534757160 0.93578 -0.151207
2537720490 0.933643 -0.148915
2540683820 0.930838 -0.14859
2543647150 0.931378 -0.149164
2546610480 0.924722 -0.160655
2549573810 0.917295 -0.14714
2552537140 0.915175 -0.15555
2555500470 0.920914 -0.151384
2558463800 0.92876 -0.152698
2561427130 0.92907 -0.160811
2564390460 0.932026 -0.15593
2567353790 0.93246 -0.147599
2570317120 0.928991 -0.158121
2573280450 0.929073 -0.149524
2576243780 0.922836 -0.151497
2579207110 0.916317 -0.150452
2582170440 0.916282 -0.146703
2585133770 0.916207 -0.149211
2588097100 0.923598 -0.155101
2591060430 0.924312 -0.155867
2594023760 0.925821 -0.163422
2596987090 0.92676 -0.156987
2599950420 0.930957 -0.158855
2602913750 0.925516 -0.157792
2605877080 0.918872 -0.145905
2608840410 0.912694 -0.144569
2611803740 0.907492 -0.146918
2614767070 0.910187 -0.14898
2617730400 0.917754 -0.147217
2620693730 0.917296 -0.157408
2623657060 0.917748 -0.161654
2626620390 0.917438 -0.161369
2629583720 0.916948 -0.15991
2632547050 0.915141 -0.162987
2635510380 0.913073 -0.159145
2638473710 0.906953 -0.154683
2641437040 0.900656 -0.161244
2644400370 0.910421 -0.158534
2647363700 0.903376 -0.162328
2650327030 0.910399 -0.16974
2653290360 0.918869 -0.166466
2656253690 0.912985 -0.15998
2659217020 0.923455 -0.154463
2662180350 0.913291 -0.161198
2665143680 0.911295 -0.156869
2668107010 0.896611 -0.158627
2671070340 0.896479 -0.160604
2674033670 0.914698 -0.147659
2676997000 0.915196 -0.157439
2679960330 0.913597 -0.157955
2682923660 0.915571 -0.170094
2685886990 0.917407 -0.162867
2688850320 0.91838 -0.160454
2691813650 0.918087 -0.169739
2694776980 0.915424 -0.166377
2697740310 0.912602 -0.158847
2700703640 0.907492 -0.159444
2703666970 0.912594 -0.164165
2706630300 0.913446 -0.159204
2709593630 0.930338 -0.159034
2712556960 0.937039 -0.163998
2715520290 0.929055 -0.158833
2718483620 0.928702 -0.162114
2721446950 0.926113 -0.16074
2724410280 0.921919 -0.155343
2727373610 0.907453 -0.163173
2730336940 0.915466 -0.150112
2733300270 0.910907 -0.154116
2736263600 0.927644 -0.147644
2739226930 0.920209 -0.157415
2742190260 0.934241 -0.140386
2745153590 0.927374 -0.153986
2748116920 0.924462 -0.144227
2751080250 0.923488 -0.145867
2754043580 0.923268 -0.13357
2757006910 0.913689 -0.150539
2759970240 0.920994 -0.126187
2762933570 0.913517 -0.14442
2765896900 0.921069 -0.148369
2768860230 0.925246 -0.149707
2771823560 0.922957 -0.155524
2774786890 0.92205 -0.157774
2777750220 0.92254 -0.154759
2780713550 0.928325 -0.154966
2783676880 0.917293 -0.153567
2786640210 0.914115 -0.158781
2789603540 0.912353 -0.147454
2792566870 0.918206 -0.162472
2795530200 0.907627 -0.189395
2798493530 0.918572 -0.169304
2801456860 0.91322 -0.189178
2804420190 0.929367 -0.17517
2807383520 0.921484 -0.184896
2810346850 0.925205 -0.16191
2813310180 0.91485 -0.17596
2816273510 0.923758 -0.159557
2819236840 0.900898 -0.191015
2822200170 0.923098 -0.160524
2825163500 0.906611 -0.198941
2828126830 0.928298 -0.166395
2831090160 0.924661 -0.197694
2834053490 0.937861 -0.162722
2837016820 0.939844 -0.172041
2839980150 0.930317 -0.171211
2842943480 0.928895 -0.175442
2845906810 0.931611 -0.163971
2848870140 0.916732 -0.153955
2851833470 0.918488 -0.166826
2854796800 0.918267 -0.153279
2857760130 0.920476 -0.174655
2860723460 0.922758 -0.159265
2863686790 0.928277 -0.157383
2866650120 0.922507 -0.166336
2869613450 0.932525 -0.174053
2872576780 0.922962 -0.179776
2875540110 0.916327 -0.160981
2878503440 0.912478 -0.176723
2881466770 0.90723 -0.156164
2884430100 0.912086 -0.166798
2887393430 0.910291 -0.174777
2890356760 0.911433 -0.190813
2893320090 0.923298 -0.17725
2896283420 0.913621 -0.178204
2899246750 0.913993 -0.187721
2902210080 0.914708 -0.172731
2905173410 0.913462 -0.17304
2908136740 0.910696 -0.172817
2911100070 0.910676 -0.176546
2914063400 0.902307 -0.169531
2917026730 0.90236 -0.172402
2919990060 0.915543 -0.175346
2922953390 0.915506 -0.168312
2925916720 0.908457 -0.171872
2928880050 0.916739 -0.166622
2931843380 0.919577 -0.163478
2934806710 0.89967 -0.164192
2937770040 0.897859 -0.159538
2940733370 0.894551 -0.159264
2943696700 0.903385 -0.162213
2946660030 0.904558 -0.165977
2949623360 0.899725 -0.172643
2952586690 0.911662 -0.175244
2955550020 0.915904 -0.171451
2958513350 0.908222 -0.170393
2961476680 0.899561 -0.170749
2964440010 0.901366 -0.167102
2967403340 0.89318 -0.172607
2970366670 0.887166 -0.158511
2973330000 0.894188 -0.16921
2976293330 0.898771 -0.167814
2979256660 0.898989 -0.166387
2982219990 0.906324 -0.169012
2985183320 0.911347 -0.168635
2988146650 0.907939 -0.169137
2991109980 0.905079 -0.163947
2994073310 0.901232 -0.165762
2997036640 0.898813 -0.155858
2999999970 0.888775 -0.159507
