# HZ S RI R 50
10000000 0.99772 -0.002336
12963330 1.001678 -0.006444
15926660 1.00533 -0.009633
18889990 1.009674 -0.014607
21853320 1.013569 -0.016676
24816650 1.01445 -0.017722
27779980 1.015564 -0.017412
30743310 1.013822 -0.017899
33706640 1.009407 -0.017473
36669970 1.004424 -0.017354
39633300 0.995825 -0.016418
42596630 1.001257 -0.020244
45559960 1.008508 -0.02307
48523290 1.012339 -0.026938
51486620 1.014632 -0.027812
54449950 1.016912 -0.028946
57413280 1.016177 -0.030068
60376610 1.011253 -0.028105
63339940 1.007012 -0.026958
66303270 1.000344 -0.026261
69266600 0.9917 -0.026617
72229930 0.996434 -0.029034
75193260 1.000905 -0.032106
78156590 1.007173 -0.0341
81119920 1.007335 -0.035682
84083250 1.007764 -0.035732
87046580 1.007236 -0.03557
90009910 1.005194 -0.035436
92973240 0.999966 -0.034749
95936570 0.995023 -0.03573
98899900 0.985994 -0.03419
101863230 0.989687 -0.036642
104826560 0.994026 -0.038512
107789890 0.998292 -0.039922
110753220 0.999874 -0.040989
113716550 0.999261 -0.041056
116679880 0.999496 -0.039865
119643210 0.996857 -0.03758
122606540 0.991918 -0.038772
125569870 0.986973 -0.040031
128533200 0.980591 -0.037403
131496530 0.982731 -0.039479
134459860 0.989964 -0.040352
137423190 0.981954 -0.052467
140386520 0.985462 -0.050963
143349850 0.988585 -0.049369
146313180 0.989175 -0.049316
149276510 0.988206 -0.047471
152239840 0.986002 -0.04623
155203170 0.981415 -0.044274
158166500 0.975223 -0.042383
161129830 0.976253 -0.042133
164093160 0.982265 -0.043425
167056490 0.986082 -0.044599
170019820 0.988326 -0.043322
172983150 0.988944 -0.043729
175946480 0.988507 -0.042561
178909810 0.987436 -0.042968
181873140 0.982547 -0.042609
184836470 0.978196 -0.042945
187799800 0.970721 -0.044439
190763130 0.969906 -0.045381
193726460 0.975718 -0.045774
196689790 0.981022 -0.044921
199653120 0.984871 -0.044799
202616450 0.986056 -0.044413
205579780 0.985804 -0.043801
208543110 0.984636 -0.043998
211506440 0.980006 -0.043887
214469770 0.975685 -0.044157
217433100 0.96853 -0.045656
220396430 0.967027 -0.047263
223359760 0.974104 -0.046815
226323090 0.978194 -0.047064
229286420 0.983079 -0.045227
232249750 0.98429 -0.046013
235213080 0.983502 -0.045901
238176410 0.982644 -0.044284
241139740 0.977715 -0.045202
244103070 0.972895 -0.045681
247066400 0.965084 -0.047008
250029730 0.962104 -0.049801
252993060 0.969964 -0.048584
255956390 0.975425 -0.049163
258919720 0.980506 -0.048292
261883050 0.982494 -0.048167
264846380 0.983128 -0.047691
267809710 0.981326 -0.047847
270773040 0.977894 -0.047277
273736370 0.971861 -0.047988
276699700 0.965211 -0.048599
279663030 0.959275 -0.04941
282626360 0.967885 -0.051146
285589690 0.969798 -0.053728
288553020 0.977784 -0.05
291516350 0.980046 -0.049853
294479680 0.980824 -0.049507
297443010 0.979572 -0.048581
300406340 0.975627 -0.04741
303369670 0.968187 -0.047453
306333000 0.960585 -0.049194
309296330 0.954467 -0.050017
312259660 0.962107 -0.051908
315222990 0.96817 -0.053907
318186320 0.973859 -0.053826
321149650 0.977901 -0.053617
324112980 0.977437 -0.055453
327076310 0.978154 -0.053142
330039640 0.973777 -0.052771
333002970 0.967415 -0.051736
335966300 0.962189 -0.053856
338929630 0.952054 -0.053156
341892960 0.959916 -0.056844
344856290 0.966753 -0.056581
347819620 0.973011 -0.059224
350782950 0.974573 -0.056958
353746280 0.974531 -0.057881
356709610 0.977866 -0.057556
359672940 0.971585 -0.056215
362636270 0.965679 -0.055638
365599600 0.960381 -0.055573
368562930 0.948909 -0.055044
371526260 0.956258 -0.059147
374489590 0.96304 -0.060862
377452920 0.967954 -0.060705
380416250 0.970551 -0.059914
383379580 0.972199 -0.061409
386342910 0.972199 -0.060198
389306240 0.968949 -0.058135
392269570 0.963102 -0.059706
395232900 0.95732 -0.057749
398196230 0.949632 -0.055814
401159560 0.95451 -0.059932
404122890 0.960875 -0.063251
407086220 0.965925 -0.061505
410049550 0.970042 -0.060665
413012880 0.970438 -0.060889
415976210 0.970795 -0.060828
418939540 0.966212 -0.058531
421902870 0.96209 -0.057651
424866200 0.956102 -0.057601
427829530 0.949598 -0.055133
430792860 0.952608 -0.056796
433756190 0.957847 -0.058557
436719520 0.963083 -0.061227
439682850 0.965238 -0.061237
442646180 0.966732 -0.060878
445609510 0.966234 -0.060396
448572840 0.965112 -0.059353
451536170 0.959756 -0.058931
454499500 0.954664 -0.057577
457462830 0.947629 -0.057421
460426160 0.948866 -0.059351
463389490 0.952083 -0.061892
466352820 0.957266 -0.062646
469316150 0.960657 -0.061215
472279480 0.962203 -0.063301
475242810 0.961196 -0.061428
478206140 0.959305 -0.06202
481169470 0.955149 -0.060695
484132800 0.950088 -0.060724
487096130 0.942407 -0.05941
490059460 0.943599 -0.061894
493022790 0.951609 -0.062814
495986120 0.95512 -0.062849
498949450 0.960103 -0.06197
501912780 0.961403 -0.063832
504876110 0.961208 -0.058887
507839440 0.962258 -0.061751
510802770 0.956243 -0.059162
513766100 0.952808 -0.057619
516729430 0.946036 -0.055984
519692760 0.945782 -0.057143
522656090 0.951628 -0.059808
525619420 0.95742 -0.059159
528582750 0.961249 -0.061183
531546080 0.961261 -0.060485
534509410 0.963307 -0.060785
537472740 0.960804 -0.059334
540436070 0.95857 -0.058355
543399400 0.951942 -0.061531
546362730 0.945726 -0.059676
549326060 0.941755 -0.061028
552289390 0.951197 -0.063674
555252720 0.959166 -0.060829
558216050 0.961318 -0.063138
561179380 0.965608 -0.061528
564142710 0.964346 -0.060696
567106040 0.962575 -0.063519
570069370 0.959063 -0.060227
573032700 0.953387 -0.05781
575996030 0.92631 -0.070097
578959360 0.944326 -0.062276
581922690 0.948141 -0.061775
584886020 0.957092 -0.06483
587849350 0.961357 -0.062454
590812680 0.963949 -0.060782
593776010 0.963762 -0.060486
596739340 0.963876 -0.05993
599702670 0.959089 -0.062644
602666000 0.953741 -0.062204
605629330 0.945174 -0.062626
608592660 0.940922 -0.062251
611555990 0.948196 -0.064997
614519320 0.954847 -0.065358
617482650 0.960935 -0.065166
620445980 0.962102 -0.064374
623409310 0.965193 -0.065778
626372640 0.961308 -0.064617
629335970 0.959058 -0.062969
632299300 0.953126 -0.062473
635262630 0.946096 -0.061124
638225960 0.939733 -0.061506
641189290 0.950029 -0.062449
644152620 0.956081 -0.063444
647115950 0.960757 -0.061867
650079280 0.961594 -0.06469
653042610 0.962601 -0.063061
656005940 0.963446 -0.063661
658969270 0.959188 -0.063768
661932600 0.956728 -0.060954
664895930 0.947088 -0.063284
667859260 0.939103 -0.060804
670822590 0.947185 -0.065972
673785920 0.956255 -0.06565
676749250 0.958084 -0.068427
679712580 0.961252 -0.06818
682675910 0.961691 -0.060475
685639240 0.960644 -0.066702
688602570 0.959921 -0.067612
691565900 0.955088 -0.061852
694529230 0.94791 -0.062846
697492560 0.940024 -0.063008
700455890 0.947634 -0.064319
703419220 0.949747 -0.066012
706382550 0.956069 -0.064734
709345880 0.959543 -0.048715
712309210 0.958654 -0.067093
715272540 0.961271 -0.065806
718235870 0.958437 -0.06724
721199200 0.953395 -0.067498
724162530 0.945423 -0.066247
727125860 0.936306 -0.06671
730089190 0.943818 -0.066017
733052520 0.949655 -0.069692
736015850 0.954634 -0.067632
738979180 0.955796 -0.06753
741942510 0.955824 -0.070083
744905840 0.958051 -0.067072
747869170 0.954687 -0.067654
750832500 0.949954 -0.064551
753795830 0.946351 -0.063623
756759160 0.937619 -0.062134
759722490 0.940508 -0.067882
762685820 0.845541 -0.114246
765649150 0.953172 -0.068445
768612480 0.954755 -0.066977
771575810 0.955201 -0.066305
774539140 0.958642 -0.069541
777502470 0.953486 -0.066618
780465800 0.951714 -0.065383
783429130 0.94525 -0.062053
786392460 0.936992 -0.060633
789355790 0.942295 -0.063785
792319120 0.946665 -0.065929
795282450 0.950435 -0.070453
798245780 0.953001 -0.06742
801209110 0.954711 -0.069293
804172440 0.953722 -0.068068
807135770 0.951945 -0.070346
810099100 0.946537 -0.068717
813062430 0.942111 -0.071219
816025760 0.93618 -0.070367
818989090 0.935663 -0.066933
821952420 0.941845 -0.072705
824915750 0.947309 -0.072923
827879080 0.950977 -0.071481
830842410 0.953938 -0.072913
833805740 0.9519 -0.074897
836769070 0.949816 -0.07517
839732400 0.945542 -0.075172
842695730 0.941194 -0.072538
845659060 0.933348 -0.072637
848622390 0.933175 -0.072667
851585720 0.941106 -0.073547
854549050 0.944928 -0.073716
857512380 0.950713 -0.076801
860475710 0.951322 -0.078029
863439040 0.951694 -0.079259
866402370 0.949002 -0.079203
869365700 0.948104 -0.07488
872329030 0.940516 -0.080981
875292360 0.932368 -0.078653
878255690 0.930945 -0.078338
881219020 0.938478 -0.082532
884182350 0.943709 -0.083286
887145680 0.95221 -0.083685
890109010 0.95244 -0.082915
893072340 0.952298 -0.081933
896035670 0.95202 -0.082237
898999000 0.948875 -0.08226
901962330 0.943292 -0.082053
904925660 0.934789 -0.079333
907888990 0.930411 -0.08002
910852320 0.936947 -0.080117
913815650 0.946244 -0.080407
916778980 0.950779 -0.083375
919742310 0.951312 -0.081213
922705640 0.951701 -0.080403
925668970 0.952257 -0.078955
928632300 0.947384 -0.079741
931595630 0.943443 -0.076777
934558960 0.932283 -0.074475
937522290 0.928619 -0.075718
940485620 0.936698 -0.076529
943448950 0.941966 -0.081746
946412280 0.945504 -0.080617
949375610 0.946462 -0.082369
952338940 0.947882 -0.081703
955302270 0.948431 -0.080601
958265600 0.945142 -0.077939
961228930 0.93859 -0.077261
964192260 0.934985 -0.075595
967155590 0.927731 -0.074462
970118920 0.935886 -0.079039
973082250 0.940726 -0.084801
976045580 0.945522 -0.080407
979008910 0.9453 -0.086364
981972240 0.949705 -0.080463
984935570 0.948679 -0.083155
987898900 0.946659 -0.080749
990862230 0.942377 -0.081311
993825560 0.936452 -0.076905
996788890 0.930227 -0.07985
999752220 0.937342 -0.079052
1002715550 0.942261 -0.079272
1005678880 0.944655 -0.085382
1008642210 0.946918 -0.081989
1011605540 0.947043 -0.079592
1014568870 0.945841 -0.080317
1017532200 0.942817 -0.079524
1020495530 0.941349 -0.078444
1023458860 0.93421 -0.07855
1026422190 0.927494 -0.075159
1029385520 0.933271 -0.079759
1032348850 0.939256 -0.078613
1035312180 0.942795 -0.081113
1038275510 0.94747 -0.079463
1041238840 0.949053 -0.081067
1044202170 0.948641 -0.075838
1047165500 0.943879 -0.076559
1050128830 0.942894 -0.077829
1053092160 0.937484 -0.075711
1056055490 0.930303 -0.077025
1059018820 0.934902 -0.076925
1061982150 0.938588 -0.079241
1064945480 0.944471 -0.078712
1067908810 0.949074 -0.079371
1070872140 0.949919 -0.081315
1073835470 0.948729 -0.077348
1076798800 0.946674 -0.076846
1079762130 0.94406 -0.075807
1082725460 0.940616 -0.073913
1085688790 0.929538 -0.076243
1088652120 0.93584 -0.071727
1091615450 0.940049 -0.079466
1094578780 0.946476 -0.081835
1097542110 0.947332 -0.079372
1100505440 0.947831 -0.076749
1103468770 0.949322 -0.071941
1106432100 0.947518 -0.073412
1109395430 0.944892 -0.076307
1112358760 0.936546 -0.077857
1115322090 0.929934 -0.072728
1118285420 0.932653 -0.076627
1121248750 0.937577 -0.076428
1124212080 0.943224 -0.07759
1127175410 0.947352 -0.078067
1130138740 0.949199 -0.081054
1133102070 0.94649 -0.080216
1136065400 0.947678 -0.080971
1139028730 0.939663 -0.083916
1141992060 0.933003 -0.085017
1144955390 0.927777 -0.084315
1147918720 0.929574 -0.090134
1150882050 0.937402 -0.084304
1153845380 0.943581 -0.084046
1156808710 0.948876 -0.088905
1159772040 0.949802 -0.087197
1162735370 0.951244 -0.085824
1165698700 0.949271 -0.084662
1168662030 0.942273 -0.091061
1171625360 0.938999 -0.086235
1174588690 0.930485 -0.084568
1177552020 0.930524 -0.088112
1180515350 0.937215 -0.090129
1183478680 0.94218 -0.089742
1186442010 0.945749 -0.089563
1189405340 0.949907 -0.092927
1192368670 0.950681 -0.084679
1195332000 0.946621 -0.086904
1198295330 0.943276 -0.088697
1201258660 0.936516 -0.08787
1204221990 0.928461 -0.090273
1207185320 0.924141 -0.092736
1210148650 0.934748 -0.092998
1213111980 0.941264 -0.097447
1216075310 0.94402 -0.103036
1219038640 0.947247 -0.095881
1222001970 0.946998 -0.098138
1224965300 0.94367 -0.096487
1227928630 0.942428 -0.097742
1230891960 0.935898 -0.097447
1233855290 0.927195 -0.099305
1236818620 0.926213 -0.095893
1239781950 0.932896 -0.097294
1242745280 0.937524 -0.101794
1245708610 0.940696 -0.106165
1248671940 0.945922 -0.098273
1251635270 0.944681 -0.103108
1254598600 0.944492 -0.10153
1257561930 0.941057 -0.100872
1260525260 0.945016 -0.066601
1263488590 0.939621 -0.065738
1266451920 0.935111 -0.07054
1269415250 0.941278 -0.072445
1272378580 0.945459 -0.071121
1275341910 0.949354 -0.074572
1278305240 0.952053 -0.071682
1281268570 0.953692 -0.075489
1284231900 0.949845 -0.074439
1287195230 0.94841 -0.077196
1290158560 0.942482 -0.068519
1293121890 0.935104 -0.073534
1296085220 0.928953 -0.072624
1299048550 0.937187 -0.072576
1302011880 0.942253 -0.07553
1304975210 0.938237 -0.087001
1307938540 0.937047 -0.107286
1310901870 0.941089 -0.105728
1313865200 0.936284 -0.105818
1316828530 0.93476 -0.103475
1319791860 0.92862 -0.102165
1322755190 0.923162 -0.10153
1325718520 0.915022 -0.101164
1328681850 0.922235 -0.103553
1331645180 0.928564 -0.099049
1334608510 0.932047 -0.109072
1337571840 0.934784 -0.104175
1340535170 0.938292 -0.102786
1343498500 0.934459 -0.102569
1346461830 0.930283 -0.104762
1349425160 0.928037 -0.105468
1352388490 0.922346 -0.104875
1355351820 0.914351 -0.104334
1358315150 0.920981 -0.103043
1361278480 0.922612 -0.089265
1364241810 0.931105 -0.108562
1367205140 0.939004 -0.101448
1370168470 0.93901 -0.104032
1373131800 0.937929 -0.102653
1376095130 0.932727 -0.102146
1379058460 0.933188 -0.101619
1382021790 0.927465 -0.10497
1384985120 0.916172 -0.104508
1387948450 0.924246 -0.091524
1390911780 0.933808 -0.102404
1393875110 0.931706 -0.108431
1396838440 0.936052 -0.099213
1399801770 0.937229 -0.102669
1402765100 0.939139 -0.097571
1405728430 0.93516 -0.102191
1408691760 0.933012 -0.098061
1411655090 0.927024 -0.09932
1414618420 0.917685 -0.102995
1417581750 0.920928 -0.106464
1420545080 0.931217 -0.104318
1423508410 0.933895 -0.102713
1426471740 0.932978 -0.111179
1429435070 0.934537 -0.107653
1432398400 0.936533 -0.10417
1435361730 0.935437 -0.105127
1438325060 0.931119 -0.103052
1441288390 0.930224 -0.098631
1444251720 0.921214 -0.105927
1447215050 0.924842 -0.099971
1450178380 0.929676 -0.107482
1453141710 0.934598 -0.10901
1456105040 0.939251 -0.103628
1459068370 0.941187 -0.10155
1462031700 0.940213 -0.099219
1464995030 0.937601 -0.096736
1467958360 0.935128 -0.09458
1470921690 0.929038 -0.096524
1473885020 0.921404 -0.096758
1476848350 0.923422 -0.093914
1479811680 0.929661 -0.095929
1482775010 0.937288 -0.095702
1485738340 0.938709 -0.097688
1488701670 0.942364 -0.092717
1491665000 0.940277 -0.098809
1494628330 0.941153 -0.097301
1497591660 0.936218 -0.092797
1500554990 0.929171 -0.101717
1503518320 0.923166 -0.097285
1506481650 0.921845 -0.09869
1509444980 0.931584 -0.100822
1512408310 0.936917 -0.101978
1515371640 0.941553 -0.099298
1518334970 0.94313 -0.099678
1521298300 0.941731 -0.104477
1524261630 0.937534 -0.109758
1527224960 0.935639 -0.104927
1530188290 0.929609 -0.10514
1533151620 0.922008 -0.106877
1536114950 0.921219 -0.10477
1539078280 0.931037 -0.106017
1542041610 0.931712 -0.113771
1545004940 0.942119 -0.106474
1547968270 0.943321 -0.110125
1550931600 0.943515 -0.106951
1553894930 0.945052 -0.10363
1556858260 0.937147 -0.107268
1559821590 0.928701 -0.109363
1562784920 0.924101 -0.110444
1565748250 0.915797 -0.106264
1568711580 0.928228 -0.106366
1571674910 0.932735 -0.113424
1574638240 0.934667 -0.11465
1577601570 0.943336 -0.104578
1580564900 0.940289 -0.107355
1583528230 0.938483 -0.109801
1586491560 0.934356 -0.112699
1589454890 0.929602 -0.107103
1592418220 0.920274 -0.110769
1595381550 0.912828 -0.111106
1598344880 0.924535 -0.107874
1601308210 0.92933 -0.112899
1604271540 0.934813 -0.115924
1607234870 0.93411 -0.115651
1610198200 0.936111 -0.110502
1613161530 0.938354 -0.114468
1616124860 0.931177 -0.11777
1619088190 0.924359 -0.115293
1622051520 0.918517 -0.11439
1625014850 0.912019 -0.114443
1627978180 0.919293 -0.11979
1630941510 0.926306 -0.119581
1633904840 0.92772 -0.122149
1636868170 0.935498 -0.119216
1639831500 0.93289 -0.117423
1642794830 0.932889 -0.12099
1645758160 0.92914 -0.107575
1648721490 0.923768 -0.110899
1651684820 0.915946 -0.111346
1654648150 0.911208 -0.106311
1657611480 0.915945 -0.111491
1660574810 0.919144 -0.113221
1663538140 0.923773 -0.114922
1666501470 0.92793 -0.111904
1669464800 0.927397 -0.117909
1672428130 0.925729 -0.120017
1675391460 0.924216 -0.118397
1678354790 0.918072 -0.115012
1681318120 0.913085 -0.113543
1684281450 0.904584 -0.113894
1687244780 0.911488 -0.115875
1690208110 0.919808 -0.121054
1693171440 0.921013 -0.118605
1696134770 0.924028 -0.126471
1699098100 0.922685 -0.126621
1702061430 0.924859 -0.118587
1705024760 0.921916 -0.124274
1707988090 0.919085 -0.118472
1710951420 0.915784 -0.113516
1713914750 0.906505 -0.117241
1716878080 0.910405 -0.118606
1719841410 0.917674 -0.12351
1722804740 0.918704 -0.123214
1725768070 0.922329 -0.126237
1728731400 0.926384 -0.128565
1731694730 0.922823 -0.128327
1734658060 0.923546 -0.121763
1737621390 0.917243 -0.123323
1740584720 0.913145 -0.121846
1743548050 0.908113 -0.119091
1746511380 0.908619 -0.123502
1749474710 0.915359 -0.12146
1752438040 0.922088 -0.129192
1755401370 0.924612 -0.125888
1758364700 0.924917 -0.126785
1761328030 0.921973 -0.125212
1764291360 0.924445 -0.127271
1767254690 0.918254 -0.124488
1770218020 0.91499 -0.124951
1773181350 0.906975 -0.121601
1776144680 0.910506 -0.127085
1779108010 0.91497 -0.130365
1782071340 0.919982 -0.130286
1785034670 0.924158 -0.124005
1787998000 0.933748 -0.119935
1790961330 0.928625 -0.121203
1793924660 0.925081 -0.12187
1796887990 0.921571 -0.12191
1799851320 0.914976 -0.120657
1802814650 0.908589 -0.114167
1805777980 0.908426 -0.120338
1808741310 0.919351 -0.116545
1811704640 0.920737 -0.113351
1814667970 0.926139 -0.119853
1817631300 0.931333 -0.117846
1820594630 0.933812 -0.111692
1823557960 0.92638 -0.117042
1826521290 0.924345 -0.112055
1829484620 0.91629 -0.110674
1832447950 0.912835 -0.108629
1835411280 0.910359 -0.116295
1838374610 0.917525 -0.116758
1841337940 0.923773 -0.122927
1844301270 0.92245 -0.117199
1847264600 0.928538 -0.113552
1850227930 0.927953 -0.123398
1853191260 0.92786 -0.116077
1856154590 0.925844 -0.115168
1859117920 0.920558 -0.117902
1862081250 0.910138 -0.116748
1865044580 0.90895 -0.119062
1868007910 0.916862 -0.119263
1870971240 0.921528 -0.122508
1873934570 0.924988 -0.123679
1876897900 0.929506 -0.120181
1879861230 0.931167 -0.118289
1882824560 0.928628 -0.122511
1885787890 0.927707 -0.113908
1888751220 0.918471 -0.120265
1891714550 0.913238 -0.11624
1894677880 0.909225 -0.11249
1897641210 0.915143 -0.114757
1900604540 0.919027 -0.121805
1903567870 0.921844 -0.122221
1906531200 0.923673 -0.121222
1909494530 0.927568 -0.116422
1912457860 0.923176 -0.118475
1915421190 0.922631 -0.117062
1918384520 0.916971 -0.118723
1921347850 0.909999 -0.114783
1924311180 0.905694 -0.121784
1927274510 0.911098 -0.119008
1930237840 0.918 -0.118367
1933201170 0.922334 -0.121823
1936164500 0.924932 -0.119176
1939127830 0.92324 -0.11978
1942091160 0.921834 -0.121228
1945054490 0.921267 -0.11749
1948017820 0.915321 -0.118762
1950981150 0.909003 -0.11212
1953944480 0.901832 -0.112508
1956907810 0.907761 -0.12034
1959871140 0.918061 -0.114588
1962834470 0.918524 -0.122098
1965797800 0.924476 -0.121517
1968761130 0.924841 -0.120512
1971724460 0.922246 -0.116717
1974687790 0.918613 -0.119159
1977651120 0.914858 -0.119997
1980614450 0.911281 -0.114684
1983577780 0.901558 -0.115074
1986541110 0.910461 -0.116402
1989504440 0.919308 -0.123563
1992467770 0.91791 -0.130443
1995431100 0.92088 -0.119968
1998394430 0.920413 -0.129793
2001357760 0.921091 -0.122002
2004321090 0.916004 -0.127297
2007284420 0.910615 -0.133651
2010247750 0.909523 -0.122925
2013211080 0.899101 -0.123832
2016174410 0.904844 -0.12548
2019137740 0.915438 -0.117664
2022101070 0.91447 -0.126918
2025064400 0.917745 -0.126472
2028027730 0.917729 -0.122965
2030991060 0.916318 -0.121698
2033954390 0.915989 -0.116925
2036917720 0.91525 -0.111658
2039881050 0.917236 -0.09416
2042844380 0.902598 -0.120678
2045807710 0.910662 -0.106126
2048771040 0.900468 -0.161226
2051734370 0.920664 -0.111491
2054697700 0.915071 -0.137081
2057661030 0.926208 -0.115078
2060624360 0.914772 -0.133348
2063587690 0.921469 -0.107526
2066551020 0.90546 -0.138089
2069514350 0.912311 -0.115046
2072477680 0.893839 -0.144682
2075441010 0.910077 -0.107871
2078404340 0.897987 -0.132951
2081367670 0.917546 -0.112521
2084331000 0.91182 -0.140349
2087294330 0.921939 -0.11671
2090257660 0.911154 -0.14842
2093220990 0.919616 -0.118427
2096184320 0.904421 -0.141191
2099147650 0.911174 -0.116599
2102110980 0.893101 -0.138546
2105074310 0.903963 -0.132655
2108037640 0.908536 -0.130651
2111000970 0.913662 -0.129818
2113964300 0.916395 -0.130726
2116927630 0.92171 -0.133971
2119890960 0.921544 -0.130342
2122854290 0.917804 -0.123721
2125817620 0.910205 -0.1234
2128780950 0.907289 -0.126479
2131744280 0.900272 -0.125144
2134707610 0.89941 -0.118969
2137670940 0.908262 -0.136368
2140634270 0.913585 -0.132161
2143597600 0.984395 -0.091272
2146560930 0.921811 -0.128654
2149524260 0.917777 -0.128001
2152487590 0.917634 -0.137927
2155450920 0.912672 -0.132468
2158414250 0.906942 -0.133146
2161377580 0.900087 -0.129839
2164340910 0.90312 -0.132521
2167304240 0.906507 -0.132873
2170267570 0.912687 -0.133588
2173230900 0.916426 -0.133885
2176194230 0.918403 -0.131957
2179157560 0.91906 -0.133768
2182120890 0.918856 -0.130445
2185084220 0.911674 -0.132907
2188047550 0.910592 -0.124292
2191010880 0.901491 -0.124845
2193974210 0.900398 -0.129551
2196937540 0.906982 -0.133927
2199900870 0.910126 -0.130491
2202864200 0.913503 -0.130656
2205827530 0.916679 -0.135729
2208790860 0.917179 -0.135235
2211754190 0.910849 -0.13973
2214717520 0.905632 -0.137076
2217680850 0.900719 -0.129116
2220644180 0.896851 -0.126383
2223607510 0.895715 -0.139297
2226570840 0.904853 -0.139877
2229534170 0.904006 -0.137383
2232497500 0.912497 -0.141696
2235460830 0.908402 -0.13903
2238424160 0.913017 -0.138717
2241387490 0.9086 -0.14594
2244350820 0.906688 -0.144673
2247314150 0.902385 -0.138679
2250277480 0.894918 -0.141313
2253240810 0.894312 -0.129099
2256204140 0.901207 -0.14033
2259167470 0.907116 -0.137034
2262130800 0.909195 -0.14071
2265094130 0.911404 -0.140077
2268057460 0.912056 -0.140515
2271020790 0.911699 -0.141586
2273984120 0.910172 -0.141394
2276947450 0.903625 -0.137921
2279910780 0.903688 -0.137752
2282874110 0.897977 -0.138866
2285837440 0.903761 -0.134273
2288800770 0.90637 -0.141184
2291764100 0.911958 -0.13904
2294727430 0.921391 -0.130926
2297690760 0.913744 -0.134492
2300654090 0.913851 -0.132573
2303617420 0.909312 -0.136262
2306580750 0.90756 -0.132123
2309544080 0.902629 -0.126563
2312507410 0.895305 -0.139287
2315470740 0.905038 -0.126417
2318434070 0.906373 -0.139428
2321397400 0.906572 -0.129824
2324360730 0.90625 -0.140184
2327324060 0.913705 -0.134432
2330287390 0.909081 -0.136035
2333250720 0.913388 -0.128018
2336214050 0.908995 -0.133848
2339177380 0.898433 -0.142828
2342140710 0.89974 -0.13421
2345104040 0.90024 -0.137347
2348067370 0.901986 -0.141823
2351030700 0.90889 -0.136477
2353994030 0.913142 -0.138721
2356957360 0.904316 -0.143746
2359920690 0.911265 -0.135829
2362884020 0.909047 -0.142508
2365847350 0.907675 -0.128213
2368810680 0.895009 -0.144193
2371774010 0.891069 -0.13404
2374737340 0.882634 -0.145228
2377700670 0.896969 -0.146195
2380664000 0.906091 -0.135745
2383627330 0.903948 -0.148445
2386590660 0.909195 -0.137076
2389553990 0.911467 -0.143449
2392517320 0.904974 -0.142173
2395480650 0.896467 -0.141944
2398443980 0.888705 -0.143612
2401407310 0.892193 -0.139796
2404370640 0.889485 -0.141533
2407333970 0.898736 -0.146262
2410297300 0.89751 -0.147712
2413260630 0.90094 -0.147016
2416223960 0.902624 -0.153355
2419187290 0.903654 -0.143582
2422150620 0.902526 -0.139611
2425113950 0.898599 -0.137522
2428077280 0.8947 -0.143746
2431040610 0.883117 -0.144811
2434003940 0.88502 -0.148351
2436967270 0.892803 -0.152791
2439930600 0.901997 -0.156784
2442893930 0.926795 -0.12022
2445857260 0.90609 -0.140984
2448820590 0.906255 -0.148829
2451783920 0.903374 -0.148727
2454747250 0.898154 -0.141013
2457710580 0.899057 -0.144578
2460673910 0.887721 -0.148327
2463637240 0.894235 -0.154018
2466600570 0.900083 -0.141374
2469563900 0.904178 -0.149342
2472527230 0.908979 -0.144045
2475490560 0.911179 -0.154065
2478453890 0.902371 -0.14673
2481417220 0.910602 -0.146966
2484380550 0.905335 -0.131627
2487343880 0.899117 -0.138862
2490307210 0.892559 -0.139898
2493270540 0.890623 -0.148101
2496233870 0.899769 -0.136614
2499197200 0.904506 -0.145819
2502160530 0.90508 -0.144951
2505123860 0.911303 -0.135575
2508087190 0.903435 -0.140094
2511050520 0.902003 -0.146616
2514013850 0.905898 -0.136754
2516977180 0.896898 -0.133033
2519940510 0.887125 -0.135809
2522903840 0.888141 -0.132204
2525867170 0.894384 -0.136383
2528830500 0.898192 -0.134892
2531793830 0.907566 -0.139439
2534757160 0.901118 -0.141871
2537720490 0.897495 -0.143386
2540683820 0.900059 -0.140723
2543647150 0.907705 -0.142903
2546610480 0.897782 -0.143137
2549573810 0.889891 -0.150621
2552537140 0.887274 -0.147112
2555500470 0.89833 -0.151558
2558463800 0.901616 -0.157617
2561427130 0.904954 -0.156838
2564390460 0.906649 -0.14778
2567353790 0.906741 -0.150702
2570317120 0.904682 -0.146925
2573280450 0.907215 -0.145692
2576243780 0.892793 -0.143487
2579207110 0.892822 -0.142923
2582170440 0.884836 -0.14415
2585133770 0.893426 -0.146652
2588097100 0.896327 -0.152375
2591060430 0.899923 -0.14876
2594023760 0.904915 -0.150465
2596987090 0.901063 -0.150172
2599950420 0.898502 -0.154104
2602913750 0.89652 -0.149169
2605877080 0.891808 -0.142903
2608840410 0.886364 -0.147129
2611803740 0.881684 -0.145658
2614767070 0.88804 -0.148117
2617730400 0.889332 -0.153996
2620693730 0.893867 -0.154095
2623657060 0.896423 -0.150861
2626620390 0.893055 -0.161582
2629583720 0.889973 -0.156957
2632547050 0.892589 -0.15027
2635510380 0.88574 -0.160261
2638473710 0.883141 -0.153014
2641437040 0.878205 -0.154875
2644400370 0.879892 -0.154249
2647363700 0.885138 -0.158324
2650327030 0.887176 -0.16117
2653290360 0.89596 -0.163266
2656253690 0.891983 -0.156812
2659217020 0.885204 -0.158423
2662180350 0.889712 -0.154628
2665143680 0.881285 -0.161521
2668107010 0.878758 -0.157574
2671070340 0.871782 -0.156253
2674033670 0.872775 -0.156329
2676997000 0.886075 -0.155767
2679960330 0.883356 -0.156012
2682923660 0.884858 -0.163929
2685886990 0.899005 -0.155198
2688850320 0.895382 -0.155425
2691813650 0.893052 -0.16178
2694776980 0.892148 -0.166476
2697740310 0.896608 -0.149439
2700703640 0.881777 -0.151665
2703666970 0.883073 -0.163962
2706630300 0.897414 -0.159854
2709593630 0.898886 -0.162289
2712556960 0.896501 -0.156468
2715520290 0.896995 -0.170919
2718483620 0.906377 -0.152277
2721446950 0.905459 -0.158344
2724410280 0.909238 -0.149263
2727373610 0.888788 -0.147365
2730336940 0.87658 -0.159135
2733300270 0.88596 -0.15376
2736263600 0.894318 -0.152163
2739226930 0.896387 -0.157979
2742190260 0.896359 -0.155799
2745153590 0.920092 -0.208903
2748116920 0.899699 -0.154269
2751080250 0.892479 -0.16044
2754043580 0.889226 -0.152354
2757006910 0.890988 -0.1509
2759970240 0.884521 -0.151219
2762933570 0.87912 -0.151572
2765896900 0.877396 -0.157828
2768860230 0.889436 -0.158192
2771823560 0.892352 -0.164668
2774786890 0.892227 -0.163075
2777750220 0.893793 -0.168113
2780713550 0.888657 -0.166336
2783676880 0.879112 -0.167884
2786640210 0.885489 -0.157589
2789603540 0.869883 -0.176235
2792566870 0.882436 -0.17138
2795530200 0.88019 -0.184724
2798493530 0.893712 -0.172791
2801456860 0.892213 -0.176359
2804420190 0.903187 -0.158881
2807383520 0.894915 -0.179054
2810346850 0.896317 -0.165499
2813310180 0.892097 -0.168893
2816273510 0.883881 -0.180953
2819236840 0.874877 -0.166356
2822200170 0.874645 -0.171395
2825163500 0.893056 -0.178656
2828126830 0.893082 -0.187762
2831090160 0.899752 -0.169333
2834053490 0.912109 -0.178499
2837016820 0.901702 -0.173896
2839980150 0.903016 -0.168945
2842943480 0.904374 -0.166042
2845906810 0.893552 -0.161876
2848870140 0.862069 -0.200518
2851833470 0.885764 -0.158051
2854796800 0.906496 -0.161682
2857760130 0.910862 -0.171157
2860723460 0.90007 -0.173866
2863686790 0.904184 -0.169295
2866650120 0.901618 -0.17944
2869613450 0.902133 -0.168871
2872576780 0.906305 -0.164245
2875540110 0.886347 -0.173088
2878503440 0.891059 -0.166279
2881466770 0.882224 -0.158204
2884430100 0.88599 -0.180688
2887393430 0.881694 -0.164212
2890356760 0.887067 -0.181823
2893320090 0.896103 -0.181061
2896283420 0.892946 -0.170419
2899246750 0.886838 -0.178312
2902210080 0.892208 -0.175503
2905173410 0.889163 -0.173227
2908136740 0.879535 -0.170782
2911100070 0.867534 -0.170004
2914063400 0.865168 -0.162232
2917026730 0.885289 -0.177665
2919990060 0.894296 -0.175903
2922953390 0.883885 -0.167431
2925916720 0.88663 -0.165898
2928880050 0.88189 -0.165056
2931843380 0.881851 -0.160224
2934806710 0.878244 -0.15797
2937770040 0.868049 -0.157075
2940733370 0.869657 -0.155937
2943696700 0.872847 -0.159042
2946660030 0.883276 -0.164064
2949623360 0.877474 -0.164369
2952586690 0.884411 -0.172488
2955550020 0.885839 -0.173415
2958513350 0.882543 -0.171143
2961476680 0.884353 -0.165536
2964440010 0.87666 -0.162573
2967403340 0.866635 -0.159653
2970366670 0.861887 -0.157182
2973330000 0.868697 -0.162232
2976293330 0.874619 -0.162977
2979256660 0.879105 -0.157304
2982219990 0.880008 -0.165849
2985183320 0.882314 -0.172185
2988146650 0.879159 -0.164321
2991109980 0.880372 -0.165028
2994073310 0.876109 -0.154676
2997036640 0.870872 -0.149824
2999999970 0.866393 -0.146676
