# HZ S RI R 50
10000000 0.99737 -0.003452
12963330 1.001001 -0.007735
15926660 1.006347 -0.010367
18889990 1.009647 -0.014031
21853320 1.013857 -0.017867
24816650 1.014941 -0.016826
27779980 1.014055 -0.018417
30743310 1.012768 -0.01906
33706640 1.00928 -0.018536
36669970 1.004288 -0.018275
39633300 0.995552 -0.017536
42596630 1.001362 -0.021323
45559960 1.008102 -0.023521
48523290 1.011588 -0.026729
51486620 1.013632 -0.028798
54449950 1.014271 -0.028542
57413280 1.013447 -0.028082
60376610 1.012478 -0.029383
63339940 1.007193 -0.02777
66303270 1.000066 -0.027043
69266600 0.990332 -0.024647
72229930 0.99731 -0.029587
75193260 0.998758 -0.031434
78156590 1.005696 -0.032083
81119920 1.006871 -0.035829
84083250 1.00601 -0.035208
87046580 1.005993 -0.034197
90009910 1.003041 -0.035374
92973240 0.999373 -0.0347
95936570 0.992665 -0.033543
98899900 0.984858 -0.03334
101863230 0.989752 -0.036442
104826560 0.993653 -0.035911
107789890 0.996454 -0.039032
110753220 0.998236 -0.038931
113716550 0.998755 -0.04054
116679880 0.998307 -0.039305
119643210 0.996758 -0.039516
122606540 0.991323 -0.038421
125569870 0.987889 -0.039522
128533200 0.978077 -0.03826
131496530 0.980417 -0.038115
134459860 0.989678 -0.039621
137423190 0.980626 -0.050637
140386520 0.984314 -0.050485
143349850 0.98781 -0.049339
146313180 0.988283 -0.048425
149276510 0.986919 -0.047391
152239840 0.985334 -0.044424
155203170 0.981028 -0.042765
158166500 0.975635 -0.041469
161129830 0.97704 -0.041391
164093160 0.982017 -0.040885
167056490 0.986899 -0.042021
170019820 0.988283 -0.042451
172983150 0.988262 -0.041124
175946480 0.989012 -0.041589
178909810 0.98645 -0.040533
181873140 0.982508 -0.041008
184836470 0.976747 -0.042306
187799800 0.971152 -0.041744
190763130 0.969859 -0.044172
193726460 0.976493 -0.043412
196689790 0.982412 -0.044102
199653120 0.983237 -0.042975
202616450 0.985149 -0.042139
205579780 0.986389 -0.042445
208543110 0.983313 -0.041078
211506440 0.979952 -0.042046
214469770 0.974491 -0.042219
217433100 0.969011 -0.043662
220396430 0.966579 -0.045433
223359760 0.974572 -0.043681
226323090 0.97954 -0.044533
229286420 0.981976 -0.043599
232249750 0.984021 -0.044018
235213080 0.983536 -0.043497
238176410 0.982798 -0.042032
241139740 0.978828 -0.043116
244103070 0.973586 -0.04356
247066400 0.96654 -0.046142
250029730 0.962246 -0.047386
252993060 0.971285 -0.046722
255956390 0.977513 -0.046208
258919720 0.981442 -0.046399
261883050 0.983965 -0.045247
264846380 0.984624 -0.046352
267809710 0.981571 -0.046184
270773040 0.978353 -0.044679
273736370 0.972484 -0.046498
276699700 0.964497 -0.046286
279663030 0.960471 -0.048877
282626360 0.969255 -0.049939
285589690 0.97888 -0.04807
288553020 0.980948 -0.049973
291516350 0.98136 -0.047842
294479680 0.981606 -0.046558
297443010 0.981174 -0.046658
300406340 0.975749 -0.04704
303369670 0.970533 -0.046235
306333000 0.962696 -0.045825
309296330 0.954948 -0.049408
312259660 0.963898 -0.049267
315222990 0.969013 -0.050963
318186320 0.976048 -0.051873
321149650 0.979551 -0.052999
324112980 0.979374 -0.052688
327076310 0.977395 -0.051008
330039640 0.975087 -0.052478
333002970 0.968948 -0.051356
335966300 0.962784 -0.050061
338929630 0.953346 -0.050715
341892960 0.960469 -0.051897
344856290 0.969236 -0.053892
347819620 0.972802 -0.055329
350782950 0.97746 -0.05497
353746280 0.978307 -0.055465
356709610 0.975225 -0.056242
359672940 0.974378 -0.053151
362636270 0.968593 -0.053592
365599600 0.96151 -0.053625
368562930 0.951036 -0.053262
371526260 0.958534 -0.056188
374489590 0.966083 -0.057214
377452920 0.969915 -0.058095
380416250 0.973585 -0.059064
383379580 0.974001 -0.059308
386342910 0.974461 -0.056448
389306240 0.971496 -0.057498
392269570 0.966975 -0.056421
395232900 0.959683 -0.054403
398196230 0.950893 -0.056169
401159560 0.956217 -0.057516
404122890 0.963659 -0.05843
407086220 0.967775 -0.059625
410049550 0.971078 -0.059103
413012880 0.972 -0.058493
415976210 0.973507 -0.058175
418939540 0.969827 -0.056174
421902870 0.965142 -0.055014
424866200 0.959427 -0.055783
427829530 0.950396 -0.053336
430792860 0.952873 -0.055788
433756190 0.959972 -0.058327
436719520 0.965456 -0.058607
439682850 0.967528 -0.059166
442646180 0.96861 -0.057853
445609510 0.968277 -0.057757
448572840 0.965636 -0.055495
451536170 0.961681 -0.054395
454499500 0.957122 -0.055007
457462830 0.949297 -0.054402
460426160 0.950424 -0.058498
463389490 0.957062 -0.056269
466352820 0.959701 -0.060192
469316150 0.963839 -0.062993
472279480 0.964715 -0.059991
475242810 0.962193 -0.059002
478206140 0.961202 -0.05937
481169470 0.958044 -0.059411
484132800 0.951408 -0.060571
487096130 0.944129 -0.059154
490059460 0.947238 -0.057421
493022790 0.950772 -0.061065
495986120 0.958665 -0.061466
498949450 0.962508 -0.060546
501912780 0.964786 -0.060814
504876110 0.963005 -0.059131
507839440 0.963231 -0.056646
510802770 0.960218 -0.058138
513766100 0.953896 -0.05618
516729430 0.948185 -0.05713
519692760 0.947378 -0.056069
522656090 0.955817 -0.056532
525619420 0.960099 -0.059156
528582750 0.963542 -0.060467
531546080 0.965293 -0.058764
534509410 0.964328 -0.062029
537472740 0.963099 -0.058422
540436070 0.960778 -0.056311
543399400 0.955052 -0.055476
546362730 0.948232 -0.058113
549326060 0.946999 -0.058397
552289390 0.953032 -0.0599
555252720 0.958572 -0.062676
558216050 0.963793 -0.063773
561179380 0.96606 -0.061264
564142710 0.965885 -0.06085
567106040 0.96538 -0.059251
570069370 0.960993 -0.058083
573032700 0.956351 -0.058719
575996030 0.937043 -0.066406
578959360 0.946093 -0.05588
581922690 0.955297 -0.064385
584886020 0.960104 -0.061951
587849350 0.96425 -0.061963
590812680 0.966351 -0.062062
593776010 0.966912 -0.063221
596739340 0.965512 -0.060077
599702670 0.962029 -0.059907
602666000 0.954698 -0.05937
605629330 0.948224 -0.059487
608592660 0.941386 -0.060554
611555990 0.95108 -0.062431
614519320 0.956815 -0.064675
617482650 0.963555 -0.063245
620445980 0.965319 -0.06513
623409310 0.96688 -0.063744
626372640 0.967303 -0.062426
629335970 0.96285 -0.060353
632299300 0.956447 -0.061467
635262630 0.949482 -0.060921
638225960 0.942027 -0.062062
641189290 0.949227 -0.062983
644152620 0.95638 -0.061478
647115950 0.963468 -0.064502
650079280 0.964634 -0.064065
653042610 0.967475 -0.062741
656005940 0.964055 -0.063745
658969270 0.963716 -0.060216
661932600 0.958259 -0.060487
664895930 0.949419 -0.06331
667859260 1.094625 -0.08122
670822590 0.951117 -0.062968
673785920 0.959383 -0.044411
676749250 0.96262 -0.049996
679712580 0.966919 -0.048816
682675910 0.968575 -0.047084
685639240 0.966297 -0.05065
688602570 0.966111 -0.044676
691565900 0.959295 -0.048583
694529230 0.953975 -0.045745
697492560 0.946485 -0.043739
700455890 0.951461 -0.048765
703419220 0.957188 -0.048306
706382550 0.964449 -0.050311
709345880 0.964927 -0.052574
712309210 0.962615 -0.05
715272540 0.968103 -0.049369
718235870 0.962481 -0.049178
721199200 0.95367 -0.064224
724162530 0.948492 -0.0639
727125860 0.940907 -0.063989
730089190 0.945071 -0.065441
733052520 0.95203 -0.066381
736015850 0.956985 -0.068289
738979180 0.95916 -0.064678
741942510 0.95904 -0.066179
744905840 0.959737 -0.068309
747869170 0.958599 -0.064971
750832500 0.954467 -0.066867
753795830 0.946895 -0.063059
756759160 0.939699 -0.065565
759722490 0.943508 -0.06669
762685820 0.947941 -0.066609
765649150 0.956043 -0.066898
768612480 0.957329 -0.067619
771575810 0.958999 -0.066669
774539140 0.958591 -0.06457
777502470 0.955764 -0.065613
780465800 0.951427 -0.064622
783429130 0.946694 -0.067547
786392460 0.93957 -0.064473
789355790 0.943096 -0.061349
792319120 0.948631 -0.065827
795282450 0.954615 -0.063003
798245780 0.956845 -0.065637
801209110 0.95702 -0.068323
804172440 0.957709 -0.068632
807135770 0.95415 -0.066881
810099100 0.952474 -0.066826
813062430 0.945558 -0.067968
816025760 0.941046 -0.069366
818989090 0.938768 -0.070296
821952420 0.944392 -0.072034
824915750 0.950953 -0.071884
827879080 0.954384 -0.073723
830842410 0.956682 -0.069405
833805740 0.956143 -0.072002
836769070 0.953546 -0.071248
839732400 0.949378 -0.072252
842695730 0.9459 -0.070446
845659060 0.936895 -0.072574
848622390 0.935659 -0.076176
851585720 0.943152 -0.072886
854549050 0.947402 -0.076825
857512380 0.951962 -0.076708
860475710 0.955769 -0.075105
863439040 0.954408 -0.078458
866402370 0.952909 -0.077078
869365700 0.948949 -0.078239
872329030 0.943995 -0.076058
875292360 0.937033 -0.07692
878255690 0.934268 -0.075757
881219020 0.942373 -0.079165
884182350 0.947459 -0.080601
887145680 0.95287 -0.080075
890109010 0.957242 -0.081099
893072340 0.954606 -0.085111
896035670 0.955004 -0.080045
898999000 0.94941 -0.080315
901962330 0.944174 -0.080765
904925660 0.939729 -0.077169
907888990 0.933804 -0.07653
910852320 0.942538 -0.08226
913815650 0.947939 -0.083774
916778980 0.952455 -0.082528
919742310 0.955544 -0.083231
922705640 0.95785 -0.075003
925668970 0.955835 -0.077337
928632300 0.951273 -0.078476
931595630 0.94563 -0.073905
934558960 0.938743 -0.074479
937522290 0.928881 -0.072204
940485620 0.938318 -0.077492
943448950 0.943996 -0.082429
946412280 0.948254 -0.078018
949375610 0.938583 -0.114378
952338940 0.949678 -0.080082
955302270 0.952421 -0.080631
958265600 0.94974 -0.077723
961228930 0.945128 -0.079237
964192260 0.936866 -0.07566
967155590 0.932448 -0.074712
970118920 0.938167 -0.078467
973082250 0.943957 -0.081441
976045580 0.945966 -0.083372
979008910 0.95064 -0.084919
981972240 0.952575 -0.084363
984935570 0.952329 -0.082346
987898900 0.948103 -0.084343
990862230 0.945209 -0.077152
993825560 0.940709 -0.077746
996788890 0.931958 -0.075715
999752220 0.940816 -0.081039
1002715550 0.944422 -0.080126
1005678880 0.947786 -0.078901
1008642210 0.949312 -0.077196
1011605540 0.951627 -0.080588
1014568870 0.949791 -0.083409
1017532200 0.948116 -0.079911
1020495530 0.943508 -0.075381
1023458860 0.938303 -0.073064
1026422190 0.930459 -0.075778
1029385520 0.936699 -0.075249
1032348850 0.944146 -0.076661
1035312180 0.946852 -0.07664
1038275510 0.948261 -0.083177
1041238840 0.950678 -0.08194
1044202170 0.950933 -0.079872
1047165500 0.948016 -0.079674
1050128830 0.945956 -0.078889
1053092160 0.940632 -0.076429
1056055490 0.932875 -0.074082
1059018820 0.938892 -0.075362
1061982150 0.94479 -0.077559
1064945480 0.949625 -0.078565
1067908810 0.949785 -0.076634
1070872140 0.951187 -0.076024
1073835470 0.954038 -0.077558
1076798800 0.948561 -0.077026
1079762130 0.946858 -0.078923
1082725460 0.943141 -0.073373
1085688790 0.934593 -0.075368
1088652120 0.938009 -0.080211
1091615450 0.945432 -0.074603
1094578780 0.947817 -0.073055
1097542110 0.951858 -0.074487
1100505440 0.954657 -0.075251
1103468770 0.951923 -0.073922
1106432100 0.950231 -0.073083
1109395430 0.94518 -0.074334
1112358760 0.94115 -0.074904
1115322090 0.935531 -0.070842
1118285420 0.937766 -0.077031
1121248750 0.946108 -0.074997
1124212080 0.947777 -0.083497
1127175410 0.949565 -0.080157
1130138740 0.948771 -0.079301
1133102070 0.95311 -0.079684
1136065400 0.945752 -0.086132
1139028730 0.946984 -0.082954
1141992060 0.939029 -0.08339
1144955390 0.931428 -0.087329
1147918720 0.931092 -0.083862
1150882050 0.940407 -0.08719
1153845380 0.947876 -0.085596
1156808710 0.949378 -0.08652
1159772040 0.953874 -0.086874
1162735370 0.953494 -0.085815
1165698700 0.953408 -0.085131
1168662030 0.946675 -0.0831
1171625360 0.941144 -0.085784
1174588690 0.934215 -0.082918
1177552020 0.934378 -0.089054
1180515350 0.94171 -0.0908
1183478680 0.949237 -0.086299
1186442010 0.955185 -0.088162
1189405340 0.953982 -0.089314
1192368670 0.95283 -0.09137
1195332000 0.949772 -0.089639
1198295330 0.945557 -0.0879
1201258660 0.943729 -0.090785
1204221990 0.930787 -0.088928
1207185320 0.929047 -0.090153
1210148650 0.937572 -0.093899
1213111980 0.941766 -0.093247
1216075310 0.948386 -0.099785
1219038640 0.949212 -0.09837
1222001970 0.950088 -0.098064
1224965300 0.949105 -0.09603
1227928630 0.944746 -0.095274
1230891960 0.939074 -0.09508
1233855290 0.931623 -0.096722
1236818620 0.92732 -0.097034
1239781950 0.934953 -0.104509
1242745280 0.941813 -0.102408
1245708610 0.946783 -0.104793
1248671940 0.949376 -0.103244
1251635270 0.94836 -0.104809
1254598600 0.948191 -0.105161
1257561930 0.943395 -0.099567
1260525260 0.939423 -0.096842
1263488590 0.92943 -0.097913
1266451920 0.924348 -0.094967
1269415250 0.933838 -0.098934
1272378580 0.939401 -0.102386
1275341910 0.941566 -0.101165
1278305240 0.945501 -0.103827
1281268570 0.94377 -0.106579
1284231900 0.945279 -0.103384
1287195230 0.940633 -0.101963
1290158560 0.935573 -0.104836
1293121890 0.926891 -0.104582
1296085220 0.922592 -0.101692
1299048550 0.927827 -0.105801
1302011880 0.933138 -0.099586
1304975210 0.93647 -0.112065
1307938540 0.941407 -0.105971
1310901870 0.940994 -0.109804
1313865200 0.939208 -0.102664
1316828530 0.936293 -0.10449
1319791860 0.932742 -0.100063
1322755190 0.928092 -0.1026
1325718520 0.920829 -0.096437
1328681850 0.925521 -0.099041
1331645180 0.931708 -0.10191
1334608510 0.934173 -0.10592
1337571840 0.937114 -0.110089
1340535170 0.937826 -0.105438
1343498500 0.935995 -0.104265
1346461830 0.935894 -0.101042
1349425160 0.930634 -0.10556
1352388490 0.922513 -0.097448
1355351820 0.915298 -0.11837
1358315150 0.924879 -0.102116
1361278480 0.927566 -0.107373
1364241810 0.932534 -0.099379
1367205140 0.935631 -0.103149
1370168470 0.938501 -0.107712
1373131800 0.937497 -0.105183
1376095130 0.938265 -0.103814
1379058460 0.932653 -0.099443
1382021790 0.931192 -0.097581
1384985120 0.926892 -0.095181
1387948450 0.927532 -0.101933
1390911780 0.935898 -0.104585
1393875110 0.936144 -0.102174
1396838440 0.938094 -0.102224
1399801770 0.94093 -0.097375
1402765100 0.93727 -0.102024
1405728430 0.938968 -0.103978
1408691760 0.935899 -0.098599
1411655090 0.9277 -0.097205
1414618420 0.923372 -0.099289
1417581750 0.92943 -0.102802
1420545080 0.929875 -0.110039
1423508410 0.93749 -0.106374
1426471740 0.9397 -0.097738
1429435070 0.939351 -0.105516
1432398400 0.941846 -0.103042
1435361730 0.935354 -0.104001
1438325060 0.941459 -0.097935
1441288390 0.928704 -0.100357
1444251720 0.925164 -0.106105
1447215050 0.92553 -0.10704
1450178380 0.932369 -0.104865
1453141710 0.939598 -0.102611
1456105040 0.942425 -0.104464
1459068370 0.941361 -0.103121
1462031700 0.942205 -0.105827
1464995030 0.941815 -0.09668
1467958360 0.937169 -0.097993
1470921690 0.930762 -0.098659
1473885020 0.925205 -0.092688
1476848350 0.926909 -0.096239
1479811680 0.933423 -0.097356
1482775010 0.939848 -0.093059
1485738340 0.941453 -0.096201
1488701670 0.94474 -0.099122
1491665000 0.94388 -0.099861
1494628330 0.943352 -0.092605
1497591660 0.939997 -0.095575
1500554990 0.933222 -0.097319
1503518320 0.926765 -0.10101
1506481650 0.925867 -0.098554
1509444980 0.933852 -0.100044
1512408310 0.939705 -0.103022
1515371640 0.942991 -0.100873
1518334970 0.943512 -0.106932
1521298300 0.944517 -0.105352
1524261630 0.944885 -0.103
1527224960 0.938995 -0.107459
1530188290 0.932254 -0.109616
1533151620 0.925361 -0.106926
1536114950 0.923826 -0.10857
1539078280 0.930277 -0.112892
1542041610 0.943583 -0.108726
1545004940 0.943953 -0.111115
1547968270 0.956405 -0.100333
1550931600 0.947426 -0.108069
1553894930 0.945907 -0.114037
1556858260 0.942701 -0.104937
1559821590 0.932839 -0.104101
1562784920 0.924077 -0.111004
1565748250 0.924319 -0.104883
1568711580 0.930278 -0.114187
1571674910 0.938363 -0.107046
1574638240 0.93945 -0.112517
1577601570 0.947086 -0.112337
1580564900 0.943683 -0.113233
1583528230 0.942454 -0.108639
1586491560 0.939606 -0.10994
1589454890 0.930878 -0.108257
1592418220 0.925725 -0.104475
1595381550 0.922684 -0.099484
1598344880 0.925678 -0.109014
1601308210 0.929977 -0.113281
1604271540 0.936328 -0.119073
1607234870 0.938584 -0.12106
1610198200 0.9365 -0.117315
1613161530 0.935583 -0.124791
1616124860 0.935364 -0.113385
1619088190 0.929191 -0.116047
1622051520 0.921389 -0.117903
1625014850 0.916005 -0.113491
1627978180 0.922254 -0.118054
1630941510 0.92658 -0.119154
1633904840 0.933028 -0.119099
1636868170 0.934933 -0.120986
1639831500 0.938844 -0.121538
1642794830 0.935712 -0.116316
1645758160 0.933769 -0.110971
1648721490 0.927204 -0.112346
1651684820 0.924966 -0.1039
1654648150 0.913987 -0.11006
1657611480 0.919469 -0.1095
1660574810 0.92541 -0.109525
1663538140 0.926434 -0.115536
1666501470 0.931532 -0.117824
1669464800 0.931161 -0.117052
1672428130 0.931817 -0.114599
1675391460 0.927409 -0.118774
1678354790 0.921134 -0.119375
1681318120 0.915763 -0.11751
1684281450 0.908126 -0.119343
1687244780 0.914104 -0.123395
1690208110 0.923101 -0.117282
1693171440 0.924572 -0.122702
1696134770 0.927339 -0.126587
1699098100 0.929331 -0.121884
1702061430 0.927236 -0.122991
1705024760 0.924988 -0.115364
1707988090 0.922979 -0.122141
1710951420 0.917776 -0.116885
1713914750 0.907903 -0.122132
1716878080 0.912328 -0.120546
1719841410 0.917403 -0.123332
1722804740 0.921884 -0.117589
1725768070 0.927066 -0.121546
1728731400 0.92917 -0.12105
1731694730 0.926423 -0.120114
1734658060 0.923901 -0.12658
1737621390 0.920978 -0.123787
1740584720 0.915685 -0.123083
1743548050 0.906864 -0.123711
1746511380 0.914882 -0.128018
1749474710 0.920585 -0.123384
1752438040 0.922868 -0.127553
1755401370 0.928668 -0.124001
1758364700 0.929794 -0.127112
1761328030 0.928546 -0.126916
1764291360 0.925445 -0.127871
1767254690 0.92518 -0.124179
1770218020 0.918449 -0.117944
1773181350 0.911263 -0.12905
1776144680 0.90935 -0.128117
1779108010 0.921806 -0.129633
1782071340 0.920259 -0.128679
1785034670 0.934103 -0.122162
1787998000 0.934871 -0.119973
1790961330 0.932888 -0.120208
1793924660 0.928703 -0.122607
1796887990 0.923455 -0.124109
1799851320 0.917232 -0.120934
1802814650 0.91199 -0.119923
1805777980 0.914525 -0.114595
1808741310 0.921365 -0.122992
1811704640 0.929839 -0.125525
1814667970 0.931836 -0.119522
1817631300 0.938154 -0.116178
1820594630 0.927647 -0.117256
1823557960 0.933431 -0.114519
1826521290 0.924283 -0.117509
1829484620 0.92203 -0.112412
1832447950 0.916572 -0.11594
1835411280 0.914495 -0.117135
1838374610 0.918749 -0.11721
1841337940 0.920419 -0.121518
1844301270 0.924078 -0.125914
1847264600 0.916525 -0.134514
1850227930 0.922916 -0.119836
1853191260 0.928604 -0.118485
1856154590 0.925218 -0.119569
1859117920 0.921356 -0.117009
1862081250 0.914277 -0.116987
1865044580 0.913457 -0.115766
1868007910 0.919804 -0.115987
1870971240 0.925173 -0.120788
1873934570 0.92758 -0.125119
1876897900 0.924577 -0.12568
1879861230 0.93166 -0.126491
1882824560 0.930417 -0.127561
1885787890 0.928113 -0.117871
1888751220 0.924032 -0.117355
1891714550 0.915656 -0.115137
1894677880 0.910866 -0.120238
1897641210 0.918768 -0.114121
1900604540 0.925138 -0.120049
1903567870 0.928872 -0.117561
1906531200 0.924341 -0.128372
1909494530 0.928596 -0.119631
1912457860 0.925832 -0.12076
1915421190 0.924058 -0.115043
1918384520 0.919835 -0.115231
1921347850 0.908319 -0.120044
1924311180 0.9096 -0.114725
1927274510 0.916524 -0.121471
1930237840 0.919914 -0.117285
1933201170 0.927031 -0.121112
1936164500 0.92692 -0.114064
1939127830 0.926731 -0.11915
1942091160 0.925063 -0.119985
1945054490 0.919839 -0.119458
1948017820 0.91763 -0.114292
1950981150 0.915207 -0.106632
1953944480 0.906702 -0.110784
1956907810 0.916326 -0.110707
1959871140 0.919643 -0.113567
1962834470 0.937755 -0.117914
1965797800 0.928108 -0.121554
1968761130 0.924293 -0.125718
1971724460 0.925296 -0.117343
1974687790 0.927343 -0.120093
1977651120 0.91944 -0.119821
1980614450 0.914169 -0.120855
1983577780 0.907604 -0.116395
1986541110 0.91198 -0.117437
1989504440 0.918551 -0.132997
1992467770 0.919879 -0.119725
1995431100 0.923595 -0.128125
1998394430 0.922394 -0.12607
2001357760 0.917266 -0.127704
2004321090 0.92111 -0.125374
2007284420 0.916868 -0.115008
2010247750 0.907887 -0.125257
2013211080 0.900362 -0.123738
2016174410 0.912257 -0.119384
2019137740 0.919269 -0.12758
2022101070 0.918275 -0.128774
2025064400 0.920774 -0.129234
2028027730 0.926204 -0.120577
2030991060 0.91699 -0.124416
2033954390 0.924659 -0.111369
2036917720 0.914417 -0.118598
2039881050 0.91257 -0.117864
2042844380 0.90245 -0.11439
2045807710 0.909084 -0.122685
2048771040 0.914809 -0.120362
2051734370 0.91905 -0.114106
2054697700 0.920271 -0.116127
2057661030 0.928018 -0.132547
2060624360 0.919931 -0.128855
2063587690 0.918596 -0.128071
2066551020 0.914739 -0.123077
2069514350 0.912249 -0.124041
2072477680 0.905355 -0.123765
2075441010 0.903596 -0.124461
2078404340 0.906007 -0.120345
2081367670 0.916077 -0.122713
2084331000 0.920218 -0.133605
2087294330 0.921042 -0.13494
2090257660 0.918699 -0.133224
2093220990 0.914355 -0.134612
2096184320 0.91703 -0.132252
2099147650 0.909639 -0.131326
2102110980 0.89944 -0.128216
2105074310 0.907562 -0.123768
2108037640 0.910577 -0.12797
2111000970 0.917178 -0.138047
2113964300 0.918689 -0.130204
2116927630 0.919275 -0.13381
2119890960 0.922188 -0.13406
2122854290 0.920812 -0.134412
2125817620 0.914441 -0.124153
2128780950 0.909325 -0.129112
2131744280 0.903216 -0.124417
2134707610 0.903911 -0.131546
2137670940 0.907494 -0.130755
2140634270 0.914635 -0.133368
2143597600 0.918354 -0.128948
2146560930 0.917944 -0.130931
2149524260 0.919136 -0.130808
2152487590 0.916048 -0.126639
2155450920 0.91288 -0.134826
2158414250 0.907051 -0.13456
2161377580 0.905671 -0.132704
2164340910 0.902755 -0.138198
2167304240 0.909165 -0.138456
2170267570 0.916671 -0.133051
2173230900 0.918913 -0.140859
2176194230 0.918701 -0.126258
2179157560 0.919372 -0.135101
2182120890 0.920855 -0.134232
2185084220 0.913273 -0.137618
2188047550 0.908474 -0.129848
2191010880 0.906383 -0.126744
2193974210 0.900735 -0.137146
2196937540 0.90828 -0.130543
2199900870 0.916649 -0.132603
2202864200 0.917258 -0.138627
2205827530 0.91631 -0.139369
2208790860 0.919723 -0.142563
2211754190 0.91437 -0.136049
2214717520 0.909691 -0.131728
2217680850 0.904704 -0.128798
2220644180 0.900902 -0.126021
2223607510 0.900853 -0.133982
2226570840 0.903096 -0.138437
2229534170 0.909439 -0.137971
2232497500 0.916214 -0.136626
2235460830 0.917965 -0.145861
2238424160 0.915039 -0.144586
2241387490 0.909484 -0.141222
2244350820 0.911056 -0.137683
2247314150 0.90352 -0.144567
2250277480 0.904734 -0.137748
2253240810 0.895408 -0.135414
2256204140 0.903704 -0.132731
2259167470 0.904028 -0.136816
2262130800 0.910779 -0.138868
2265094130 0.911148 -0.140091
2268057460 0.914387 -0.140939
2271020790 0.91628 -0.140438
2273984120 0.906512 -0.141572
2276947450 0.908581 -0.138706
2279910780 0.908801 -0.13358
2282874110 0.904508 -0.136378
2285837440 0.904803 -0.137586
2288800770 0.916207 -0.133525
2291764100 0.915083 -0.140941
2294727430 0.915733 -0.139669
2297690760 0.917001 -0.136311
2300654090 0.910052 -0.134931
2303617420 0.914868 -0.131216
2306580750 0.911548 -0.129213
2309544080 0.906217 -0.124366
2312507410 0.903922 -0.13312
2315470740 0.907996 -0.132612
2318434070 0.913806 -0.128815
2321397400 0.91279 -0.137205
2324360730 0.908936 -0.142828
2327324060 0.911241 -0.140592
2330287390 0.909138 -0.139376
2333250720 0.908806 -0.141398
2336214050 0.90782 -0.138479
2339177380 0.903492 -0.133786
2342140710 0.891871 -0.141039
2345104040 0.902222 -0.13258
2348067370 0.911041 -0.135344
2351030700 0.909949 -0.137646
2353994030 0.912338 -0.13456
2356957360 0.908601 -0.147636
2359920690 0.908971 -0.140841
2362884020 0.915826 -0.131995
2365847350 0.904766 -0.140544
2368810680 0.900766 -0.133013
2371774010 0.895183 -0.138858
2374737340 0.889456 -0.149707
2377700670 0.901681 -0.141719
2380664000 0.909601 -0.129499
2383627330 0.905489 -0.145961
2386590660 0.910973 -0.143777
2389553990 0.912482 -0.136381
2392517320 0.905782 -0.144537
2395480650 0.911865 -0.133958
2398443980 0.900613 -0.131011
2401407310 0.892447 -0.14583
2404370640 0.895303 -0.139569
2407333970 0.901796 -0.151398
2410297300 0.900342 -0.143474
2413260630 0.90542 -0.148649
2416223960 0.907208 -0.143497
2419187290 0.909671 -0.145868
2422150620 0.902683 -0.145958
2425113950 0.902265 -0.149633
2428077280 0.89522 -0.144373
2431040610 0.891458 -0.140987
2434003940 0.897901 -0.142195
2436967270 0.900105 -0.154495
2439930600 0.904201 -0.1605
2442893930 0.903742 -0.146756
2445857260 0.912712 -0.142218
2448820590 0.910448 -0.14883
2451783920 0.914241 -0.150904
2454747250 0.904412 -0.15006
2457710580 0.897102 -0.154633
2460673910 0.89204 -0.146814
2463637240 0.897966 -0.157349
2466600570 0.908816 -0.147574
2469563900 0.906769 -0.153413
2472527230 0.907667 -0.154593
2475490560 0.913977 -0.144845
2478453890 0.913313 -0.142778
2481417220 0.90978 -0.147073
2484380550 0.912179 -0.155661
2487343880 0.904607 -0.140794
2490307210 0.89593 -0.134637
2493270540 0.89555 -0.155153
2496233870 0.901731 -0.142902
2499197200 0.908533 -0.146903
2502160530 0.913664 -0.148718
2505123860 0.910148 -0.144323
2508087190 0.908505 -0.133647
2511050520 0.909171 -0.14058
2514013850 0.909721 -0.136616
2516977180 0.901 -0.130396
2519940510 0.89068 -0.128993
2522903840 0.891903 -0.13105
2525867170 0.894456 -0.136612
2528830500 0.899299 -0.14192
2531793830 0.906808 -0.138555
2534757160 0.906045 -0.139441
2537720490 0.901126 -0.149122
2540683820 0.905494 -0.144128
2543647150 0.905314 -0.145212
2546610480 0.896526 -0.150243
2549573810 0.894437 -0.148696
2552537140 0.895141 -0.143732
2555500470 0.893835 -0.143071
2558463800 0.901818 -0.152691
2561427130 0.900259 -0.145338
2564390460 0.910667 -0.151321
2567353790 0.908124 -0.14953
2570317120 0.904289 -0.153414
2573280450 0.905614 -0.150678
2576243780 0.897392 -0.146779
2579207110 0.891862 -0.143339
2582170440 0.887586 -0.145589
2585133770 0.896998 -0.147431
2588097100 0.895634 -0.151343
2591060430 0.90065 -0.149375
2594023760 0.9022 -0.152312
2596987090 0.905511 -0.154653
2599950420 0.898115 -0.149994
2602913750 0.898434 -0.148867
2605877080 0.892764 -0.152187
2608840410 0.887453 -0.144077
2611803740 0.883879 -0.144001
2614767070 0.887881 -0.148394
2617730400 0.887418 -0.157981
2620693730 0.894476 -0.155499
2623657060 0.894972 -0.156304
2626620390 0.894869 -0.163284
2629583720 0.896422 -0.15984
2632547050 0.892318 -0.161271
2635510380 0.887016 -0.155517
2638473710 0.881465 -0.157516
2641437040 0.875783 -0.159592
2644400370 0.88291 -0.166848
2647363700 0.890915 -0.168668
2650327030 0.885828 -0.164333
2653290360 0.895543 -0.163332
2656253690 0.892937 -0.159792
2659217020 0.894503 -0.165411
2662180350 0.886898 -0.156995
2665143680 0.888342 -0.150953
2668107010 0.88704 -0.146708
2671070340 0.874316 -0.161848
2674033670 0.872053 -0.163843
2676997000 0.88923 -0.154442
2679960330 0.891829 -0.161189
2682923660 0.887475 -0.161468
2685886990 0.900166 -0.156002
2688850320 0.905228 -0.153563
2691813650 0.889105 -0.161468
2694776980 0.896119 -0.157759
2697740310 0.883369 -0.167898
2700703640 0.884241 -0.161054
2703666970 0.889174 -0.162532
2706630300 0.902737 -0.152999
2709593630 0.902708 -0.160667
2712556960 0.90301 -0.162563
2715520290 0.90265 -0.169216
2718483620 0.90301 -0.163454
2721446950 0.902925 -0.160366
2724410280 0.897824 -0.155121
2727373610 0.898012 -0.150724
2730336940 0.884373 -0.148115
2733300270 0.887283 -0.157229
2736263600 0.88953 -0.151207
2739226930 0.9024 -0.15127
2742190260 0.899167 -0.154076
2745153590 0.898442 -0.1585
2748116920 0.898142 -0.159307
2751080250 0.899019 -0.154148
2754043580 0.893321 -0.151938
2757006910 0.883555 -0.156411
2759970240 0.880232 -0.148958
2762933570 0.878605 -0.158024
2765896900 0.87929 -0.166272
2768860230 0.894023 -0.157377
2771823560 0.888052 -0.166655
2774786890 0.894218 -0.162298
2777750220 0.894955 -0.164662
2780713550 0.892777 -0.172206
2783676880 0.885441 -0.166233
2786640210 0.891314 -0.160876
2789603540 0.879888 -0.165879
2792566870 0.882107 -0.165307
2795530200 0.887411 -0.176005
2798493530 0.898026 -0.176287
2801456860 0.895051 -0.176338
2804420190 0.902631 -0.166484
2807383520 0.892624 -0.177412
2810346850 0.892838 -0.183675
2813310180 0.891411 -0.181011
2816273510 0.88749 -0.184576
2819236840 0.886914 -0.156875
2822200170 0.888568 -0.168499
2825163500 0.902306 -0.169028
2828126830 0.906312 -0.202714
2831090160 0.905781 -0.169135
2834053490 0.904649 -0.182682
2837016820 0.896437 -0.190709
2839980150 0.910402 -0.172659
2842943480 0.900752 -0.163858
2845906810 0.909839 -0.158725
2848870140 0.899851 -0.169198
2851833470 0.896396 -0.159689
2854796800 0.885735 -0.170022
2857760130 0.904869 -0.169829
2860723460 0.909722 -0.169235
2863686790 0.900981 -0.173302
2866650120 0.906622 -0.173093
2869613450 0.910208 -0.164592
2872576780 0.894238 -0.171222
2875540110 0.89006 -0.165637
2878503440 0.885865 -0.174197
2881466770 0.883548 -0.153238
2884430100 0.88066 -0.187902
2887393430 0.897842 -0.174347
2890356760 0.906651 -0.186204
2893320090 0.900624 -0.178925
2896283420 0.898662 -0.171108
2899246750 0.887545 -0.17779
2902210080 0.8921 -0.171385
2905173410 0.890594 -0.175348
2908136740 0.879253 -0.170105
2911100070 0.875032 -0.174551
2914063400 0.881945 -0.161707
2917026730 0.889119 -0.17503
2919990060 0.894113 -0.17794
2922953390 0.88926 -0.180897
2925916720 0.89182 -0.163395
2928880050 0.885527 -0.16309
2931843380 0.892999 -0.167724
2934806710 0.882979 -0.17088
2937770040 0.880261 -0.169022
2940733370 0.876027 -0.166455
2943696700 0.877101 -0.156351
2946660030 0.884306 -0.177238
2949623360 0.882603 -0.158317
2952586690 0.883557 -0.169017
2955550020 0.883822 -0.166443
2958513350 0.882263 -0.163554
2961476680 0.880179 -0.168976
2964440010 0.879676 -0.166593
2967403340 0.871392 -0.163422
2970366670 0.865396 -0.156342
2973330000 0.869568 -0.162387
2976293330 0.875876 -0.169957
2979256660 0.88237 -0.168125
2982219990 0.884922 -0.165808
2985183320 0.883772 -0.163102
2988146650 0.885157 -0.167559
2991109980 0.881939 -0.163655
2994073310 0.878221 -0.16598
2997036640 0.874834 -0.155945
2999999970 0.869651 -0.154486
