# HZ S RI R 50
10000000 0.997554 -0.002591
12963330 1.00101 -0.006819
15926660 1.005507 -0.010674
18889990 1.011016 -0.014084
21853320 1.013643 -0.016772
24816650 1.01517 -0.018716
27779980 1.015327 -0.018576
30743310 1.013977 -0.019117
33706640 1.008089 -0.01729
36669970 1.003591 -0.017573
39633300 0.996412 -0.01685
42596630 1.001836 -0.019836
45559960 1.007421 -0.024061
48523290 1.011047 -0.026559
51486620 1.014222 -0.026863
54449950 1.014142 -0.028848
57413280 1.012415 -0.027306
60376610 1.011359 -0.027721
63339940 1.006866 -0.02842
66303270 1.000077 -0.026296
69266600 0.991074 -0.025006
72229930 0.994372 -0.029511
75193260 1.000387 -0.030916
78156590 1.004166 -0.034462
81119920 1.006929 -0.03477
84083250 1.007572 -0.036405
87046580 1.005043 -0.03607
90009910 1.003653 -0.034658
92973240 0.998194 -0.033953
95936570 0.993996 -0.033193
98899900 0.985287 -0.032843
101863230 0.988058 -0.035561
104826560 0.993789 -0.037168
107789890 0.996432 -0.037806
110753220 0.999274 -0.038272
113716550 0.99889 -0.039675
116679880 0.998006 -0.039482
119643210 0.996968 -0.038093
122606540 0.991474 -0.039578
125569870 0.985893 -0.037295
128533200 0.979633 -0.037546
131496530 0.980553 -0.036185
134459860 0.989658 -0.038617
137423190 0.980066 -0.050027
140386520 0.984986 -0.049741
143349850 0.98715 -0.049138
146313180 0.988723 -0.048347
149276510 0.987463 -0.04518
152239840 0.984493 -0.044145
155203170 0.981466 -0.042391
158166500 0.976261 -0.041168
161129830 0.976655 -0.041104
164093160 0.981119 -0.040945
167056490 0.984973 -0.040482
170019820 0.987594 -0.041553
172983150 0.988636 -0.041087
175946480 0.98927 -0.040999
178909810 0.984602 -0.040306
181873140 0.98266 -0.03986
184836470 0.976941 -0.041289
187799800 0.971402 -0.042251
190763130 0.969901 -0.041583
193726460 0.976412 -0.044012
196689790 0.981811 -0.042195
199653120 0.984185 -0.042078
202616450 0.986419 -0.042308
205579780 0.985385 -0.041459
208543110 0.984432 -0.039565
211506440 0.979601 -0.041288
214469770 0.976406 -0.041992
217433100 0.969083 -0.041686
220396430 0.966508 -0.045322
223359760 0.97325 -0.043137
226323090 0.980215 -0.043157
229286420 0.983832 -0.042356
232249750 0.984682 -0.043282
235213080 0.983919 -0.041677
238176410 0.981923 -0.042798
241139740 0.978989 -0.042496
244103070 0.974252 -0.043555
247066400 0.967026 -0.045722
250029730 0.963043 -0.047082
252993060 0.971619 -0.045921
255956390 0.977025 -0.047929
258919720 0.98139 -0.044809
261883050 0.983391 -0.046019
264846380 0.983531 -0.045761
267809710 0.982135 -0.045834
270773040 0.979699 -0.044599
273736370 0.973074 -0.044395
276699700 0.966747 -0.045689
279663030 0.95998 -0.047674
282626360 0.96879 -0.04794
285589690 0.971537 -0.046851
288553020 0.978943 -0.047818
291516350 0.982873 -0.046578
294479680 0.982917 -0.045342
297443010 0.980755 -0.046237
300406340 0.977003 -0.045161
303369670 0.970588 -0.044864
306333000 0.961876 -0.047178
309296330 0.956187 -0.048165
312259660 0.964014 -0.04902
315222990 0.971805 -0.050061
318186320 0.974966 -0.051172
321149650 0.978366 -0.050338
324112980 0.980273 -0.050243
327076310 0.979353 -0.050139
330039640 0.974984 -0.051338
333002970 0.970143 -0.051405
335966300 0.964761 -0.049799
338929630 0.954455 -0.051872
341892960 0.961754 -0.05302
344856290 0.969631 -0.053324
347819620 0.97415 -0.053249
350782950 0.976172 -0.054996
353746280 0.976194 -0.053701
356709610 0.977057 -0.051474
359672940 0.974709 -0.05365
362636270 0.967799 -0.051371
365599600 0.960488 -0.053528
368562930 0.952379 -0.051402
371526260 0.958339 -0.053607
374489590 0.96551 -0.058242
377452920 0.971163 -0.056422
380416250 0.973878 -0.05651
383379580 0.976307 -0.056764
386342910 0.973529 -0.056112
389306240 0.971883 -0.056865
392269570 0.967336 -0.056525
395232900 0.959156 -0.054871
398196230 0.951285 -0.054605
401159560 0.95708 -0.055807
404122890 0.963047 -0.057771
407086220 0.968846 -0.059364
410049550 0.970499 -0.058607
413012880 0.973219 -0.058863
415976210 0.972404 -0.058175
418939540 0.970283 -0.055831
421902870 0.96611 -0.055691
424866200 0.960774 -0.054492
427829530 0.950897 -0.053773
430792860 0.955818 -0.05724
433756190 0.962271 -0.058019
436719520 0.966107 -0.057808
439682850 0.968289 -0.058498
442646180 0.970596 -0.057468
445609510 0.969616 -0.058546
448572840 0.965654 -0.054784
451536170 0.962488 -0.055119
454499500 0.954695 -0.054134
457462830 0.949388 -0.054359
460426160 0.950725 -0.056646
463389490 0.957408 -0.058613
466352820 0.959586 -0.058578
469316150 0.964665 -0.059208
472279480 0.964776 -0.059615
475242810 0.964632 -0.058338
478206140 0.962239 -0.059081
481169470 0.959064 -0.058276
484132800 0.952331 -0.05813
487096130 0.945452 -0.058275
490059460 0.945983 -0.059266
493022790 0.952115 -0.060621
495986120 0.959615 -0.059495
498949450 0.963352 -0.059349
501912780 0.965006 -0.056029
504876110 0.965222 -0.058737
507839440 0.963031 -0.061158
510802770 0.960553 -0.05654
513766100 0.954934 -0.055285
516729430 0.948818 -0.053795
519692760 0.948715 -0.056107
522656090 0.955474 -0.058078
525619420 0.962735 -0.056246
528582750 0.964566 -0.058575
531546080 0.966466 -0.05635
534509410 0.965236 -0.059431
537472740 0.964403 -0.057191
540436070 0.961054 -0.057677
543399400 0.954215 -0.058458
546362730 0.948034 -0.056584
549326060 0.948536 -0.057762
552289390 0.953098 -0.060004
555252720 0.959055 -0.05999
558216050 0.964942 -0.063054
561179380 0.966968 -0.061526
564142710 0.966883 -0.060257
567106040 0.965298 -0.059544
570069370 0.96086 -0.060699
573032700 0.958241 -0.0596
575996030 0.925047 -0.068394
578959360 0.945899 -0.058401
581922690 0.955436 -0.059558
584886020 0.959252 -0.060535
587849350 0.963668 -0.062642
590812680 0.968079 -0.059205
593776010 0.967823 -0.061566
596739340 0.966543 -0.062574
599702670 0.961648 -0.057159
602666000 0.956822 -0.057966
605629330 0.949084 -0.057309
608592660 0.945832 -0.058876
611555990 0.952205 -0.060882
614519320 0.958498 -0.063562
617482650 0.963902 -0.062914
620445980 0.968309 -0.06191
623409310 0.967872 -0.06357
626372640 0.96606 -0.06061
629335970 0.962685 -0.059648
632299300 0.956773 -0.059338
635262630 0.951189 -0.059003
638225960 0.944204 -0.060261
641189290 0.952827 -0.062973
644152620 0.958186 -0.063292
647115950 0.96317 -0.064181
650079280 0.966891 -0.065154
653042610 0.917266 -0.125025
656005940 0.965751 -0.063351
658969270 0.963955 -0.060235
661932600 0.957124 -0.062735
664895930 0.95087 -0.058739
667859260 0.942252 -0.06128
670822590 0.951233 -0.062675
673785920 0.956547 -0.062613
676749250 0.963193 -0.064687
679712580 0.964121 -0.064631
682675910 0.965355 -0.065342
685639240 0.964062 -0.065355
688602570 0.961786 -0.063053
691565900 0.957853 -0.063323
694529230 0.950684 -0.061616
697492560 0.942702 -0.056281
700455890 0.950665 -0.062224
703419220 0.954875 -0.065291
706382550 0.958988 -0.067074
709345880 0.963702 -0.064519
712309210 0.965132 -0.066891
715272540 0.966484 -0.067983
718235870 0.959941 -0.063194
721199200 0.956988 -0.065214
724162530 0.949658 -0.06372
727125860 0.940391 -0.063143
730089190 0.946769 -0.064694
733052520 0.950789 -0.068921
736015850 0.957033 -0.065792
738979180 0.960608 -0.068461
741942510 0.961277 -0.065319
744905840 0.960236 -0.067208
747869170 0.957842 -0.061745
750832500 0.954556 -0.064852
753795830 0.947395 -0.063317
756759160 0.940571 -0.064178
759722490 0.94471 -0.065762
762685820 0.950683 -0.0667
765649150 0.955465 -0.065928
768612480 0.958838 -0.064238
771575810 0.958676 -0.066067
774539140 0.958754 -0.068712
777502470 0.959616 -0.064907
780465800 0.954005 -0.063726
783429130 0.949355 -0.061889
786392460 0.941111 -0.06081
789355790 0.942612 -0.062083
792319120 0.950158 -0.067112
795282450 0.955446 -0.066659
798245780 0.958857 -0.065439
801209110 0.958086 -0.065601
804172440 0.9577 -0.065764
807135770 0.955033 -0.066676
810099100 0.95156 -0.067335
813062430 0.945461 -0.06879
816025760 0.940748 -0.065348
818989090 0.939071 -0.067472
821952420 0.947875 -0.069002
824915750 0.951617 -0.070637
827879080 0.955256 -0.07513
830842410 0.957551 -0.072053
833805740 0.955325 -0.074222
836769070 0.954923 -0.072395
839732400 0.950414 -0.072123
842695730 0.94521 -0.071144
845659060 0.937901 -0.07282
848622390 0.938458 -0.069996
851585720 0.943446 -0.076864
854549050 0.948479 -0.076358
857512380 0.952646 -0.080377
860475710 0.954473 -0.075618
863439040 0.954731 -0.076382
866402370 0.953318 -0.07773
869365700 0.950703 -0.07626
872329030 0.944587 -0.075844
875292360 0.937247 -0.075854
878255690 0.935437 -0.076749
881219020 0.943812 -0.077676
884182350 0.949402 -0.081647
887145680 0.953526 -0.085918
890109010 0.955418 -0.081812
893072340 0.958462 -0.081569
896035670 0.953821 -0.078157
898999000 0.951631 -0.08055
901962330 0.945689 -0.080932
904925660 0.939317 -0.078288
907888990 0.937034 -0.078884
910852320 0.945814 -0.080919
913815650 0.949854 -0.082746
916778980 0.955314 -0.07897
919742310 0.958148 -0.080878
922705640 0.958241 -0.078887
925668970 0.956328 -0.074559
928632300 0.950656 -0.079593
931595630 0.943675 -0.076211
934558960 0.938471 -0.07297
937522290 0.930363 -0.072688
940485620 0.939459 -0.075944
943448950 0.945415 -0.080003
946412280 0.949953 -0.079098
949375610 0.949157 -0.085442
952338940 0.954035 -0.079992
955302270 0.951335 -0.079953
958265600 0.950854 -0.079026
961228930 0.944831 -0.077112
964192260 0.938236 -0.075403
967155590 0.932305 -0.075203
970118920 0.940174 -0.07907
973082250 0.946335 -0.079856
976045580 0.946402 -0.080885
979008910 0.952641 -0.078536
981972240 0.951785 -0.080734
984935570 0.952228 -0.079773
987898900 0.951211 -0.082277
990862230 0.946525 -0.081891
993825560 0.939708 -0.078195
996788890 0.93327 -0.07612
999752220 0.941254 -0.076242
1002715550 0.945179 -0.082393
1005678880 0.937488 -0.111597
1008642210 0.95192 -0.085371
1011605540 0.953868 -0.082219
1014568870 0.951721 -0.079973
1017532200 0.947291 -0.076388
1020495530 0.944635 -0.080606
1023458860 0.93982 -0.075873
1026422190 0.930311 -0.075436
1029385520 0.936258 -0.079138
1032348850 0.942157 -0.077575
1035312180 0.946861 -0.075259
1038275510 0.950659 -0.07944
1041238840 0.952967 -0.079264
1044202170 0.951897 -0.077564
1047165500 0.950202 -0.076801
1050128830 0.945702 -0.078559
1053092160 0.940246 -0.074985
1056055490 0.934921 -0.076902
1059018820 0.939788 -0.078174
1061982150 0.945493 -0.078539
1064945480 0.947406 -0.077187
1067908810 0.951141 -0.078755
1070872140 0.9545 -0.077121
1073835470 0.952504 -0.078731
1076798800 0.948673 -0.077368
1079762130 0.946794 -0.078914
1082725460 0.943417 -0.077839
1085688790 0.936203 -0.0783
1088652120 0.93878 -0.077294
1091615450 0.945917 -0.078909
1094578780 0.949271 -0.075048
1097542110 0.953708 -0.076099
1100505440 0.952527 -0.078459
1103468770 0.953501 -0.07491
1106432100 0.951516 -0.073382
1109395430 0.949699 -0.07052
1112358760 0.941045 -0.074079
1115322090 0.936831 -0.073098
1118285420 0.939346 -0.075066
1121248750 0.941979 -0.076458
1124212080 0.947565 -0.078894
1127175410 0.950899 -0.076194
1130138740 0.954257 -0.081906
1133102070 0.951903 -0.077857
1136065400 0.951866 -0.081883
1139028730 0.943729 -0.082449
1141992060 0.941637 -0.081696
1144955390 0.930801 -0.085862
1147918720 0.933714 -0.085768
1150882050 0.941408 -0.091009
1153845380 0.950774 -0.088254
1156808710 0.953829 -0.089844
1159772040 0.953422 -0.086292
1162735370 0.954528 -0.089195
1165698700 0.952933 -0.08205
1168662030 0.948672 -0.0871
1171625360 0.942294 -0.088393
1174588690 0.934649 -0.085641
1177552020 0.935975 -0.088117
1180515350 0.940108 -0.086718
1183478680 0.952118 -0.075801
1186442010 0.952907 -0.086909
1189405340 0.954687 -0.086929
1192368670 0.954596 -0.092655
1195332000 0.952484 -0.090941
1198295330 0.947618 -0.086887
1201258660 0.940925 -0.088321
1204221990 0.933537 -0.086037
1207185320 0.930478 -0.090582
1210148650 0.938669 -0.09382
1213111980 0.946758 -0.100243
1216075310 0.948607 -0.101862
1219038640 0.951997 -0.099768
1222001970 0.95158 -0.098001
1224965300 0.949011 -0.097191
1227928630 0.948357 -0.09654
1230891960 0.938576 -0.101217
1233855290 0.931384 -0.096297
1236818620 0.93029 -0.10178
1239781950 0.937018 -0.10329
1242745280 0.943649 -0.100837
1245708610 0.947762 -0.105579
1248671940 0.950168 -0.103028
1251635270 0.950562 -0.102387
1254598600 0.946879 -0.103405
1257561930 0.944904 -0.100954
1260525260 0.93926 -0.098755
1263488590 0.931367 -0.092767
1266451920 0.925407 -0.097074
1269415250 0.934524 -0.099538
1272378580 0.938616 -0.100972
1275341910 0.943197 -0.104928
1278305240 0.94553 -0.104541
1281268570 0.944801 -0.104197
1284231900 0.943056 -0.104651
1287195230 0.939816 -0.102604
1290158560 0.934885 -0.102243
1293121890 0.929678 -0.09944
1296085220 0.921534 -0.101936
1299048550 0.927684 -0.109568
1302011880 0.935958 -0.099124
1304975210 0.939903 -0.103563
1307938540 0.940952 -0.10851
1310901870 0.940968 -0.108871
1313865200 0.939838 -0.103992
1316828530 0.940966 -0.111024
1319791860 0.935848 -0.100179
1322755190 0.927522 -0.099745
1325718520 0.920656 -0.098707
1328681850 0.925942 -0.106843
1331645180 0.932257 -0.100262
1334608510 0.936308 -0.107648
1337571840 0.939697 -0.104757
1340535170 0.938201 -0.10301
1343498500 0.936157 -0.108089
1346461830 0.93548 -0.104485
1349425160 0.929973 -0.103679
1352388490 0.925226 -0.101554
1355351820 0.926082 -0.086049
1358315150 0.92511 -0.101629
1361278480 0.931455 -0.102995
1364241810 0.934308 -0.104065
1367205140 0.939934 -0.107197
1370168470 0.939513 -0.102797
1373131800 0.939513 -0.104728
1376095130 0.940125 -0.098025
1379058460 0.937002 -0.102233
1382021790 0.9331 -0.106771
1384985120 0.927234 -0.102552
1387948450 0.926888 -0.09698
1390911780 0.931076 -0.102177
1393875110 0.939744 -0.096401
1396838440 0.940933 -0.103071
1399801770 0.941717 -0.108524
1402765100 0.941117 -0.104508
1405728430 0.93675 -0.097792
1408691760 0.935926 -0.104294
1411655090 0.932147 -0.102742
1414618420 0.924371 -0.102594
1417581750 0.928082 -0.108175
1420545080 0.930212 -0.103
1423508410 0.939055 -0.104009
1426471740 0.940145 -0.097717
1429435070 0.941529 -0.107755
1432398400 0.940758 -0.098325
1435361730 0.938684 -0.10252
1438325060 0.934791 -0.100079
1441288390 0.929961 -0.107397
1444251720 0.924558 -0.104436
1447215050 0.927985 -0.100649
1450178380 0.932493 -0.10683
1453141710 0.940269 -0.100504
1456105040 0.94467 -0.095943
1459068370 0.944838 -0.100041
1462031700 0.944713 -0.099792
1464995030 0.943496 -0.10005
1467958360 0.939743 -0.093632
1470921690 0.933839 -0.097323
1473885020 0.925987 -0.096821
1476848350 0.927167 -0.099304
1479811680 0.935763 -0.095866
1482775010 0.941284 -0.092347
1485738340 0.94475 -0.096721
1488701670 0.946421 -0.09605
1491665000 0.94612 -0.097932
1494628330 0.943434 -0.092777
1497591660 0.939492 -0.099022
1500554990 0.934255 -0.097172
1503518320 0.926673 -0.094989
1506481650 0.928218 -0.096686
1509444980 0.936058 -0.100991
1512408310 0.938636 -0.109005
1515371640 0.94416 -0.100572
1518334970 0.946817 -0.103392
1521298300 0.946532 -0.10213
1524261630 0.943953 -0.105771
1527224960 0.940161 -0.103838
1530188290 0.936482 -0.101395
1533151620 0.926997 -0.104548
1536114950 0.925204 -0.110069
1539078280 0.932274 -0.110776
1542041610 0.937492 -0.114468
1545004940 0.945716 -0.114494
1547968270 0.940892 -0.122207
1550931600 0.947327 -0.108946
1553894930 0.938287 -0.122987
1556858260 0.942176 -0.103978
1559821590 0.929594 -0.122685
1562784920 0.927978 -0.107019
1565748250 0.922378 -0.120397
1568711580 0.929747 -0.112641
1571674910 0.93417 -0.12963
1574638240 0.941283 -0.113538
1577601570 0.943131 -0.117836
1580564900 0.94373 -0.114486
1583528230 0.939146 -0.115164
1586491560 0.941376 -0.108892
1589454890 0.933405 -0.111283
1592418220 0.924355 -0.110065
1595381550 0.922982 -0.103403
1598344880 0.926274 -0.115038
1601308210 0.933041 -0.120157
1604271540 0.936504 -0.118229
1607234870 0.940882 -0.119486
1610198200 0.940522 -0.119718
1613161530 0.942013 -0.110787
1616124860 0.937346 -0.114257
1619088190 0.930909 -0.115914
1622051520 0.924877 -0.115933
1625014850 0.91604 -0.110284
1627978180 0.92232 -0.11779
1630941510 0.929744 -0.11726
1633904840 0.934841 -0.121353
1636868170 0.935579 -0.123612
1639831500 0.935232 -0.117702
1642794830 0.9377 -0.113855
1645758160 0.934175 -0.113059
1648721490 0.926386 -0.114993
1651684820 0.920569 -0.110293
1654648150 0.914564 -0.111258
1657611480 0.91936 -0.11262
1660574810 0.92456 -0.120139
1663538140 0.928362 -0.114482
1666501470 0.932288 -0.1105
1669464800 0.931108 -0.11525
1672428130 0.929386 -0.119818
1675391460 0.928149 -0.120221
1678354790 0.923164 -0.118216
1681318120 0.917012 -0.114543
1684281450 0.909228 -0.115692
1687244780 0.915917 -0.119153
1690208110 0.920461 -0.119614
1693171440 0.92558 -0.119232
1696134770 0.927529 -0.119476
1699098100 0.929781 -0.124096
1702061430 0.928285 -0.124143
1705024760 0.927138 -0.117115
1707988090 0.923638 -0.118098
1710951420 0.920002 -0.116199
1713914750 0.91009 -0.115452
1716878080 0.913054 -0.121887
1719841410 0.918949 -0.12303
1722804740 0.926753 -0.126145
1725768070 0.927247 -0.125296
1728731400 0.925114 -0.129525
1731694730 0.928635 -0.122981
1734658060 0.926902 -0.115182
1737621390 0.922193 -0.125282
1740584720 0.916276 -0.120995
1743548050 0.908498 -0.120093
1746511380 0.914326 -0.121445
1749474710 0.921578 -0.132301
1752438040 0.923983 -0.120943
1755401370 0.932993 -0.122552
1758364700 0.927995 -0.129063
1761328030 0.928434 -0.120377
1764291360 0.929569 -0.125961
1767254690 0.927954 -0.123932
1770218020 0.921586 -0.121842
1773181350 0.911395 -0.124495
1776144680 0.915339 -0.130899
1779108010 0.921867 -0.126232
1782071340 0.924023 -0.127244
1785034670 0.930307 -0.132946
1787998000 0.933327 -0.129139
1790961330 0.928888 -0.12352
1793924660 0.929436 -0.119194
1796887990 0.926976 -0.120136
1799851320 0.921427 -0.121132
1802814650 0.914259 -0.114923
1805777980 0.916063 -0.122587
1808741310 0.92107 -0.118435
1811704640 0.927427 -0.118491
1814667970 0.928416 -0.123352
1817631300 0.933164 -0.112061
1820594630 0.933205 -0.123991
1823557960 0.934138 -0.114524
1826521290 0.924004 -0.125117
1829484620 0.919428 -0.118638
1832447950 0.912795 -0.112533
1835411280 0.917549 -0.112557
1838374610 0.924158 -0.120514
1841337940 0.926589 -0.120032
1844301270 0.933146 -0.125038
1847264600 0.934077 -0.121275
1850227930 0.930971 -0.126012
1853191260 0.930473 -0.121958
1856154590 0.927812 -0.114069
1859117920 0.920476 -0.123492
1862081250 0.917629 -0.11111
1865044580 0.913652 -0.118046
1868007910 0.92031 -0.119266
1870971240 0.925094 -0.122327
1873934570 0.932722 -0.122385
1876897900 0.930912 -0.125764
1879861230 0.932821 -0.122589
1882824560 0.9353 -0.117383
1885787890 0.930621 -0.11739
1888751220 0.926654 -0.114244
1891714550 0.91467 -0.114949
1894677880 0.915854 -0.114952
1897641210 0.917247 -0.117067
1900604540 0.92592 -0.121376
1903567870 0.928646 -0.121798
1906531200 0.928777 -0.122363
1909494530 0.928284 -0.121715
1912457860 0.927994 -0.119606
1915421190 0.922482 -0.122716
1918384520 0.920562 -0.120453
1921347850 0.911533 -0.118029
1924311180 0.908155 -0.119198
1927274510 0.917212 -0.118725
1930237840 0.924223 -0.115109
1933201170 0.924493 -0.121211
1936164500 0.927116 -0.115822
1939127830 0.928236 -0.124261
1942091160 0.926638 -0.122685
1945054490 0.927053 -0.115208
1948017820 0.920963 -0.111728
1950981150 0.876468 -0.148575
1953944480 0.908463 -0.110276
1956907810 0.91486 -0.112567
1959871140 0.920472 -0.119114
1962834470 0.925407 -0.12301
1965797800 0.922159 -0.125904
1968761130 0.923976 -0.122751
1971724460 0.928466 -0.119296
1974687790 0.92601 -0.117402
1977651120 0.919694 -0.122585
1980614450 0.915326 -0.113585
1983577780 0.907848 -0.118774
1986541110 0.916255 -0.120648
1989504440 0.91676 -0.131989
1992467770 0.921921 -0.131852
1995431100 0.923588 -0.130374
1998394430 0.924774 -0.127805
2001357760 0.921863 -0.131378
2004321090 0.924278 -0.123785
2007284420 0.915964 -0.124423
2010247750 0.911722 -0.116511
2013211080 0.906184 -0.118851
2016174410 0.910925 -0.123162
2019137740 0.915379 -0.123134
2022101070 0.921452 -0.125255
2025064400 0.923644 -0.128052
2028027730 0.924036 -0.129339
2030991060 0.920377 -0.1276
2033954390 0.923433 -0.12321
2036917720 0.921101 -0.114423
2039881050 0.913508 -0.110457
2042844380 0.906816 -0.123366
2045807710 0.912928 -0.121655
2048771040 0.916201 -0.129754
2051734370 0.922163 -0.121203
2054697700 0.923046 -0.125777
2057661030 0.922001 -0.13193
2060624360 0.923308 -0.123593
2063587690 0.923038 -0.121888
2066551020 0.918818 -0.117745
2069514350 0.909865 -0.126941
2072477680 0.904519 -0.125042
2075441010 0.909339 -0.123895
2078404340 0.902913 -0.141085
2081367670 0.922302 -0.133617
2084331000 0.92259 -0.129176
2087294330 0.924778 -0.13048
2090257660 0.921945 -0.126556
2093220990 0.919016 -0.12946
2096184320 0.915773 -0.131758
2099147650 0.909423 -0.131112
2102110980 0.902999 -0.12397
2105074310 0.906152 -0.124228
2108037640 0.912071 -0.129489
2111000970 0.917859 -0.129284
2113964300 0.92181 -0.134752
2116927630 0.920764 -0.132784
2119890960 0.922639 -0.140261
2122854290 0.920049 -0.129031
2125817620 0.918213 -0.128912
2128780950 0.911545 -0.13186
2131744280 0.905821 -0.125986
2134707610 0.908503 -0.129491
2137670940 0.911953 -0.13281
2140634270 0.918602 -0.130862
2143597600 0.919717 -0.133154
2146560930 0.920611 -0.131782
2149524260 0.921189 -0.143355
2152487590 0.920956 -0.133117
2155450920 0.914478 -0.133484
2158414250 0.910629 -0.132675
2161377580 0.906879 -0.132444
2164340910 0.901513 -0.132224
2167304240 0.911039 -0.131816
2170267570 0.91586 -0.139227
2173230900 0.917388 -0.135968
2176194230 0.922344 -0.137216
2179157560 0.921543 -0.137981
2182120890 0.921267 -0.130215
2185084220 0.917448 -0.128372
2188047550 0.911097 -0.132154
2191010880 0.903726 -0.132442
2193974210 0.902603 -0.1333
2196937540 0.907185 -0.13579
2199900870 0.914379 -0.129269
2202864200 0.918133 -0.138575
2205827530 0.919727 -0.139837
2208790860 0.925087 -0.133312
2211754190 0.920473 -0.140766
2214717520 0.911241 -0.143901
2217680850 0.91398 -0.123481
2220644180 0.906003 -0.139314
2223607510 0.898211 -0.136582
2226570840 0.904347 -0.137233
2229534170 0.905885 -0.144217
2232497500 0.919312 -0.140388
2235460830 0.918259 -0.1456
2238424160 0.916772 -0.143985
2241387490 0.916686 -0.14474
2244350820 0.917208 -0.133729
2247314150 0.910855 -0.135795
2250277480 0.902112 -0.135911
2253240810 0.897436 -0.136602
2256204140 0.902777 -0.135619
2259167470 0.909947 -0.150117
2262130800 0.913916 -0.14193
2265094130 0.914697 -0.145942
2268057460 0.915597 -0.147251
2271020790 0.915108 -0.143774
2273984120 0.909408 -0.139707
2276947450 0.912215 -0.134452
2279910780 0.909959 -0.139791
2282874110 0.900044 -0.126875
2285837440 0.906148 -0.140687
2288800770 0.90831 -0.141973
2291764100 0.912405 -0.135065
2294727430 0.91535 -0.136623
2297690760 0.914588 -0.138486
2300654090 0.91741 -0.140285
2303617420 0.91553 -0.136233
2306580750 0.911072 -0.137947
2309544080 0.906128 -0.132368
2312507410 0.901606 -0.129482
2315470740 0.90606 -0.127529
2318434070 0.909835 -0.138813
2321397400 0.906907 -0.139525
2324360730 0.912691 -0.137205
2327324060 0.913691 -0.132765
2330287390 0.912246 -0.140867
2333250720 0.906733 -0.143944
2336214050 0.914148 -0.137698
2339177380 0.904187 -0.14232
2342140710 0.901393 -0.137378
2345104040 0.90239 -0.140405
2348067370 0.906975 -0.142296
2351030700 0.904897 -0.146827
2353994030 0.913104 -0.142618
2356957360 0.913084 -0.144247
2359920690 0.917392 -0.136181
2362884020 0.908398 -0.139124
2365847350 0.905731 -0.135806
2368810680 0.900724 -0.133374
2371774010 0.897 -0.13943
2374737340 0.897059 -0.145356
2377700670 0.907896 -0.13485
2380664000 0.909782 -0.143442
2383627330 0.911419 -0.140753
2386590660 0.910129 -0.146091
2389553990 0.915113 -0.14165
2392517320 0.912939 -0.136799
2395480650 0.904164 -0.153065
2398443980 0.903223 -0.147132
2401407310 0.889757 -0.152359
2404370640 0.901286 -0.149608
2407333970 0.904486 -0.137221
2410297300 0.906904 -0.142755
2413260630 0.912298 -0.141491
2416223960 0.911419 -0.142511
2419187290 0.904842 -0.138384
2422150620 0.908031 -0.142987
2425113950 0.901993 -0.147503
2428077280 0.8965 -0.15122
2431040610 0.890561 -0.142932
2434003940 0.894442 -0.155962
2436967270 0.904138 -0.15219
2439930600 0.902864 -0.150837
2442893930 0.904064 -0.154981
2445857260 0.911324 -0.15664
2448820590 0.910549 -0.149653
2451783920 1.057234 -0.144086
2454747250 0.90403 -0.15329
2457710580 0.906236 -0.137674
2460673910 0.899413 -0.138209
2463637240 0.897719 -0.157822
2466600570 0.9049 -0.154353
2469563900 0.911375 -0.159763
2472527230 0.909217 -0.152123
2475490560 0.914194 -0.14812
2478453890 0.91311 -0.142363
2481417220 0.91196 -0.15724
2484380550 0.912659 -0.154842
2487343880 0.900748 -0.153621
2490307210 0.894684 -0.138355
2493270540 0.896823 -0.140147
2496233870 0.90305 -0.14789
2499197200 0.90888 -0.153753
2502160530 0.90805 -0.137618
2505123860 0.913498 -0.136932
2508087190 0.911308 -0.147224
2511050520 0.907364 -0.141305
2514013850 0.903295 -0.135809
2516977180 0.905905 -0.13577
2519940510 0.892559 -0.14045
2522903840 0.893602 -0.133147
2525867170 0.892833 -0.1421
2528830500 0.900745 -0.13461
2531793830 0.902196 -0.144601
2534757160 0.910111 -0.139253
2537720490 0.908043 -0.147025
2540683820 0.908471 -0.149133
2543647150 0.907956 -0.140822
2546610480 0.901142 -0.146313
2549573810 0.891742 -0.147942
2552537140 0.894914 -0.149728
2555500470 0.900338 -0.151426
2558463800 0.90002 -0.152855
2561427130 0.907319 -0.150953
2564390460 0.91298 -0.148939
2567353790 0.904742 -0.153524
2570317120 0.908945 -0.150699
2573280450 0.903515 -0.150105
2576243780 0.904256 -0.145973
2579207110 0.894979 -0.155439
2582170440 0.890416 -0.145688
2585133770 0.899427 -0.153614
2588097100 0.903043 -0.151697
2591060430 0.90492 -0.151981
2594023760 0.909284 -0.143775
2596987090 0.909572 -0.150949
2599950420 0.901209 -0.157825
2602913750 0.899388 -0.155557
2605877080 0.899492 -0.148155
2608840410 0.889823 -0.151563
2611803740 0.884912 -0.151036
2614767070 0.895111 -0.150299
2617730400 0.895199 -0.153924
2620693730 0.896987 -0.150238
2623657060 0.898166 -0.156951
2626620390 0.898454 -0.158907
2629583720 0.893559 -0.162144
2632547050 0.895596 -0.157555
2635510380 0.890196 -0.165588
2638473710 0.880857 -0.15389
2641437040 0.876785 -0.16525
2644400370 0.889669 -0.15546
2647363700 0.888567 -0.163449
2650327030 0.888522 -0.158038
2653290360 0.887088 -0.15848
2656253690 0.894827 -0.158174
2659217020 0.888413 -0.159144
2662180350 0.888304 -0.158336
2665143680 0.883332 -0.161057
2668107010 0.880315 -0.156059
2671070340 0.866953 -0.156854
2674033670 0.881372 -0.165468
2676997000 0.885573 -0.159941
2679960330 0.896043 -0.158911
2682923660 0.891737 -0.164586
2685886990 0.901064 -0.162466
2688850320 0.899839 -0.167322
2691813650 0.893628 -0.167687
2694776980 0.899703 -0.161819
2697740310 0.901297 -0.160022
2700703640 0.893142 -0.160446
2703666970 0.898281 -0.155489
2706630300 0.904174 -0.15597
2709593630 0.905951 -0.159781
2712556960 0.910557 -0.157144
2715520290 0.904149 -0.159727
2718483620 0.901136 -0.163562
2721446950 0.907515 -0.156448
2724410280 0.897 -0.164775
2727373610 0.892912 -0.155811
2730336940 0.892188 -0.14895
2733300270 0.894835 -0.142254
2736263600 0.906946 -0.147049
2739226930 0.902897 -0.158759
2742190260 0.904522 -0.160129
2745153590 0.903639 -0.151595
2748116920 0.900756 -0.157916
2751080250 0.894188 -0.155235
2754043580 0.888221 -0.163613
2757006910 0.884774 -0.153096
2759970240 0.893992 -0.145594
2762933570 0.883784 -0.160413
2765896900 0.874236 -0.166922
2768860230 0.892115 -0.158278
2771823560 0.887679 -0.174727
2774786890 0.89629 -0.173563
2777750220 0.898132 -0.164962
2780713550 0.890084 -0.172101
2783676880 0.887584 -0.17404
2786640210 0.889263 -0.16078
2789603540 0.885198 -0.160889
2792566870 0.874545 -0.176902
2795530200 0.882517 -0.177594
2798493530 0.895026 -0.162542
2801456860 0.897678 -0.185505
2804420190 0.89601 -0.179028
2807383520 0.899014 -0.169561
2810346850 0.900333 -0.174004
2813310180 0.892711 -0.179316
2816273510 0.882009 -0.176348
2819236840 0.891089 -0.168901
2822200170 0.886612 -0.174385
2825163500 0.905376 -0.17899
2828126830 0.907142 -0.183545
2831090160 0.898768 -0.181985
2834053490 0.904763 -0.172385
2837016820 0.910156 -0.179506
2839980150 0.897246 -0.167985
2842943480 0.9076 -0.187432
2845906810 0.895 -0.145276
2848870140 0.898389 -0.159959
2851833470 0.89067 -0.160576
2854796800 0.913331 -0.171979
2857760130 0.905791 -0.171417
2860723460 0.909695 -0.174714
2863686790 0.911101 -0.181065
2866650120 0.896164 -0.163544
2869613450 0.911599 -0.172316
2872576780 0.891216 -0.158329
2875540110 0.89373 -0.177278
2878503440 0.89503 -0.174622
2881466770 0.879077 -0.158856
2884430100 0.892114 -0.165321
2887393430 0.895721 -0.165456
2890356760 0.902297 -0.184051
2893320090 0.89429 -0.183475
2896283420 0.894075 -0.16315
2899246750 0.893198 -0.175283
2902210080 0.897861 -0.180533
2905173410 0.883965 -0.173511
2908136740 0.8786 -0.175205
2911100070 0.873525 -0.187491
2914063400 0.875856 -0.174642
2917026730 0.884274 -0.178082
2919990060 0.890647 -0.177335
2922953390 0.894089 -0.173075
2925916720 0.891544 -0.179656
2928880050 0.891576 -0.179396
2931843380 0.880608 -0.168786
2934806710 0.885067 -0.165794
2937770040 0.87671 -0.166313
2940733370 0.875502 -0.165309
2943696700 0.881293 -0.15269
2946660030 0.885431 -0.170337
2949623360 0.886079 -0.161136
2952586690 0.884425 -0.168563
2955550020 0.887442 -0.167109
2958513350 0.892577 -0.17272
2961476680 0.882764 -0.157656
2964440010 0.876576 -0.16522
2967403340 0.871262 -0.170875
2970366670 0.868154 -0.157754
2973330000 0.872477 -0.163725
2976293330 0.876176 -0.16492
2979256660 0.880881 -0.170688
2982219990 0.885095 -0.16015
2985183320 0.883941 -0.165593
2988146650 0.884431 -0.162346
2991109980 0.881513 -0.160609
2994073310 0.881355 -0.161394
2997036640 0.869024 -0.160792
2999999970 0.869915 -0.148291
