# HZ S RI R 50
10000000 0.9977 -0.003081
12963330 1.000854 -0.006494
15926660 1.006513 -0.011357
18889990 1.009796 -0.013908
21853320 1.013608 -0.017003
24816650 1.015792 -0.017972
27779980 1.014853 -0.019747
30743310 1.011792 -0.034473
33706640 1.008714 -0.01813
36669970 1.003062 -0.017684
39633300 0.996076 -0.017289
42596630 1.000727 -0.022557
45559960 1.006644 -0.024459
48523290 1.011441 -0.027354
51486620 1.014218 -0.027705
54449950 1.014161 -0.027618
57413280 1.013816 -0.028024
60376610 1.011159 -0.027974
63339940 1.005877 -0.027886
66303270 0.998826 -0.026656
69266600 0.990995 -0.026011
72229930 0.995032 -0.030301
75193260 0.998978 -0.030525
78156590 1.003622 -0.033042
81119920 1.006368 -0.034476
84083250 1.006261 -0.035109
87046580 1.004559 -0.035614
90009910 1.002781 -0.035159
92973240 0.998289 -0.034866
95936570 0.99212 -0.034686
98899900 0.984778 -0.031983
101863230 0.988508 -0.034821
104826560 0.991931 -0.037701
107789890 0.994942 -0.038197
110753220 0.997561 -0.03903
113716550 0.999131 -0.039288
116679880 0.997238 -0.037909
119643210 0.994761 -0.037127
122606540 0.990763 -0.035748
125569870 0.986185 -0.035537
128533200 0.979338 -0.036198
131496530 0.980707 -0.037774
134459860 0.988304 -0.03815
137423190 0.981067 -0.049335
140386520 0.984274 -0.048219
143349850 0.987357 -0.046834
146313180 0.988408 -0.046375
149276510 0.987291 -0.043536
152239840 0.98372 -0.041808
155203170 0.980619 -0.041421
158166500 0.976135 -0.040076
161129830 0.974515 -0.040319
164093160 0.98165 -0.039537
167056490 0.98502 -0.039075
170019820 0.987276 -0.040822
172983150 0.98828 -0.039016
175946480 0.988711 -0.038371
178909810 0.987283 -0.037475
181873140 0.982562 -0.038451
184836470 0.978061 -0.038292
187799800 0.971407 -0.039635
190763130 0.970838 -0.040977
193726460 0.976914 -0.040653
196689790 0.982743 -0.040663
199653120 0.984778 -0.041055
202616450 0.986747 -0.039796
205579780 0.986661 -0.039519
208543110 0.984476 -0.038386
211506440 0.980865 -0.038795
214469770 0.977296 -0.040991
217433100 0.970232 -0.039856
220396430 0.967055 -0.043204
223359760 0.975641 -0.042163
226323090 0.97986 -0.042372
229286420 0.982704 -0.040781
232249750 0.985518 -0.040906
235213080 0.985274 -0.040515
238176410 0.982776 -0.041292
241139740 0.979248 -0.041727
244103070 0.974525 -0.040338
247066400 0.966307 -0.044344
250029730 0.963568 -0.045287
252993060 0.971811 -0.045388
255956390 0.977356 -0.043993
258919720 0.982035 -0.043604
261883050 0.985098 -0.044114
264846380 0.985639 -0.043491
267809710 0.983394 -0.04384
270773040 0.979876 -0.042687
273736370 0.974479 -0.043019
276699700 0.966594 -0.044238
279663030 0.962093 -0.045062
282626360 0.97055 -0.045975
285589690 0.97394 -0.049976
288553020 0.981106 -0.046098
291516350 0.983578 -0.045603
294479680 0.982141 -0.045517
297443010 0.983272 -0.043514
300406340 0.976623 -0.042287
303369670 0.972911 -0.044685
306333000 0.963212 -0.043855
309296330 0.956962 -0.04601
312259660 0.964914 -0.047066
315222990 0.972123 -0.048037
318186320 0.977537 -0.049291
321149650 0.98108 -0.050237
324112980 0.980379 -0.051491
327076310 0.981131 -0.048695
330039640 0.977665 -0.046135
333002970 0.971968 -0.048754
335966300 0.963725 -0.047863
338929630 0.955461 -0.049109
341892960 0.964157 -0.049802
344856290 0.969927 -0.054524
347819620 0.976105 -0.053029
350782950 0.979938 -0.052545
353746280 0.981142 -0.050494
356709610 0.979103 -0.052328
359672940 0.976431 -0.050461
362636270 0.970318 -0.050745
365599600 0.963357 -0.049221
368562930 1.108424 -0.052415
371526260 0.96076 -0.052412
374489590 0.968001 -0.054162
377452920 0.973576 -0.054527
380416250 0.975433 -0.056008
383379580 0.978968 -0.057354
386342910 0.977075 -0.056125
389306240 0.974092 -0.054861
392269570 0.96759 -0.05341
395232900 0.96272 -0.053431
398196230 0.954834 -0.052139
401159560 0.958007 -0.054598
404122890 0.964789 -0.056129
407086220 0.971238 -0.057211
410049550 0.975068 -0.058192
413012880 0.974946 -0.057893
415976210 0.975141 -0.05446
418939540 0.9728 -0.056302
421902870 0.968431 -0.053566
424866200 0.96181 -0.053774
427829530 0.95354 -0.051802
430792860 0.957318 -0.053794
433756190 0.96556 -0.056135
436719520 0.968477 -0.058338
439682850 0.970694 -0.05691
442646180 0.971407 -0.056715
445609510 0.971205 -0.057766
448572840 0.967831 -0.054438
451536170 0.964779 -0.053039
454499500 0.957721 -0.053641
457462830 0.951638 -0.052714
460426160 0.951452 -0.053971
463389490 0.958935 -0.05701
466352820 0.963205 -0.057334
469316150 0.967543 -0.059118
472279480 0.966622 -0.057702
475242810 0.966562 -0.061614
478206140 0.965317 -0.056672
481169470 0.96096 -0.055417
484132800 0.955148 -0.055258
487096130 0.948811 -0.055062
490059460 0.948603 -0.06063
493022790 0.955192 -0.059235
495986120 0.962274 -0.060236
498949450 0.964444 -0.059758
501912780 0.967148 -0.057573
504876110 0.967191 -0.056961
507839440 0.968674 -0.05607
510802770 0.962617 -0.055308
513766100 0.957931 -0.054145
516729430 0.952995 -0.053388
519692760 0.951395 -0.05499
522656090 0.958733 -0.055436
525619420 0.962829 -0.058272
528582750 0.965992 -0.057709
531546080 0.968145 -0.055086
534509410 0.968843 -0.057401
537472740 0.967519 -0.058181
540436070 0.963059 -0.055384
543399400 0.958064 -0.056483
546362730 0.95222 -0.058925
549326060 0.951665 -0.056851
552289390 0.957107 -0.059432
555252720 0.960198 -0.061062
558216050 0.968439 -0.058067
561179380 0.970259 -0.058846
564142710 0.969006 -0.05662
567106040 0.968699 -0.057498
570069370 0.966767 -0.057325
573032700 0.958521 -0.056405
575996030 0.966316 -0.04931
578959360 0.948468 -0.055856
581922690 0.95686 -0.059043
584886020 0.962806 -0.061143
587849350 0.967631 -0.059608
590812680 0.969082 -0.059481
593776010 0.970719 -0.061475
596739340 0.968096 -0.058518
599702670 0.963922 -0.058428
602666000 0.959977 -0.058202
605629330 0.949748 -0.056123
608592660 0.946407 -0.057712
611555990 0.954505 -0.059706
614519320 0.961604 -0.06228
617482650 0.965201 -0.063608
620445980 0.968815 -0.061313
623409310 0.96971 -0.062418
626372640 0.968067 -0.059712
629335970 0.965574 -0.056836
632299300 0.962055 -0.059265
635262630 0.954659 -0.058481
638225960 0.945489 -0.058762
641189290 0.95489 -0.061627
644152620 0.961994 -0.062439
647115950 0.966049 -0.06236
650079280 0.971643 -0.044003
653042610 0.971392 -0.06296
656005940 0.967266 -0.061611
658969270 0.967387 -0.058885
661932600 0.962459 -0.057422
664895930 0.952615 -0.059421
667859260 0.946089 -0.058317
670822590 0.953061 -0.060969
673785920 0.958869 -0.062652
676749250 0.965461 -0.064598
679712580 0.967514 -0.064452
682675910 0.967538 -0.063406
685639240 0.966549 -0.06429
688602570 0.965848 -0.063726
691565900 0.960452 -0.061836
694529230 0.955814 -0.059321
697492560 0.946148 -0.059853
700455890 0.951817 -0.062407
703419220 0.956643 -0.065118
706382550 0.964529 -0.062814
709345880 0.963988 -0.065725
712309210 0.965247 -0.067157
715272540 0.965899 -0.063113
718235870 0.964686 -0.065589
721199200 0.95776 -0.064006
724162530 0.953608 -0.061808
727125860 0.944639 -0.061067
730089190 0.949451 -0.063732
733052520 0.95512 -0.067191
736015850 0.960475 -0.066254
738979180 0.962331 -0.068454
741942510 0.963525 -0.068939
744905840 0.961795 -0.0673
747869170 0.961433 -0.063559
750832500 0.956675 -0.060504
753795830 0.952148 -0.062001
756759160 0.94554 -0.064391
759722490 0.947941 -0.063392
762685820 0.953003 -0.064421
765649150 0.958685 -0.063765
768612480 0.961383 -0.068156
771575810 0.964635 -0.064716
774539140 0.962269 -0.066777
777502470 0.961892 -0.062099
780465800 0.95498 -0.063834
783429130 0.951833 -0.063079
786392460 0.945276 -0.062374
789355790 0.945949 -0.065192
792319120 0.951771 -0.062315
795282450 0.95853 -0.065103
798245780 0.960198 -0.06858
801209110 0.96181 -0.066186
804172440 0.960943 -0.065263
807135770 0.959782 -0.064804
810099100 0.956321 -0.065384
813062430 0.94722 -0.067279
816025760 0.939892 -0.06974
818989090 0.942428 -0.067648
821952420 0.949979 -0.070892
824915750 0.953681 -0.077091
827879080 0.957542 -0.073079
830842410 0.95993 -0.071443
833805740 0.959595 -0.069665
836769070 0.957555 -0.071974
839732400 0.953612 -0.068266
842695730 0.948559 -0.07065
845659060 0.940655 -0.069894
848622390 0.941796 -0.070501
851585720 0.945773 -0.074677
854549050 0.953169 -0.075442
857512380 0.956919 -0.077065
860475710 0.959678 -0.074951
863439040 0.958877 -0.076314
866402370 0.956491 -0.074495
869365700 0.954153 -0.075018
872329030 0.94778 -0.073215
875292360 0.939475 -0.075659
878255690 0.938228 -0.079163
881219020 0.947661 -0.079888
884182350 0.953455 -0.078869
887145680 0.957157 -0.081041
890109010 0.960281 -0.0796
893072340 0.959926 -0.081164
896035670 0.960976 -0.080999
898999000 0.954472 -0.078971
901962330 0.949354 -0.077024
904925660 0.942587 -0.075159
907888990 0.940611 -0.074545
910852320 0.947004 -0.078664
913815650 0.953423 -0.080681
916778980 0.957582 -0.082404
919742310 0.960832 -0.083909
922705640 0.959276 -0.078969
925668970 0.957044 -0.076436
928632300 0.953481 -0.081451
931595630 0.947411 -0.077219
934558960 0.940799 -0.073036
937522290 0.936934 -0.067674
940485620 0.942405 -0.077546
943448950 0.948429 -0.075654
946412280 0.952301 -0.079211
949375610 0.955819 -0.082371
952338940 0.956417 -0.076825
955302270 0.956501 -0.080722
958265600 0.951865 -0.079314
961228930 0.947927 -0.076621
964192260 1.098866 -0.109558
967155590 0.936623 -0.071902
970118920 0.941399 -0.080537
973082250 0.949472 -0.08114
976045580 0.952739 -0.080681
979008910 0.953929 -0.0843
981972240 0.955509 -0.082583
984935570 0.955472 -0.083075
987898900 0.952406 -0.075776
990862230 0.950475 -0.078881
993825560 0.941356 -0.082092
996788890 0.936868 -0.080207
999752220 0.941722 -0.079232
1002715550 0.947389 -0.078684
1005678880 0.952426 -0.080003
1008642210 0.953405 -0.081709
1011605540 0.953629 -0.080021
1014568870 0.954186 -0.079231
1017532200 0.952287 -0.076338
1020495530 0.948522 -0.076278
1023458860 0.942366 -0.081063
1026422190 0.935831 -0.075844
1029385520 0.940946 -0.077227
1032348850 0.947164 -0.075547
1035312180 0.950202 -0.079462
1038275510 0.952659 -0.078501
1041238840 0.953136 -0.080513
1044202170 0.953167 -0.08148
1047165500 0.952771 -0.078397
1050128830 0.947947 -0.076495
1053092160 0.943683 -0.074329
1056055490 0.937649 -0.077136
1059018820 0.943567 -0.075881
1061982150 0.945166 -0.078689
1064945480 0.95259 -0.079455
1067908810 1.092221 -0.027483
1070872140 0.957197 -0.078379
1073835470 0.955425 -0.076898
1076798800 0.955674 -0.073287
1079762130 0.950267 -0.078279
1082725460 0.945645 -0.077639
1085688790 0.937913 -0.077657
1088652120 0.940924 -0.080191
1091615450 0.948915 -0.075444
1094578780 0.953314 -0.07721
1097542110 0.957669 -0.073015
1100505440 0.959606 -0.073999
1103468770 0.955538 -0.076768
1106432100 0.955655 -0.070188
1109395430 0.950136 -0.071239
1112358760 0.946031 -0.074021
1115322090 0.937957 -0.074997
1118285420 0.940798 -0.073613
1121248750 0.947114 -0.076452
1124212080 0.950291 -0.074425
1127175410 0.955276 -0.081579
1130138740 0.954957 -0.078103
1133102070 0.953317 -0.077331
1136065400 0.952919 -0.084147
1139028730 0.947659 -0.088117
1141992060 0.940737 -0.08067
1144955390 0.93753 -0.081696
1147918720 0.937035 -0.083743
1150882050 0.943948 -0.088311
1153845380 0.948351 -0.089301
1156808710 0.952242 -0.090389
1159772040 0.955889 -0.089447
1162735370 0.955817 -0.08798
1165698700 0.955947 -0.088345
1168662030 0.951323 -0.086742
1171625360 0.947475 -0.080831
1174588690 0.938234 -0.084801
1177552020 0.938928 -0.088093
1180515350 0.946905 -0.089704
1183478680 0.950992 -0.088672
1186442010 0.954461 -0.087236
1189405340 0.955159 -0.091211
1192368670 0.956247 -0.093724
1195332000 0.953928 -0.088921
1198295330 0.949029 -0.090039
1201258660 0.944161 -0.089915
1204221990 0.936936 -0.093346
1207185320 0.935879 -0.085481
1210148650 0.942589 -0.093454
1213111980 0.947929 -0.096391
1216075310 0.952049 -0.096702
1219038640 0.954564 -0.097833
1222001970 0.95496 -0.096452
1224965300 0.951575 -0.094323
1227928630 0.948516 -0.095264
1230891960 0.943113 -0.098491
1233855290 0.932203 -0.095461
1236818620 0.933632 -0.098124
1239781950 0.937545 -0.103343
1242745280 0.946793 -0.102186
1245708610 0.948843 -0.105067
1248671940 0.952411 -0.105508
1251635270 0.952456 -0.100564
1254598600 0.950264 -0.101657
1257561930 0.947586 -0.099576
1260525260 0.945165 -0.100235
1263488590 0.935642 -0.094429
1266451920 0.930038 -0.098385
1269415250 0.93614 -0.100189
1272378580 0.943856 -0.100211
1275341910 0.946012 -0.098377
1278305240 0.945019 -0.104919
1281268570 0.949363 -0.105437
1284231900 0.944609 -0.104445
1287195230 0.944625 -0.103522
1290158560 0.938062 -0.101077
1293121890 0.933068 -0.103183
1296085220 0.923676 -0.100461
1299048550 0.932979 -0.106211
1302011880 0.935744 -0.109662
1304975210 0.942086 -0.106646
1307938540 0.944668 -0.107411
1310901870 0.942974 -0.108191
1313865200 0.947057 -0.107724
1316828530 0.941247 -0.105103
1319791860 0.935667 -0.100209
1322755190 0.931245 -0.099907
1325718520 0.92323 -0.101062
1328681850 0.931378 -0.102951
1331645180 0.932561 -0.109067
1334608510 0.939039 -0.108421
1337571840 0.93987 -0.107095
1340535170 0.941131 -0.10841
1343498500 0.943017 -0.10668
1346461830 0.936499 -0.105503
1349425160 0.936453 -0.104577
1352388490 0.931525 -0.100669
1355351820 0.92265 -0.100416
1358315150 0.92627 -0.103384
1361278480 0.935892 -0.109089
1364241810 0.938889 -0.106025
1367205140 0.94119 -0.108715
1370168470 0.942814 -0.109571
1373131800 0.941 -0.102854
1376095130 0.94333 -0.100106
1379058460 0.937472 -0.09918
1382021790 0.932798 -0.104541
1384985120 0.93036 -0.099835
1387948450 0.932785 -0.098903
1390911780 0.938037 -0.096122
1393875110 0.943055 -0.101573
1396838440 0.943846 -0.100795
1399801770 0.944338 -0.102454
1402765100 0.944717 -0.100174
1405728430 0.942053 -0.108565
1408691760 0.9396 -0.10179
1411655090 0.933208 -0.102137
1414618420 0.928392 -0.09932
1417581750 0.931618 -0.105198
1420545080 0.937426 -0.102989
1423508410 0.943455 -0.106859
1426471740 0.946733 -0.110768
1429435070 0.944907 -0.100051
1432398400 0.94253 -0.106431
1435361730 0.944359 -0.106656
1438325060 0.939108 -0.101819
1441288390 0.933112 -0.106229
1444251720 0.929752 -0.099709
1447215050 0.929268 -0.105509
1450178380 0.937664 -0.104088
1453141710 0.941627 -0.105351
1456105040 0.947202 -0.100399
1459068370 0.948979 -0.10032
1462031700 0.948449 -0.09924
1464995030 0.946101 -0.096589
1467958360 0.939508 -0.103119
1470921690 0.935302 -0.098704
1473885020 0.928843 -0.10104
1476848350 0.932133 -0.094756
1479811680 0.937821 -0.096915
1482775010 0.942598 -0.099731
1485738340 0.947411 -0.096965
1488701670 0.948791 -0.096841
1491665000 0.949593 -0.095041
1494628330 0.946141 -0.096308
1497591660 0.942377 -0.096543
1500554990 0.937671 -0.098269
1503518320 0.930688 -0.097972
1506481650 0.930622 -0.101257
1509444980 0.937331 -0.103444
1512408310 0.942686 -0.105582
1515371640 0.948068 -0.101466
1518334970 0.948129 -0.106403
1521298300 0.948698 -0.100242
1524261630 0.945626 -0.105448
1527224960 0.945475 -0.098296
1530188290 0.937639 -0.106422
1533151620 0.929337 -0.106567
1536114950 0.92879 -0.107306
1539078280 0.936359 -0.11216
1542041610 0.946401 -0.114041
1545004940 0.947309 -0.112603
1547968270 0.949581 -0.114163
1550931600 0.949836 -0.110309
1553894930 0.94758 -0.112971
1556858260 0.945098 -0.108049
1559821590 0.936767 -0.109328
1562784920 0.932919 -0.105817
1565748250 0.928312 -0.112291
1568711580 0.934518 -0.11294
1571674910 0.940605 -0.114255
1574638240 0.942876 -0.117685
1577601570 0.948245 -0.113757
1580564900 0.946836 -0.111623
1583528230 0.944412 -0.111159
1586491560 0.942575 -0.113557
1589454890 0.936741 -0.107861
1592418220 0.927354 -0.10634
1595381550 0.919617 -0.1076
1598344880 0.930472 -0.110744
1601308210 0.934666 -0.114227
1604271540 0.941102 -0.11445
1607234870 0.942833 -0.120613
1610198200 0.943102 -0.124
1613161530 0.943338 -0.112644
1616124860 0.936822 -0.126513
1619088190 0.934451 -0.116222
1622051520 0.92602 -0.108265
1625014850 0.917412 -0.116431
1627978180 0.925725 -0.123368
1630941510 0.931865 -0.122006
1633904840 0.935735 -0.127692
1636868170 0.939517 -0.12149
1639831500 0.943205 -0.116628
1642794830 0.938944 -0.114439
1645758160 0.937318 -0.117593
1648721490 0.931455 -0.109468
1651684820 0.923634 -0.107521
1654648150 0.916742 -0.110166
1657611480 0.938198 -0.06169
1660574810 0.926879 -0.118508
1663538140 0.931637 -0.11404
1666501470 0.935185 -0.116414
1669464800 0.934508 -0.120683
1672428130 0.934019 -0.120767
1675391460 0.929734 -0.116571
1678354790 0.923697 -0.117579
1681318120 0.920894 -0.119312
1684281450 0.913755 -0.119778
1687244780 0.918905 -0.119977
1690208110 0.925363 -0.119063
1693171440 0.927223 -0.128566
1696134770 0.932132 -0.124843
1699098100 0.932118 -0.12443
1702061430 0.932077 -0.127279
1705024760 0.93037 -0.125009
1707988090 0.927815 -0.118044
1710951420 0.917973 -0.119816
1713914750 0.911676 -0.120263
1716878080 0.919152 -0.124272
1719841410 0.923685 -0.123227
1722804740 0.928888 -0.129145
1725768070 0.93454 -0.122368
1728731400 0.932261 -0.129019
1731694730 0.931632 -0.121964
1734658060 0.927144 -0.121636
1737621390 0.928138 -0.118093
1740584720 0.920897 -0.124997
1743548050 0.913106 -0.122797
1746511380 0.920078 -0.126345
1749474710 0.92394 -0.131543
1752438040 0.925933 -0.129177
1755401370 0.93003 -0.127373
1758364700 0.934794 -0.126253
1761328030 0.931214 -0.124724
1764291360 0.930356 -0.124179
1767254690 0.928775 -0.12626
1770218020 0.921359 -0.123417
1773181350 0.914342 -0.125101
1776144680 0.915573 -0.122555
1779108010 0.929232 -0.124307
1782071340 0.929053 -0.127738
1785034670 0.932556 -0.125221
1787998000 0.940673 -0.119637
1790961330 0.935717 -0.123423
1793924660 0.935452 -0.118485
1796887990 0.930147 -0.119003
1799851320 0.922534 -0.123089
1802814650 0.916015 -0.117592
1805777980 0.918217 -0.122926
1808741310 0.920188 -0.118868
1811704640 0.932138 -0.119817
1814667970 0.932561 -0.121739
1817631300 0.940883 -0.117832
1820594630 0.935357 -0.116373
1823557960 0.933294 -0.119563
1826521290 0.927649 -0.11923
1829484620 0.922699 -0.119324
1832447950 0.919934 -0.118913
1835411280 0.914844 -0.113846
1838374610 0.923234 -0.122111
1841337940 0.930406 -0.122474
1844301270 0.937452 -0.122499
1847264600 0.951581 -0.080995
1850227930 0.939962 -0.122413
1853191260 0.934493 -0.115215
1856154590 0.928961 -0.123231
1859117920 0.925777 -0.11364
1862081250 0.915717 -0.118072
1865044580 0.917273 -0.118815
1868007910 0.920521 -0.122845
1870971240 0.929949 -0.121817
1873934570 0.933771 -0.125983
1876897900 0.937662 -0.119209
1879861230 0.936408 -0.120012
1882824560 0.934606 -0.120378
1885787890 0.932215 -0.115133
1888751220 0.927005 -0.117075
1891714550 0.920594 -0.112637
1894677880 0.917359 -0.114711
1897641210 0.923924 -0.112514
1900604540 0.927762 -0.118268
1903567870 0.932095 -0.119413
1906531200 0.928517 -0.127916
1909494530 0.93512 -0.122615
1912457860 0.930726 -0.124152
1915421190 0.929675 -0.117987
1918384520 0.924785 -0.120448
1921347850 0.91602 -0.119761
1924311180 0.910778 -0.122848
1927274510 0.923256 -0.116306
1930237840 0.924663 -0.120905
1933201170 0.927665 -0.126449
1936164500 0.929458 -0.123221
1939127830 0.932542 -0.118744
1942091160 0.929502 -0.116163
1945054490 0.92348 -0.119689
1948017820 0.925522 -0.11273
1950981150 0.907724 -0.128259
1953944480 0.908702 -0.115583
1956907810 0.917695 -0.117851
1959871140 0.926035 -0.11885
1962834470 0.927651 -0.120126
1965797800 0.927149 -0.125694
1968761130 0.930339 -0.117567
1971724460 0.928553 -0.120791
1974687790 0.92725 -0.122056
1977651120 0.922909 -0.118458
1980614450 0.919472 -0.1171
1983577780 0.911024 -0.121084
1986541110 0.92188 -0.120037
1989504440 0.920295 -0.131884
1992467770 0.924948 -0.126411
1995431100 0.92994 -0.123611
1998394430 0.928599 -0.125109
2001357760 0.925931 -0.121271
2004321090 0.924251 -0.126838
2007284420 0.919253 -0.126166
2010247750 0.911586 -0.127166
2013211080 0.90859 -0.119993
2016174410 0.912837 -0.118329
2019137740 0.919677 -0.129353
2022101070 0.921257 -0.126612
2025064400 0.92311 -0.120535
2028027730 0.925478 -0.125494
2030991060 0.92554 -0.12389
2033954390 0.926961 -0.117044
2036917720 0.919785 -0.111494
2039881050 0.918323 -0.114699
2042844380 0.905302 -0.120231
2045807710 0.916255 -0.12294
2048771040 0.920464 -0.121922
2051734370 0.924347 -0.127099
2054697700 0.923818 -0.131654
2057661030 0.923506 -0.124036
2060624360 0.927399 -0.125261
2063587690 0.923353 -0.118967
2066551020 0.918393 -0.131107
2069514350 0.911538 -0.120522
2072477680 0.908351 -0.119696
2075441010 0.910592 -0.128239
2078404340 0.926577 -0.126621
2081367670 0.921632 -0.130256
2084331000 0.92275 -0.133854
2087294330 0.923429 -0.137966
2090257660 0.923925 -0.136163
2093220990 0.922899 -0.135787
2096184320 0.917882 -0.136631
2099147650 0.913037 -0.129606
2102110980 0.907045 -0.132403
2105074310 0.905865 -0.137233
2108037640 0.914602 -0.133981
2111000970 0.919527 -0.136269
2113964300 0.923627 -0.127983
2116927630 0.924727 -0.137903
2119890960 0.926946 -0.132281
2122854290 0.923339 -0.120621
2125817620 0.920167 -0.138025
2128780950 0.912277 -0.125112
2131744280 0.910465 -0.120402
2134707610 0.911948 -0.126854
2137670940 0.916033 -0.126978
2140634270 0.919141 -0.139827
2143597600 0.921907 -0.132174
2146560930 0.922749 -0.130746
2149524260 0.927615 -0.130907
2152487590 0.932243 -0.135314
2155450920 0.918396 -0.133786
2158414250 0.908223 -0.148581
2161377580 0.902433 -0.149519
2164340910 0.90165 -0.145379
2167304240 0.906202 -0.153174
2170267570 0.917309 -0.142819
2173230900 0.91346 -0.150252
2176194230 0.926787 -0.133016
2179157560 0.921715 -0.140905
2182120890 0.924834 -0.132802
2185084220 0.920635 -0.143852
2188047550 0.912683 -0.140917
2191010880 0.902923 -0.136693
2193974210 0.898708 -0.143033
2196937540 0.904796 -0.146592
2199900870 0.91602 -0.143475
2202864200 0.915739 -0.149728
2205827530 0.928291 -0.130684
2208790860 0.91785 -0.143166
2211754190 0.920854 -0.134879
2214717520 0.918958 -0.155805
2217680850 0.917163 -0.144954
2220644180 0.903986 -0.149033
2223607510 0.902743 -0.136271
2226570840 0.904242 -0.148294
2229534170 0.911661 -0.135108
2232497500 0.915119 -0.158133
2235460830 0.917865 -0.149047
2238424160 0.913373 -0.159896
2241387490 0.917836 -0.133998
2244350820 0.907203 -0.163066
2247314150 0.909824 -0.1419
2250277480 0.897798 -0.155577
2253240810 0.89998 -0.137412
2256204140 0.897531 -0.155809
2259167470 0.916321 -0.133735
2262130800 0.90725 -0.15437
2265094130 0.913899 -0.148822
2268057460 0.917477 -0.15568
2271020790 0.913111 -0.14821
2273984120 0.920757 -0.141972
2276947450 0.911222 -0.142146
2279910780 0.908351 -0.140494
2282874110 0.908764 -0.133228
2285837440 0.907981 -0.137744
2288800770 0.911046 -0.14074
2291764100 0.913799 -0.138576
2294727430 0.920038 -0.140591
2297690760 0.922457 -0.142077
2300654090 0.915879 -0.141594
2303617420 0.916156 -0.137521
2306580750 0.913306 -0.131561
2309544080 0.915447 -0.125854
2312507410 0.90448 -0.130409
2315470740 0.90986 -0.130781
2318434070 0.913421 -0.138326
2321397400 0.912789 -0.139661
2324360730 0.914033 -0.137014
2327324060 0.920361 -0.141635
2330287390 0.919465 -0.144876
2333250720 0.911953 -0.135633
2336214050 0.911661 -0.136874
2339177380 0.911024 -0.138205
2342140710 0.899926 -0.140336
2345104040 0.905742 -0.139263
2348067370 0.91498 -0.139712
2351030700 0.910133 -0.14334
2353994030 0.915128 -0.14979
2356957360 0.915038 -0.138419
2359920690 0.921819 -0.137487
2362884020 0.918453 -0.141206
2365847350 0.91247 -0.134004
2368810680 0.905197 -0.136165
2371774010 0.899465 -0.145301
2374737340 0.907354 -0.132853
2377700670 0.904428 -0.142392
2380664000 0.906728 -0.148275
2383627330 0.916322 -0.135952
2386590660 0.916839 -0.144785
2389553990 0.912128 -0.144426
2392517320 0.917031 -0.134958
2395480650 0.908067 -0.139327
2398443980 0.907815 -0.129943
2401407310 0.894741 -0.145747
2404370640 0.900061 -0.143845
2407333970 0.900932 -0.153676
2410297300 0.905587 -0.146183
2413260630 0.912168 -0.157504
2416223960 0.912516 -0.141849
2419187290 0.912033 -0.156577
2422150620 0.907904 -0.14997
2425113950 0.907284 -0.146504
2428077280 0.897969 -0.151947
2431040610 0.896978 -0.143837
2434003940 0.8922 -0.171209
2436967270 0.905017 -0.141243
2439930600 0.904165 -0.157737
2442893930 0.915995 -0.138343
2445857260 0.911122 -0.162496
2448820590 0.916259 -0.163253
2451783920 0.907446 -0.148313
2454747250 0.904621 -0.147278
2457710580 0.90451 -0.15096
2460673910 0.894741 -0.140781
2463637240 0.903058 -0.158567
2466600570 0.904776 -0.162414
2469563900 0.91073 -0.146334
2472527230 0.906111 -0.151408
2475490560 0.918262 -0.152845
2478453890 0.917473 -0.148294
2481417220 0.916752 -0.144622
2484380550 0.914776 -0.151023
2487343880 0.906149 -0.146074
2490307210 0.899617 -0.145166
2493270540 0.89977 -0.14283
2496233870 0.901356 -0.149623
2499197200 0.912584 -0.14705
2502160530 0.911542 -0.140988
2505123860 0.914163 -0.146286
2508087190 0.9093 -0.137397
2511050520 0.915677 -0.144539
2514013850 0.907722 -0.131491
2516977180 0.906492 -0.136647
2519940510 0.894926 -0.136789
2522903840 0.898842 -0.136328
2525867170 0.895033 -0.129383
2528830500 0.904006 -0.141975
2531793830 0.910097 -0.139062
2534757160 0.909546 -0.139838
2537720490 0.915303 -0.14498
2540683820 0.912203 -0.144973
2543647150 0.909194 -0.151462
2546610480 0.877772 -0.146714
2549573810 0.896575 -0.147074
2552537140 0.899447 -0.155021
2555500470 0.903877 -0.151454
2558463800 0.904882 -0.153039
2561427130 0.908709 -0.149636
2564390460 0.908641 -0.157932
2567353790 0.913112 -0.147945
2570317120 0.91093 -0.147943
2573280450 0.907375 -0.154496
2576243780 0.904724 -0.14757
2579207110 0.899435 -0.146304
2582170440 0.893787 -0.14562
2585133770 0.897892 -0.153992
2588097100 0.904575 -0.147186
2591060430 0.907233 -0.149986
2594023760 0.909249 -0.151585
2596987090 0.908937 -0.158059
2599950420 0.906504 -0.161692
2602913750 0.902325 -0.149896
2605877080 0.896519 -0.149701
2608840410 0.893128 -0.151724
2611803740 0.890089 -0.143508
2614767070 0.899154 -0.148282
2617730400 0.892207 -0.157918
2620693730 0.90143 -0.153882
2623657060 0.902267 -0.155331
2626620390 0.897631 -0.158327
2629583720 0.899189 -0.159258
2632547050 0.888776 -0.164855
2635510380 0.889945 -0.162777
2638473710 0.885907 -0.15443
2641437040 0.882526 -0.160119
2644400370 0.88483 -0.161519
2647363700 0.898594 -0.157631
2650327030 0.895887 -0.167098
2653290360 0.905416 -0.162847
2656253690 0.895254 -0.162819
2659217020 0.895864 -0.154531
2662180350 0.898061 -0.15716
2665143680 0.882044 -0.159755
2668107010 0.880358 -0.160096
2671070340 0.875624 -0.152515
2674033670 0.881576 -0.165472
2676997000 0.895483 -0.158563
2679960330 0.894377 -0.162962
2682923660 0.901303 -0.154951
2685886990 0.903586 -0.161588
2688850320 0.899253 -0.165607
2691813650 0.898392 -0.169257
2694776980 0.895136 -0.161488
2697740310 0.882725 -0.164351
2700703640 0.894725 -0.161414
2703666970 0.894093 -0.161753
2706630300 0.905796 -0.169568
2709593630 0.893498 -0.170714
2712556960 0.90719 -0.162846
2715520290 0.910693 -0.160212
2718483620 0.913469 -0.164883
2721446950 0.908525 -0.159271
2724410280 0.902465 -0.157674
2727373610 0.899736 -0.153654
2730336940 0.886758 -0.163001
2733300270 0.888717 -0.162134
2736263600 0.909578 -0.149891
2739226930 0.898856 -0.156101
2742190260 0.90245 -0.157429
2745153590 0.901408 -0.159135
2748116920 0.901224 -0.160266
2751080250 0.898363 -0.155363
2754043580 0.896653 -0.14638
2757006910 0.897141 -0.151921
2759970240 0.882795 -0.167169
2762933570 0.886966 -0.156221
2765896900 0.891978 -0.161043
2768860230 0.887646 -0.177575
2771823560 0.888588 -0.166805
2774786890 0.891783 -0.168353
2777750220 0.897529 -0.168089
2780713550 0.893875 -0.175087
2783676880 0.893885 -0.173121
2786640210 0.887687 -0.173195
2789603540 0.885608 -0.16834
2792566870 0.880773 -0.18032
2795530200 0.890743 -0.166393
2798493530 0.90222 -0.17681
2801456860 0.911715 -0.16651
2804420190 0.892546 -0.18847
2807383520 0.910261 -0.164942
2810346850 0.905708 -0.169188
2813310180 0.902288 -0.166695
2816273510 0.894817 -0.181194
2819236840 0.89367 -0.188493
2822200170 0.877125 -0.18347
2825163500 0.898842 -0.18138
2828126830 0.91371 -0.184564
2831090160 0.896968 -0.181347
2834053490 0.91439 -0.168762
2837016820 0.912659 -0.180638
2839980150 0.903697 -0.166176
2842943480 0.914048 -0.181983
2845906810 0.897647 -0.184795
2848870140 0.899107 -0.168411
2851833470 0.894826 -0.17092
2854796800 0.911483 -0.181194
2857760130 0.910825 -0.173353
2860723460 0.911995 -0.176009
2863686790 0.914749 -0.170109
2866650120 0.906339 -0.167244
2869613450 0.908832 -0.174882
2872576780 0.910961 -0.160441
2875540110 0.901562 -0.174886
2878503440 0.890458 -0.166629
2881466770 0.889708 -0.174115
2884430100 0.894106 -0.171466
2887393430 0.890681 -0.182063
2890356760 0.891948 -0.168583
2893320090 0.902958 -0.194006
2896283420 0.889707 -0.160615
2899246750 0.898165 -0.177738
2902210080 0.891617 -0.183403
2905173410 0.888394 -0.175036
2908136740 0.885833 -0.172352
2911100070 0.87584 -0.176577
2914063400 0.889253 -0.184183
2917026730 0.896797 -0.181669
2919990060 0.897367 -0.167436
2922953390 0.898806 -0.176111
2925916720 0.898738 -0.167056
2928880050 0.897832 -0.172102
2931843380 0.900155 -0.176826
2934806710 0.886959 -0.158168
2937770040 0.878759 -0.165935
2940733370 0.872501 -0.157243
2943696700 0.876277 -0.159343
2946660030 0.886802 -0.170236
2949623360 0.886714 -0.167519
2952586690 0.88739 -0.171246
2955550020 0.893148 -0.172465
2958513350 0.886413 -0.169147
2961476680 0.885843 -0.171612
2964440010 0.878511 -0.166247
2967403340 0.87211 -0.165184
2970366670 0.873005 -0.164769
2973330000 0.875457 -0.159353
2976293330 0.882882 -0.167655
2979256660 0.88166 -0.171567
2982219990 0.88895 -0.16584
2985183320 0.885541 -0.166575
2988146650 0.885508 -0.16284
2991109980 0.887006 -0.158388
2994073310 0.881891 -0.163656
2997036640 0.875194 -0.163382
2999999970 0.872708 -0.15214
