# HZ S RI R 50
10000000 0.998568 -0.00351
12963330 1.000846 -0.007141
15926660 1.00642 -0.011234
18889990 1.00993 -0.014921
21853320 1.011959 -0.016124
24816650 1.015025 -0.018478
27779980 1.014356 -0.020141
30743310 1.013759 -0.018693
33706640 1.008308 -0.017539
36669970 1.003667 -0.018214
39633300 0.995022 -0.017513
42596630 1.000908 -0.02122
45559960 1.006599 -0.024096
48523290 1.011112 -0.026249
51486620 1.014408 -0.028518
54449950 1.01494 -0.029053
57413280 1.01317 -0.028215
60376610 1.01006 -0.028745
63339940 1.006812 -0.025548
66303270 0.999511 -0.026864
69266600 0.991156 -0.02498
72229930 0.993624 -0.028143
75193260 0.999481 -0.032524
78156590 1.002949 -0.033239
81119920 1.00546 -0.034063
84083250 1.005204 -0.03496
87046580 1.005419 -0.034255
90009910 1.003152 -0.034567
92973240 0.998458 -0.034008
95936570 0.992651 -0.032865
98899900 0.985273 -0.031299
101863230 0.987352 -0.033962
104826560 0.991541 -0.036866
107789890 0.995523 -0.037093
110753220 0.997472 -0.037411
113716550 0.996982 -0.038862
116679880 0.996796 -0.038566
119643210 0.994842 -0.037179
122606540 0.991397 -0.034182
125569870 0.984697 -0.035448
128533200 0.978345 -0.034686
131496530 0.98069 -0.036285
134459860 0.986965 -0.036093
137423190 0.979434 -0.04709
140386520 0.984799 -0.046269
143349850 0.98688 -0.046343
146313180 0.9871 -0.045605
149276510 0.98692 -0.043825
152239840 0.984514 -0.042537
155203170 0.981007 -0.039525
158166500 0.975329 -0.038034
161129830 0.975157 -0.038415
164093160 0.980573 -0.040196
167056490 0.985839 -0.038311
170019820 0.988204 -0.039057
172983150 0.990474 -0.038624
175946480 0.988715 -0.038544
178909810 0.985988 -0.037539
181873140 0.983088 -0.037343
184836470 0.977933 -0.037227
187799800 0.970195 -0.039448
190763130 0.971541 -0.039347
193726460 0.976951 -0.04044
196689790 0.981088 -0.038985
199653120 0.986469 -0.039514
202616450 0.986541 -0.037615
205579780 0.986207 -0.039012
208543110 0.983649 -0.038329
211506440 0.9813 -0.037377
214469770 0.976572 -0.038096
217433100 0.969033 -0.038235
220396430 0.966573 -0.041291
223359760 0.975045 -0.04137
226323090 0.979591 -0.040226
229286420 0.983915 -0.040633
232249750 0.98554 -0.040007
235213080 0.9849 -0.038518
238176410 0.983468 -0.039632
241139740 0.980277 -0.039891
244103070 0.974717 -0.040164
247066400 0.968009 -0.040648
250029730 0.964928 -0.04357
252993060 0.97279 -0.042971
255956390 0.979637 -0.04345
258919720 0.982331 -0.042609
261883050 0.985578 -0.041137
264846380 0.98561 -0.042465
267809710 0.98425 -0.041407
270773040 0.980957 -0.041851
273736370 0.974309 -0.041763
276699700 0.967672 -0.044697
279663030 0.961348 -0.045299
282626360 0.971976 -0.045231
285589690 0.97589 -0.043582
288553020 0.98175 -0.04467
291516350 0.983288 -0.043385
294479680 0.985107 -0.04539
297443010 0.98341 -0.043229
300406340 0.978122 -0.041547
303369670 0.972514 -0.042508
306333000 0.965353 -0.04285
309296330 0.956741 -0.046011
312259660 0.966546 -0.044553
315222990 0.974045 -0.047268
318186320 0.97757 -0.047431
321149650 0.981368 -0.048394
324112980 0.98315 -0.047944
327076310 0.981768 -0.047509
330039640 0.977156 -0.049048
333002970 0.972503 -0.047199
335966300 0.964666 -0.046774
338929630 0.9563 -0.04805
341892960 0.965173 -0.050902
344856290 0.971144 -0.051244
347819620 0.978017 -0.052205
350782950 0.979475 -0.051156
353746280 0.980911 -0.051102
356709610 0.980733 -0.051682
359672940 0.97685 -0.049853
362636270 0.970683 -0.049779
365599600 0.974094 -0.016754
368562930 0.954476 -0.05001
371526260 0.961786 -0.051419
374489590 0.967644 -0.052861
377452920 0.974484 -0.05531
380416250 0.977727 -0.053835
383379580 0.979028 -0.054817
386342910 0.977104 -0.052999
389306240 0.973841 -0.053818
392269570 0.969639 -0.052645
395232900 0.963947 -0.050819
398196230 0.95557 -0.049956
401159560 0.960093 -0.053698
404122890 0.966331 -0.055239
407086220 0.972379 -0.055016
410049550 0.973924 -0.056208
413012880 0.976232 -0.056555
415976210 0.975826 -0.05449
418939540 0.973157 -0.053026
421902870 0.968023 -0.055094
424866200 0.963542 -0.053839
427829530 0.955524 -0.049977
430792860 0.958373 -0.05272
433756190 0.963765 -0.055602
436719520 0.96879 -0.05724
439682850 0.97246 -0.055863
442646180 0.973665 -0.057145
445609510 0.972205 -0.056479
448572840 0.969801 -0.053495
451536170 0.96613 -0.052283
454499500 0.957553 -0.05159
457462830 0.950306 -0.05373
460426160 0.953224 -0.055498
463389490 0.959546 -0.056916
466352820 0.964374 -0.057143
469316150 0.975179 -0.023151
472279480 0.968687 -0.057472
475242810 0.969712 -0.056567
478206140 0.967107 -0.05605
481169470 0.962514 -0.055746
484132800 0.956382 -0.055322
487096130 0.948866 -0.055666
490059460 0.949919 -0.056982
493022790 0.957257 -0.057528
495986120 0.961916 -0.057124
498949450 0.966498 -0.056512
501912780 0.968156 -0.058206
504876110 0.968822 -0.055367
507839440 0.969283 -0.053943
510802770 0.96447 -0.054545
513766100 0.959501 -0.054571
516729430 0.952876 -0.051962
519692760 0.952591 -0.053141
522656090 0.957207 -0.055799
525619420 0.964954 -0.056091
528582750 0.968647 -0.057446
531546080 0.971096 -0.056262
534509410 0.97078 -0.055818
537472740 0.968614 -0.053451
540436070 0.963123 -0.054789
543399400 0.95955 -0.056611
546362730 0.953003 -0.054539
549326060 0.950032 -0.05682
552289390 0.959021 -0.059337
555252720 0.965648 -0.058921
558216050 0.970347 -0.057989
561179380 0.969945 -0.05935
564142710 0.973852 -0.056149
567106040 0.969932 -0.057355
570069370 0.966186 -0.056394
573032700 0.95981 -0.056414
575996030 0.966877 -0.048429
578959360 0.950551 -0.057514
581922690 0.959127 -0.055311
584886020 0.964156 -0.063587
587849350 0.968521 -0.057608
590812680 0.972337 -0.058822
593776010 0.971682 -0.057498
596739340 0.969488 -0.057529
599702670 0.966483 -0.058063
602666000 0.961551 -0.059894
605629330 0.952683 -0.056732
608592660 0.948163 -0.060056
611555990 0.958098 -0.060846
614519320 0.963028 -0.061913
617482650 0.967335 -0.060835
620445980 0.970894 -0.06096
623409310 0.971606 -0.06347
626372640 0.970196 -0.060389
629335970 0.967845 -0.059952
632299300 0.962584 -0.058093
635262630 0.956267 -0.056627
638225960 0.947625 -0.058058
641189290 0.954504 -0.060323
644152620 0.961432 -0.062115
647115950 0.967932 -0.060859
650079280 0.970672 -0.062825
653042610 0.971188 -0.06387
656005940 0.971275 -0.05969
658969270 0.967808 -0.061208
661932600 0.963424 -0.056772
664895930 0.964616 -0.024911
667859260 0.948211 -0.057937
670822590 0.952446 -0.061924
673785920 0.959774 -0.066479
676749250 0.965719 -0.06093
679712580 0.968928 -0.064371
682675910 0.971933 -0.063356
685639240 0.970719 -0.063077
688602570 0.968308 -0.060601
691565900 0.96365 -0.062159
694529230 0.956339 -0.056998
697492560 0.94721 -0.058586
700455890 0.953981 -0.060794
703419220 0.960105 -0.065142
706382550 0.963886 -0.063821
709345880 0.968577 -0.063942
712309210 0.970778 -0.066539
715272540 0.967556 -0.064755
718235870 0.962993 -0.064665
721199200 0.961102 -0.062779
724162530 0.954905 -0.062022
727125860 0.948132 -0.059946
730089190 0.952285 -0.062093
733052520 0.957102 -0.063638
736015850 0.962553 -0.067734
738979180 0.96523 -0.06885
741942510 0.965124 -0.068148
744905840 0.965285 -0.067017
747869170 0.962136 -0.065652
750832500 0.958892 -0.062944
753795830 0.952943 -0.064976
756759160 0.946129 -0.059524
759722490 0.948562 -0.064201
762685820 0.953508 -0.064146
765649150 0.960706 -0.067767
768612480 0.964124 -0.062751
771575810 0.964864 -0.066077
774539140 0.964669 -0.061948
777502470 0.961444 -0.065783
780465800 0.957598 -0.062808
783429130 0.954255 -0.062742
786392460 0.948207 -0.061912
789355790 0.947255 -0.064562
792319120 0.954702 -0.062453
795282450 0.959223 -0.067229
798245780 0.962956 -0.065079
801209110 0.963811 -0.065176
804172440 0.961774 -0.067458
807135770 0.961345 -0.065269
810099100 0.956 -0.068577
813062430 0.951517 -0.062853
816025760 0.945265 -0.0676
818989090 0.94469 -0.067797
821952420 0.952641 -0.068212
824915750 0.957377 -0.070696
827879080 0.95948 -0.073109
830842410 0.962172 -0.071917
833805740 0.96282 -0.071215
836769070 0.959689 -0.067563
839732400 0.956573 -0.067889
842695730 0.949671 -0.070698
845659060 0.942785 -0.067621
848622390 0.941478 -0.073525
851585720 0.95025 -0.074079
854549050 0.956315 -0.072531
857512380 0.95842 -0.076127
860475710 0.961641 -0.077919
863439040 0.960963 -0.076705
866402370 0.960078 -0.072348
869365700 0.956081 -0.073926
872329030 0.949863 -0.07592
875292360 0.941791 -0.076601
878255690 0.938903 -0.078012
881219020 0.947433 -0.081209
884182350 0.954343 -0.07854
887145680 0.958734 -0.07914
890109010 0.961756 -0.083809
893072340 0.960684 -0.082457
896035670 0.959932 -0.07884
898999000 0.957891 -0.077057
901962330 0.951789 -0.079519
904925660 0.945898 -0.075225
907888990 0.941585 -0.074945
910852320 0.951731 -0.079454
913815650 0.956122 -0.080788
916778980 0.956959 -0.080739
919742310 0.957655 -0.082359
922705640 0.961829 -0.080481
925668970 0.959098 -0.07603
928632300 0.956046 -0.075648
931595630 0.948793 -0.074135
934558960 0.941939 -0.074552
937522290 0.935816 -0.071871
940485620 0.944512 -0.072669
943448950 0.949903 -0.079148
946412280 0.954163 -0.080965
949375610 0.954839 -0.081423
952338940 0.958066 -0.077498
955302270 0.954061 -0.078962
958265600 0.954424 -0.080196
961228930 0.950941 -0.075475
964192260 0.942037 -0.077707
967155590 0.936528 -0.073299
970118920 0.944578 -0.07771
973082250 0.949762 -0.078025
976045580 0.954399 -0.085314
979008910 0.957354 -0.083842
981972240 0.957708 -0.080536
984935570 0.956895 -0.079872
987898900 0.95615 -0.081635
990862230 0.9501 -0.081096
993825560 0.944377 -0.073206
996788890 0.937025 -0.091888
999752220 0.941422 -0.098522
1002715550 0.946483 -0.096449
1005678880 0.95741 -0.065561
1008642210 0.953076 -0.09823
1011605540 0.960219 -0.063786
1014568870 0.951034 -0.099026
1017532200 0.957887 -0.057521
1020495530 0.946051 -0.093576
1023458860 0.947577 -0.058398
1026422190 0.933087 -0.091137
1029385520 0.947151 -0.05771
1032348850 0.942837 -0.097731
1035312180 0.95634 -0.061825
1038275510 0.952658 -0.098819
1041238840 0.961341 -0.061522
1044202170 0.952157 -0.094779
1047165500 0.953753 -0.07817
1050128830 0.94628 -0.0926
1053092160 0.948765 -0.058326
1056055490 0.934823 -0.093176
1059018820 0.940938 -0.089196
1061982150 0.954479 -0.060351
1064945480 0.951903 -0.09217
1067908810 0.958103 -0.076671
1070872140 0.954677 -0.094929
1073835470 0.962152 -0.06241
1076798800 0.951278 -0.093808
1079762130 0.956712 -0.057332
1082725460 0.947012 -0.072951
1085688790 0.941136 -0.077001
1088652120 0.944051 -0.076163
1091615450 0.950103 -0.076531
1094578780 0.953766 -0.077944
1097542110 0.960526 -0.075486
1100505440 0.959935 -0.077624
1103468770 0.95868 -0.075686
1106432100 0.955416 -0.072379
1109395430 0.952361 -0.071355
1112358760 0.946505 -0.072647
1115322090 0.938451 -0.07487
1118285420 0.943117 -0.075664
1121248750 0.94734 -0.076361
1124212080 0.9513 -0.079151
1127175410 0.956687 -0.077751
1130138740 0.959088 -0.079797
1133102070 0.955625 -0.080568
1136065400 0.950808 -0.080895
1139028730 0.951061 -0.078736
1141992060 0.945344 -0.077656
1144955390 0.938956 -0.084917
1147918720 0.939899 -0.082099
1150882050 0.948299 -0.083298
1153845380 0.95084 -0.085005
1156808710 0.955906 -0.091407
1159772040 0.959979 -0.085276
1162735370 0.957605 -0.087869
1165698700 0.956963 -0.090301
1168662030 0.951614 -0.087717
1171625360 0.9474 -0.082325
1174588690 0.940626 -0.085532
1177552020 0.938825 -0.087469
1180515350 0.947979 -0.090738
1183478680 0.955912 -0.088317
1186442010 0.954015 -0.094063
1189405340 0.956396 -0.092445
1192368670 0.957394 -0.092982
1195332000 0.957223 -0.090913
1198295330 0.951915 -0.085406
1201258660 0.947978 -0.088783
1204221990 0.936887 -0.09465
1207185320 0.93866 -0.092018
1210148650 0.94296 -0.098669
1213111980 0.94805 -0.096347
1216075310 0.954873 -0.096286
1219038640 0.954792 -0.096083
1222001970 0.957414 -0.09632
1224965300 0.954557 -0.098547
1227928630 0.951339 -0.097818
1230891960 0.943339 -0.100306
1233855290 0.936066 -0.095089
1236818620 0.933348 -0.101937
1239781950 0.94058 -0.10287
1242745280 0.946645 -0.10453
1245708610 0.952504 -0.100968
1248671940 0.953793 -0.104603
1251635270 1.06504 -0.045298
1254598600 0.954399 -0.102982
1257561930 0.950527 -0.101082
1260525260 0.944523 -0.094058
1263488590 0.936963 -0.09915
1266451920 0.929946 -0.097039
1269415250 0.938749 -0.099835
1272378580 0.943006 -0.103958
1275341910 0.946869 -0.108348
1278305240 0.949066 -0.110319
1281268570 0.949395 -0.108275
1284231900 0.948752 -0.108361
1287195230 0.945144 -0.102967
1290158560 0.939695 -0.099501
1293121890 0.933153 -0.105357
1296085220 0.92552 -0.101077
1299048550 0.931107 -0.110668
1302011880 0.939525 -0.104747
1304975210 0.940349 -0.110398
1307938540 0.945818 -0.106231
1310901870 0.948146 -0.105455
1313865200 0.946635 -0.10381
1316828530 0.943798 -0.104042
1319791860 0.939464 -0.100879
1322755190 0.934002 -0.100753
1325718520 0.925911 -0.097313
1328681850 0.933623 -0.102592
1331645180 0.937947 -0.103267
1334608510 0.939394 -0.109058
1337571840 0.944888 -0.103293
1340535170 0.942413 -0.105047
1343498500 0.943031 -0.102519
1346461830 0.938122 -0.106965
1349425160 0.934487 -0.114017
1352388490 0.931538 -0.102823
1355351820 0.924678 -0.103301
1358315150 0.929721 -0.100719
1361278480 0.9336 -0.109411
1364241810 0.941547 -0.101188
1367205140 0.943498 -0.106195
1370168470 0.944181 -0.110728
1373131800 0.94593 -0.102066
1376095130 0.939258 -0.104689
1379058460 0.942265 -0.104843
1382021790 0.933675 -0.099125
1384985120 0.927005 -0.095347
1387948450 0.935116 -0.09982
1390911780 0.937087 -0.099604
1393875110 0.940072 -0.10277
1396838440 0.941682 -0.104405
1399801770 0.946027 -0.101744
1402765100 0.945758 -0.103656
1405728430 0.944344 -0.103253
1408691760 0.938001 -0.103611
1411655090 0.933329 -0.109225
1414618420 0.932605 -0.100526
1417581750 0.937463 -0.099898
1420545080 0.941033 -0.101495
1423508410 0.937387 -0.105066
1426471740 0.945371 -0.108414
1429435070 0.944552 -0.104806
1432398400 0.945592 -0.106871
1435361730 0.94429 -0.103034
1438325060 0.939092 -0.103445
1441288390 0.934173 -0.099967
1444251720 0.930894 -0.101913
1447215050 0.932161 -0.10618
1450178380 0.938316 -0.109902
1453141710 0.944859 -0.103417
1456105040 0.946938 -0.10383
1459068370 0.95092 -0.096525
1462031700 0.951246 -0.097379
1464995030 0.948116 -0.098214
1467958360 0.9441 -0.095737
1470921690 0.938324 -0.094602
1473885020 0.932218 -0.097701
1476848350 0.93332 -0.09854
1479811680 0.938202 -0.096772
1482775010 0.945708 -0.095697
1485738340 0.948952 -0.095424
1488701670 0.948945 -0.101606
1491665000 0.949422 -0.098775
1494628330 0.949281 -0.097757
1497591660 0.943953 -0.096545
1500554990 0.937191 -0.097919
1503518320 0.931317 -0.098675
1506481650 0.931783 -0.100001
1509444980 0.939613 -0.1024
1512408310 0.943981 -0.106486
1515371640 0.949992 -0.102403
1518334970 0.951371 -0.106479
1521298300 0.951654 -0.101626
1524261630 0.949101 -0.103168
1527224960 0.946729 -0.100753
1530188290 0.938877 -0.106638
1533151620 0.932382 -0.105178
1536114950 0.931009 -0.105637
1539078280 0.938952 -0.110401
1542041610 0.948337 -0.113728
1545004940 0.948415 -0.109889
1547968270 0.95146 -0.113046
1550931600 0.952782 -0.110384
1553894930 0.950139 -0.113726
1556858260 0.947963 -0.10662
1559821590 0.939582 -0.106666
1562784920 0.933152 -0.106761
1565748250 0.932602 -0.103834
1568711580 0.935581 -0.11638
1571674910 0.942278 -0.108599
1574638240 0.944887 -0.118942
1577601570 0.948471 -0.118255
1580564900 0.949519 -0.11945
1583528230 0.946268 -0.109325
1586491560 0.943542 -0.110536
1589454890 0.937579 -0.110384
1592418220 0.930642 -0.10958
1595381550 0.922604 -0.107587
1598344880 0.931503 -0.114851
1601308210 0.938605 -0.115528
1604271540 0.944972 -0.114219
1607234870 0.945848 -0.118254
1610198200 0.94739 -0.110052
1613161530 0.943781 -0.123281
1616124860 0.938466 -0.116794
1619088190 0.934203 -0.120187
1622051520 0.928806 -0.11469
1625014850 0.922568 -0.112425
1627978180 0.928 -0.120147
1630941510 0.935989 -0.116475
1633904840 0.941644 -0.11897
1636868170 0.941053 -0.121312
1639831500 0.940097 -0.116314
1642794830 0.9425 -0.115155
1645758160 0.937828 -0.112206
1648721490 0.934214 -0.106184
1651684820 0.92798 -0.111856
1654648150 0.917977 -0.106602
1657611480 0.927853 -0.108318
1660574810 0.928307 -0.108291
1663538140 0.93338 -0.121411
1666501470 0.938938 -0.119791
1669464800 0.937655 -0.119836
1672428130 0.936347 -0.120972
1675391460 0.93209 -0.115073
1678354790 0.929408 -0.121574
1681318120 0.921839 -0.116509
1684281450 0.91545 -0.119615
1687244780 0.921809 -0.12031
1690208110 0.926288 -0.130224
1693171440 0.930259 -0.123557
1696134770 0.935325 -0.125605
1699098100 0.933132 -0.127493
1702061430 0.934577 -0.123101
1705024760 0.931416 -0.128354
1707988090 0.926216 -0.120485
1710951420 0.923251 -0.125862
1713914750 0.914308 -0.114827
1716878080 0.920914 -0.119086
1719841410 0.921923 -0.126705
1722804740 0.927492 -0.12534
1725768070 0.931169 -0.128305
1728731400 0.934417 -0.127797
1731694730 0.932152 -0.125335
1734658060 0.931354 -0.121578
1737621390 0.928169 -0.126375
1740584720 0.921227 -0.126777
1743548050 0.915761 -0.129974
1746511380 0.920226 -0.12801
1749474710 0.92331 -0.125797
1752438040 0.929992 -0.12794
1755401370 0.935946 -0.127038
1758364700 0.938277 -0.125665
1761328030 0.930261 -0.127718
1764291360 0.932561 -0.128724
1767254690 0.930958 -0.120942
1770218020 0.921056 -0.129653
1773181350 0.917227 -0.124322
1776144680 0.916682 -0.123486
1779108010 0.928542 -0.123571
1782071340 0.930494 -0.124586
1785034670 0.932507 -0.128743
1787998000 0.941632 -0.122512
1790961330 0.937746 -0.121487
1793924660 0.933599 -0.123305
1796887990 0.932946 -0.118434
1799851320 0.923962 -0.125396
1802814650 0.918302 -0.119513
1805777980 0.919841 -0.122328
1808741310 0.926337 -0.126795
1811704640 0.930101 -0.126881
1814667970 0.935873 -0.121799
1817631300 0.93766 -0.123409
1820594630 0.937695 -0.123687
1823557960 0.932483 -0.122957
1826521290 0.930471 -0.118078
1829484620 0.930937 -0.117367
1832447950 0.921771 -0.112255
1835411280 0.919317 -0.120334
1838374610 0.926026 -0.119043
1841337940 0.929886 -0.124564
1844301270 0.937408 -0.126156
1847264600 0.935215 -0.124456
1850227930 1.092169 -0.160677
1853191260 0.932005 -0.123669
1856154590 0.928324 -0.119931
1859117920 0.923547 -0.121171
1862081250 0.917911 -0.117848
1865044580 0.918132 -0.117866
1868007910 0.926147 -0.124995
1870971240 0.930191 -0.125848
1873934570 0.934379 -0.121252
1876897900 0.934814 -0.128075
1879861230 0.936246 -0.127988
1882824560 0.930781 -0.129904
1885787890 0.930022 -0.121667
1888751220 0.928516 -0.120089
1891714550 0.921745 -0.114521
1894677880 0.916864 -0.116904
1897641210 0.926897 -0.11942
1900604540 0.92854 -0.124597
1903567870 0.932764 -0.125806
1906531200 0.934273 -0.126081
1909494530 0.933255 -0.12187
1912457860 0.937895 -0.113439
1915421190 0.933943 -0.118387
1918384520 0.926391 -0.115893
1921347850 0.918514 -0.117276
1924311180 0.913447 -0.121716
1927274510 0.916177 -0.124763
1930237840 0.92589 -0.128753
1933201170 0.93244 -0.122565
1936164500 0.933291 -0.12451
1939127830 0.935781 -0.117521
1942091160 0.932575 -0.122791
1945054490 0.929533 -0.117254
1948017820 0.924943 -0.115724
1950981150 0.913792 -0.116878
1953944480 0.909544 -0.112134
1956907810 0.848416 -0.163458
1959871140 0.923438 -0.116843
1962834470 0.924744 -0.127878
1965797800 0.929432 -0.123851
1968761130 0.930231 -0.128201
1971724460 0.93132 -0.124491
1974687790 0.928825 -0.119522
1977651120 0.925829 -0.11832
1980614450 0.922156 -0.115243
1983577780 0.913199 -0.123988
1986541110 0.918128 -0.116556
1989504440 0.930877 -0.121387
1992467770 0.926666 -0.125771
1995431100 0.930982 -0.133151
1998394430 0.929768 -0.131579
2001357760 0.930303 -0.127035
2004321090 0.926405 -0.125209
2007284420 0.925733 -0.122671
2010247750 0.912056 -0.131346
2013211080 0.909633 -0.125377
2016174410 0.910959 -0.128543
2019137740 0.91972 -0.125178
2022101070 0.926422 -0.123552
2025064400 0.927483 -0.128504
2028027730 0.925765 -0.129153
2030991060 0.924838 -0.131842
2033954390 0.926459 -0.123614
2036917720 0.917853 -0.126032
2039881050 0.91728 -0.116369
2042844380 0.913763 -0.114323
2045807710 0.917959 -0.12094
2048771040 0.920583 -0.120345
2051734370 0.923784 -0.130393
2054697700 0.928815 -0.127404
2057661030 0.930416 -0.12472
2060624360 0.924366 -0.128902
2063587690 0.926936 -0.131608
2066551020 0.919099 -0.127466
2069514350 0.91547 -0.129879
2072477680 0.910176 -0.124363
2075441010 0.909745 -0.131106
2078404340 0.929572 -0.122813
2081367670 0.921041 -0.133948
2084331000 0.924799 -0.144015
2087294330 0.924208 -0.137206
2090257660 0.929404 -0.132689
2093220990 0.923806 -0.131316
2096184320 0.919439 -0.127762
2099147650 0.914056 -0.131468
2102110980 0.909323 -0.138059
2105074310 0.91133 -0.131654
2108037640 0.915645 -0.127554
2111000970 0.922331 -0.133148
2113964300 0.926811 -0.138225
2116927630 0.928903 -0.132238
2119890960 0.929485 -0.128401
2122854290 0.925422 -0.134393
2125817620 0.923218 -0.130935
2128780950 0.916366 -0.129038
2131744280 0.909711 -0.126344
2134707610 0.911042 -0.127974
2137670940 0.917009 -0.1277
2140634270 0.922156 -0.131465
2143597600 0.922726 -0.133592
2146560930 0.92441 -0.139778
2149524260 0.926973 -0.132457
2152487590 0.924749 -0.137007
2155450920 0.920112 -0.135172
2158414250 0.915917 -0.132724
2161377580 0.90898 -0.134531
2164340910 0.908774 -0.137366
2167304240 0.920593 -0.132178
2170267570 0.921405 -0.139895
2173230900 0.924379 -0.138215
2176194230 0.927986 -0.134862
2179157560 0.927318 -0.13644
2182120890 0.924926 -0.133188
2185084220 0.920814 -0.129619
2188047550 0.914438 -0.130754
2191010880 0.911909 -0.130487
2193974210 0.916488 -0.12732
2196937540 0.91379 -0.134436
2199900870 0.921488 -0.130435
2202864200 0.922823 -0.139047
2205827530 0.92804 -0.140917
2208790860 0.926132 -0.143859
2211754190 0.928853 -0.131047
2214717520 0.925688 -0.135032
2217680850 0.91066 -0.133869
2220644180 0.903875 -0.136541
2223607510 0.902743 -0.138462
2226570840 0.911644 -0.145839
2229534170 0.909808 -0.143413
2232497500 0.918199 -0.145596
2235460830 0.917982 -0.141575
2238424160 0.916957 -0.145044
2241387490 0.921069 -0.13896
2244350820 0.916518 -0.140331
2247314150 0.914469 -0.139051
2250277480 0.908556 -0.128762
2253240810 0.901102 -0.13634
2256204140 0.907781 -0.141181
2259167470 0.915245 -0.14837
2262130800 0.918998 -0.138324
2265094130 0.921422 -0.142535
2268057460 0.915908 -0.151633
2271020790 0.915001 -0.141654
2273984120 0.918223 -0.142368
2276947450 0.916391 -0.139258
2279910780 0.910898 -0.13473
2282874110 0.906082 -0.136426
2285837440 0.912465 -0.138932
2288800770 0.916822 -0.142993
2291764100 0.915658 -0.147039
2294727430 0.92193 -0.141661
2297690760 0.927646 -0.131554
2300654090 0.913874 -0.14898
2303617420 0.913882 -0.142514
2306580750 0.913003 -0.132088
2309544080 0.905761 -0.13757
2312507410 0.90113 -0.134052
2315470740 0.903299 -0.139119
2318434070 0.915188 -0.135713
2321397400 0.921342 -0.128115
2324360730 0.921966 -0.132466
2327324060 0.927928 -0.134057
2330287390 0.921355 -0.139204
2333250720 0.914298 -0.137537
2336214050 0.916587 -0.137926
2339177380 0.907657 -0.137626
2342140710 0.892751 -0.148347
2345104040 0.907217 -0.141917
2348067370 0.915364 -0.137771
2351030700 0.917012 -0.139516
2353994030 0.916353 -0.144388
2356957360 0.909569 -0.14342
2359920690 0.917336 -0.14111
2362884020 0.913895 -0.144805
2365847350 0.906216 -0.142655
2368810680 0.907473 -0.137084
2371774010 0.894701 -0.145445
2374737340 0.897052 -0.142959
2377700670 0.907847 -0.139931
2380664000 0.912438 -0.143689
2383627330 0.912991 -0.136747
2386590660 0.916991 -0.137312
2389553990 0.922451 -0.143684
2392517320 0.907534 -0.149584
2395480650 0.90664 -0.151665
2398443980 0.900942 -0.149485
2401407310 0.898076 -0.152685
2404370640 0.904353 -0.147448
2407333970 0.908333 -0.152344
2410297300 0.917514 -0.148227
2413260630 0.916471 -0.145312
2416223960 0.915049 -0.144028
2419187290 0.911456 -0.154112
2422150620 0.910016 -0.15801
2425113950 0.903452 -0.151547
2428077280 0.89926 -0.143299
2431040610 0.897314 -0.148568
2434003940 0.889137 -0.151171
2436967270 0.905412 -0.148378
2439930600 0.904301 -0.150902
2442893930 0.908974 -0.147259
2445857260 0.912334 -0.150726
2448820590 0.91679 -0.160451
2451783920 0.917159 -0.139867
2454747250 0.904332 -0.143136
2457710580 0.904748 -0.151336
2460673910 0.895794 -0.153628
2463637240 0.898232 -0.152499
2466600570 0.910882 -0.149935
2469563900 0.912978 -0.145229
2472527230 0.914569 -0.139861
2475490560 0.91749 -0.156119
2478453890 0.91671 -0.144204
2481417220 0.920513 -0.152252
2484380550 0.909458 -0.146006
2487343880 0.907179 -0.153845
2490307210 0.901403 -0.147424
2493270540 0.900207 -0.140091
2496233870 0.907648 -0.1533
2499197200 0.916389 -0.150314
2502160530 0.918021 -0.152501
2505123860 0.915868 -0.143995
2508087190 0.923037 -0.14819
2511050520 0.916307 -0.136075
2514013850 0.912639 -0.13649
2516977180 0.905086 -0.127732
2519940510 0.896279 -0.131574
2522903840 0.898237 -0.13304
2525867170 0.904115 -0.141095
2528830500 0.906698 -0.140866
2531793830 0.907048 -0.141491
2534757160 0.915978 -0.148932
2537720490 0.91439 -0.144969
2540683820 0.917199 -0.144718
2543647150 0.910597 -0.15715
2546610480 0.847745 -0.203687
2549573810 0.90051 -0.150611
2552537140 0.89792 -0.153393
2555500470 0.905541 -0.153673
2558463800 0.907564 -0.145167
2561427130 0.913668 -0.160413
2564390460 0.908624 -0.156347
2567353790 0.912771 -0.15279
2570317120 0.91161 -0.153877
2573280450 0.910158 -0.150223
2576243780 0.904607 -0.154705
2579207110 0.899415 -0.145025
2582170440 0.899679 -0.150305
2585133770 0.900752 -0.149669
2588097100 0.904613 -0.154018
2591060430 0.912157 -0.152488
2594023760 0.909796 -0.154996
2596987090 0.904908 -0.152949
2599950420 0.907315 -0.146976
2602913750 0.904599 -0.154473
2605877080 0.899821 -0.15178
2608840410 0.894471 -0.150913
2611803740 0.887798 -0.148462
2614767070 0.89192 -0.154298
2617730400 0.899346 -0.154097
2620693730 0.901301 -0.154228
2623657060 0.901764 -0.162169
2626620390 0.901864 -0.158786
2629583720 0.899022 -0.161152
2632547050 0.895453 -0.158654
2635510380 0.891631 -0.16321
2638473710 0.885306 -0.161991
2641437040 0.878581 -0.163193
2644400370 0.88416 -0.163943
2647363700 0.889737 -0.16211
2650327030 0.892625 -0.170799
2653290360 0.894704 -0.167424
2656253690 0.903058 -0.158829
2659217020 0.899386 -0.165877
2662180350 0.89754 -0.156153
2665143680 0.895016 -0.160444
2668107010 0.883986 -0.158391
2671070340 0.879307 -0.156349
2674033670 0.897158 -0.157734
2676997000 0.890303 -0.16165
2679960330 0.902165 -0.159142
2682923660 0.90194 -0.160537
2685886990 0.902909 -0.163653
2688850320 0.903721 -0.166667
2691813650 0.902053 -0.165862
2694776980 0.891707 -0.166025
2697740310 0.897942 -0.16429
2700703640 0.894361 -0.158518
2703666970 0.902 -0.164461
2706630300 0.913113 -0.15488
2709593630 0.901451 -0.174627
2712556960 0.915844 -0.152634
2715520290 0.920676 -0.154244
2718483620 0.907292 -0.16281
2721446950 0.911282 -0.150745
2724410280 0.913472 -0.163542
2727373610 0.90183 -0.160767
2730336940 0.88703 -0.157893
2733300270 0.892503 -0.152101
2736263600 0.904646 -0.15569
2739226930 0.897187 -0.162513
2742190260 0.900917 -0.165001
2745153590 0.914768 -0.155941
2748116920 0.906031 -0.160714
2751080250 0.899291 -0.15797
2754043580 0.901569 -0.157882
2757006910 0.887126 -0.162179
2759970240 0.879388 -0.167045
2762933570 0.893128 -0.15519
2765896900 0.899189 -0.159725
2768860230 0.896676 -0.177731
2771823560 0.897924 -0.171849
2774786890 0.89959 -0.169
2777750220 0.908512 -0.155778
2780713550 0.902177 -0.170845
2783676880 0.883604 -0.185212
2786640210 0.885907 -0.176537
2789603540 0.883365 -0.175808
2792566870 0.885012 -0.171685
2795530200 0.897813 -0.179028
2798493530 0.893621 -0.191224
2801456860 0.904454 -0.174273
2804420190 0.903743 -0.185258
2807383520 0.915698 -0.162003
2810346850 0.900007 -0.184857
2813310180 0.905683 -0.181189
2816273510 0.891464 -0.171968
2819236840 0.894082 -0.169269
2822200170 0.879186 -0.188155
2825163500 0.89525 -0.185448
2828126830 0.909508 -0.191196
2831090160 0.908669 -0.177924
2834053490 0.917519 -0.181039
2837016820 0.91255 -0.173844
2839980150 0.908158 -0.175401
2842943480 0.908282 -0.168515
2845906810 0.902654 -0.145823
2848870140 0.895147 -0.171128
2851833470 0.896416 -0.172203
2854796800 0.903544 -0.161831
2857760130 0.903169 -0.167998
2860723460 0.909017 -0.181156
2863686790 0.915961 -0.167766
2866650120 0.915163 -0.181592
2869613450 0.908809 -0.175327
2872576780 0.902025 -0.187039
2875540110 0.899743 -0.159705
2878503440 0.891779 -0.159748
2881466770 0.895672 -0.184107
2884430100 0.89379 -0.170164
2887393430 0.90523 -0.181546
2890356760 0.911919 -0.169841
2893320090 0.895403 -0.170865
2896283420 0.907593 -0.183861
2899246750 0.902324 -0.178259
2902210080 0.902184 -0.185893
2905173410 0.886979 -0.176472
2908136740 0.886923 -0.172605
2911100070 0.879944 -0.167239
2914063400 0.892114 -0.177547
2917026730 0.894751 -0.181975
2919990060 0.897509 -0.179188
2922953390 0.898227 -0.177556
2925916720 0.894511 -0.170934
2928880050 0.8972 -0.173416
2931843380 0.88991 -0.173045
2934806710 0.885033 -0.161392
2937770040 0.8784 -0.163166
2940733370 0.877718 -0.160598
2943696700 0.885785 -0.164917
2946660030 0.882647 -0.166168
2949623360 0.890832 -0.173425
2952586690 0.884156 -0.16861
2955550020 0.893849 -0.1713
2958513350 0.889387 -0.171313
2961476680 0.889638 -0.168998
2964440010 0.883784 -0.167061
2967403340 0.876632 -0.171117
2970366670 0.872848 -0.173763
2973330000 0.881258 -0.168682
2976293330 0.884843 -0.170931
2979256660 0.886829 -0.16636
2982219990 0.89067 -0.167474
2985183320 0.890381 -0.165062
2988146650 0.883375 -0.168445
2991109980 0.885764 -0.16943
2994073310 0.884623 -0.161513
2997036640 0.876272 -0.161571
2999999970 0.86995 -0.150566
