# HZ S RI R 50
10000000 0.997317 -0.002581
12963330 1.001036 -0.007179
15926660 1.005085 -0.010591
18889990 1.009988 -0.014916
21853320 1.014051 -0.015815
24816650 1.01505 -0.018715
27779980 1.014341 -0.019052
30743310 1.011778 -0.019615
33706640 1.008644 -0.018483
36669970 1.003329 -0.018155
39633300 0.993565 -0.017596
42596630 1.00103 -0.021317
45559960 1.007368 -0.023937
48523290 1.010952 -0.026964
51486620 1.013592 -0.029212
54449950 1.014899 -0.028836
57413280 1.013364 -0.027429
60376610 1.010851 -0.028282
63339940 1.00488 -0.026907
66303270 0.998439 -0.025901
69266600 0.989809 -0.02592
72229930 0.993566 -0.02868
75193260 0.999225 -0.031032
78156590 1.00022 -0.04884
81119920 0.996778 -0.066685
84083250 0.990618 -0.086326
87046580 0.997298 -0.069603
90009910 0.985894 -0.085414
92973240 0.990206 -0.068548
95936570 0.975921 -0.08454
98899900 0.976787 -0.068549
101863230 0.986523 -0.034185
104826560 0.990193 -0.036204
107789890 0.994321 -0.037549
110753220 0.997355 -0.037804
113716550 0.997286 -0.038545
116679880 0.995841 -0.037621
119643210 0.994619 -0.035339
122606540 0.989222 -0.037093
125569870 0.987015 -0.034954
128533200 0.976978 -0.034064
131496530 0.980901 -0.035498
134459860 0.989288 -0.036095
137423190 0.981115 -0.046465
140386520 0.983887 -0.046425
143349850 0.986686 -0.046264
146313180 0.987831 -0.044577
149276510 0.985966 -0.042094
152239840 0.984583 -0.040689
155203170 0.979409 -0.038054
158166500 0.975149 -0.036466
161129830 0.975074 -0.036825
164093160 0.981259 -0.038545
167056490 0.985969 -0.037598
170019820 0.986959 -0.037515
172983150 0.98826 -0.037757
175946480 0.989255 -0.03636
178909810 0.990876 0.001472
181873140 0.982037 -0.036863
184836470 0.977511 -0.035665
187799800 0.971695 -0.037966
190763130 0.971172 -0.038205
193726460 0.977587 -0.039205
196689790 0.982274 -0.038223
199653120 0.985473 -0.038334
202616450 0.987114 -0.038191
205579780 0.987004 -0.036862
208543110 0.984679 -0.036229
211506440 0.982093 -0.037834
214469770 0.975243 -0.035821
217433100 0.969348 -0.039162
220396430 0.968153 -0.039398
223359760 0.976177 -0.039469
226323090 0.98065 -0.03871
229286420 0.984859 -0.039053
232249750 0.986093 -0.038415
235213080 0.986826 -0.03747
238176410 0.983473 -0.038307
241139740 0.980981 -0.03943
244103070 0.975907 -0.03848
247066400 0.968655 -0.040729
250029730 0.964844 -0.04094
252993060 0.972877 -0.042238
255956390 0.97936 -0.042695
258919720 0.983985 -0.041741
261883050 0.985827 -0.041599
264846380 0.987066 -0.040765
267809710 0.985092 -0.04049
270773040 0.980808 -0.039872
273736370 0.975904 -0.040371
276699700 0.967556 -0.042858
279663030 0.963715 -0.043466
282626360 0.970986 -0.045285
285589690 0.982603 -0.044839
288553020 0.981514 -0.043349
291516350 0.98505 -0.041716
294479680 0.985485 -0.04219
297443010 0.983217 -0.040697
300406340 0.978869 -0.040409
303369670 0.972872 -0.040952
306333000 0.966339 -0.041055
309296330 0.958892 -0.044658
312259660 0.967965 -0.044678
315222990 0.973389 -0.047167
318186320 0.979361 -0.045296
321149650 0.982379 -0.045958
324112980 0.983192 -0.046735
327076310 0.982991 -0.04627
330039640 0.979297 -0.046118
333002970 0.974276 -0.045786
335966300 0.966261 -0.047051
338929630 0.95699 -0.04667
341892960 0.965313 -0.047874
344856290 0.972783 -0.04936
347819620 0.978677 -0.051365
350782950 0.981907 -0.05063
353746280 0.983151 -0.050466
356709610 0.898655 -0.110118
359672940 0.977472 -0.050303
362636270 0.972511 -0.047995
365599600 0.964088 -0.048628
368562930 0.956676 -0.048226
371526260 0.963584 -0.052882
374489590 0.970691 -0.052592
377452920 0.97471 -0.055348
380416250 0.979019 -0.054289
383379580 0.978495 -0.05423
386342910 0.97946 -0.053463
389306240 0.975343 -0.052637
392269570 0.971871 -0.052274
395232900 0.964908 -0.052177
398196230 0.955855 -0.051086
401159560 0.961457 -0.053339
404122890 0.967879 -0.053779
407086220 0.972316 -0.05453
410049550 0.975821 -0.05354
413012880 0.976933 -0.055674
415976210 0.977089 -0.054044
418939540 0.974926 -0.052052
421902870 0.971294 -0.0513
424866200 0.964075 -0.050266
427829530 0.956079 -0.048258
430792860 0.95868 -0.052795
433756190 0.964322 -0.053584
436719520 0.970902 -0.054663
439682850 0.973245 -0.051935
442646180 0.974297 -0.054336
445609510 0.974327 -0.053904
448572840 0.972445 -0.051734
451536170 0.968767 -0.050602
454499500 0.962004 -0.053181
457462830 0.954354 -0.049778
460426160 0.957058 -0.053424
463389490 0.962617 -0.055481
466352820 0.966051 -0.056117
469316150 0.9689 -0.057536
472279480 0.970426 -0.056161
475242810 0.969972 -0.055714
478206140 0.968464 -0.054986
481169470 0.962411 -0.055075
484132800 0.958331 -0.053432
487096130 0.949788 -0.055578
490059460 0.950574 -0.056799
493022790 0.95851 -0.057465
495986120 0.964515 -0.056998
498949450 0.967624 -0.056332
501912780 0.970254 -0.056815
504876110 0.970145 -0.054245
507839440 0.96793 -0.053791
510802770 0.966417 -0.053607
513766100 0.961169 -0.053868
516729430 0.95417 -0.052503
519692760 0.95449 -0.053168
522656090 0.960877 -0.053872
525619420 0.966501 -0.053888
528582750 0.96918 -0.054033
531546080 0.973009 -0.055276
534509410 0.9716 -0.055908
537472740 0.969406 -0.054919
540436070 0.966641 -0.054694
543399400 0.959591 -0.055004
546362730 0.954109 -0.056695
549326060 0.953384 -0.054156
552289390 0.959541 -0.058883
555252720 0.965684 -0.057653
558216050 0.970349 -0.056157
561179380 0.97511 -0.057196
564142710 0.972089 -0.055871
567106040 0.971911 -0.058526
570069370 0.968771 -0.055078
573032700 0.96231 -0.05745
575996030 0.937574 -0.067679
578959360 0.952801 -0.056868
581922690 0.96259 -0.055542
584886020 0.968365 -0.058517
587849350 0.970236 -0.058305
590812680 0.973087 -0.05852
593776010 0.972844 -0.058296
596739340 0.972548 -0.053877
599702670 0.968694 -0.056189
602666000 0.962728 -0.055926
605629330 0.955831 -0.055914
608592660 0.952652 -0.056214
611555990 0.959852 -0.058409
614519320 0.966624 -0.059659
617482650 0.972053 -0.060705
620445980 0.97485 -0.061207
623409310 0.975617 -0.058276
626372640 0.97487 -0.059708
629335970 0.971336 -0.056157
632299300 0.965113 -0.056142
635262630 0.960701 -0.05478
638225960 0.951943 -0.057371
641189290 0.959386 -0.059136
644152620 0.968006 -0.061032
647115950 0.970576 -0.060176
650079280 0.978374 -0.04207
653042610 0.977572 -0.046001
656005940 0.979357 -0.026434
658969270 0.975699 -0.043692
661932600 0.96736 -0.040617
664895930 0.961611 -0.039688
667859260 0.952124 -0.041377
670822590 0.962866 -0.041946
673785920 0.96786 -0.04427
676749250 0.974066 -0.04301
679712580 0.97602 -0.04547
682675910 0.9779 -0.049542
685639240 0.977681 -0.045476
688602570 0.973561 -0.043308
691565900 0.969489 -0.042683
694529230 0.964097 -0.043523
697492560 0.953642 -0.041337
700455890 0.963817 -0.040114
703419220 0.965204 -0.060867
706382550 0.970648 -0.045533
709345880 0.973038 -0.063818
712309210 0.976696 -0.049619
715272540 0.970729 -0.066994
718235870 0.973182 -0.04704
721199200 0.967322 -0.06233
724162530 0.958363 -0.062553
727125860 0.948613 -0.060775
730089190 0.954844 -0.063725
733052520 0.963635 -0.064152
736015850 0.965146 -0.06367
738979180 0.969077 -0.062986
741942510 0.970635 -0.063017
744905840 0.97035 -0.064852
747869170 0.966283 -0.063091
750832500 0.962908 -0.060104
753795830 0.958788 -0.060522
756759160 0.949666 -0.060422
759722490 0.95406 -0.063488
762685820 0.959453 -0.064528
765649150 0.96358 -0.064649
768612480 0.968445 -0.061741
771575810 0.969164 -0.063533
774539140 0.967854 -0.065026
777502470 0.96713 -0.060067
780465800 0.964435 -0.059992
783429130 0.956608 -0.061354
786392460 0.949687 -0.06148
789355790 0.953287 -0.060419
792319120 0.959766 -0.064485
795282450 0.964592 -0.065805
798245780 0.96736 -0.063986
801209110 0.968057 -0.062961
804172440 0.966174 -0.066292
807135770 0.965099 -0.063389
810099100 0.960826 -0.066352
813062430 0.955403 -0.068027
816025760 0.949598 -0.065626
818989090 0.948201 -0.06877
821952420 0.954778 -0.067969
824915750 0.960527 -0.066747
827879080 0.964541 -0.070378
830842410 0.966901 -0.069347
833805740 0.96413 -0.070333
836769070 0.962991 -0.068535
839732400 0.960203 -0.065687
842695730 0.952356 -0.070247
845659060 0.946316 -0.068156
848622390 0.946068 -0.067767
851585720 0.954676 -0.072441
854549050 0.960193 -0.074076
857512380 0.961972 -0.077083
860475710 0.965131 -0.072776
863439040 0.963772 -0.075451
866402370 0.963086 -0.073501
869365700 0.959298 -0.075583
872329030 0.954878 -0.072321
875292360 0.945911 -0.075457
878255690 0.944535 -0.073358
881219020 0.951738 -0.076072
884182350 0.958282 -0.080363
887145680 0.963661 -0.07997
890109010 0.966649 -0.081739
893072340 0.965079 -0.082636
896035670 0.964559 -0.077395
898999000 0.961052 -0.078257
901962330 0.954999 -0.077456
904925660 0.948949 -0.079846
907888990 0.944754 -0.075218
910852320 0.954396 -0.080098
913815650 0.958905 -0.079332
916778980 0.960648 -0.083164
919742310 0.96437 -0.082369
922705640 0.962087 -0.081317
925668970 0.964629 -0.075241
928632300 0.958235 -0.075878
931595630 0.952408 -0.078231
934558960 0.945868 -0.069691
937522290 0.94001 -0.073521
940485620 0.947521 -0.077157
943448950 0.952329 -0.076959
946412280 0.852496 -0.136309
949375610 0.959331 -0.080802
952338940 0.960917 -0.078954
955302270 0.960065 -0.078157
958265600 0.957452 -0.072437
961228930 0.951591 -0.075547
964192260 0.945004 -0.072866
967155590 0.940693 -0.073269
970118920 0.948007 -0.079228
973082250 0.95207 -0.077811
976045580 0.958703 -0.08361
979008910 0.959764 -0.086881
981972240 0.960383 -0.08614
984935570 0.960447 -0.078222
987898900 0.957845 -0.08088
990862230 0.955006 -0.078664
993825560 0.949021 -0.074624
996788890 0.940012 -0.078143
999752220 0.951238 -0.078037
1002715550 0.953213 -0.077214
1005678880 0.959177 -0.079998
1008642210 0.960209 -0.079436
1011605540 0.959148 -0.075302
1014568870 0.959313 -0.079665
1017532200 0.957565 -0.076778
1020495530 0.953649 -0.075821
1023458860 0.946439 -0.075679
1026422190 0.938305 -0.074912
1029385520 0.945684 -0.076828
1032348850 0.950817 -0.077053
1035312180 0.955567 -0.076222
1038275510 0.959564 -0.079685
1041238840 0.960157 -0.078894
1044202170 0.959354 -0.073868
1047165500 0.958437 -0.079832
1050128830 0.955364 -0.07706
1053092160 0.974124 -0.022036
1056055490 0.942191 -0.074043
1059018820 0.948726 -0.07913
1061982150 0.953805 -0.077214
1064945480 0.956336 -0.07691
1067908810 0.960387 -0.076922
1070872140 0.961565 -0.076457
1073835470 0.963206 -0.073084
1076798800 0.958631 -0.075314
1079762130 0.954501 -0.077958
1082725460 0.950886 -0.074205
1085688790 0.943901 -0.073645
1088652120 0.94702 -0.075613
1091615450 0.954547 -0.071667
1094578780 0.958992 -0.07966
1097542110 0.960534 -0.076805
1100505440 0.96165 -0.071733
1103468770 0.960491 -0.07339
1106432100 0.959771 -0.073998
1109395430 0.956546 -0.073823
1112358760 0.9488 -0.073982
1115322090 0.941782 -0.073523
1118285420 0.943669 -0.074144
1121248750 0.952442 -0.077115
1124212080 0.95396 -0.081623
1127175410 0.957443 -0.075273
1130138740 0.959184 -0.076679
1133102070 0.95992 -0.078339
1136065400 0.956653 -0.08074
1139028730 0.954155 -0.081388
1141992060 0.945896 -0.08131
1144955390 0.940915 -0.086291
1147918720 0.942143 -0.083631
1150882050 0.948341 -0.089437
1153845380 0.958584 -0.085479
1156808710 0.95823 -0.088726
1159772040 0.961366 -0.085884
1162735370 0.961923 -0.086139
1165698700 0.961595 -0.08174
1168662030 0.956778 -0.08693
1171625360 0.953239 -0.084346
1174588690 0.943331 -0.083819
1177552020 0.943881 -0.089619
1180515350 0.95023 -0.089364
1183478680 0.953902 -0.08803
1186442010 0.955902 -0.094372
1189405340 0.963615 -0.091203
1192368670 0.959819 -0.088091
1195332000 0.959374 -0.085679
1198295330 0.955921 -0.087069
1201258660 0.949354 -0.087815
1204221990 0.942118 -0.091098
1207185320 0.940296 -0.089338
1210148650 0.947372 -0.094105
1213111980 0.953626 -0.094671
1216075310 0.956831 -0.095283
1219038640 0.957433 -0.096559
1222001970 0.958979 -0.101804
1224965300 0.958072 -0.094535
1227928630 0.952152 -0.093924
1230891960 0.946758 -0.100851
1233855290 0.936129 -0.097396
1236818620 0.937684 -0.09589
1239781950 0.942959 -0.099796
1242745280 0.949986 -0.103697
1245708610 0.955128 -0.101863
1248671940 0.957798 -0.105863
1251635270 0.958539 -0.101691
1254598600 0.957249 -0.101607
1257561930 0.952718 -0.099854
1260525260 0.947141 -0.097916
1263488590 0.939345 -0.095508
1266451920 0.935171 -0.091059
1269415250 0.941899 -0.102882
1272378580 0.945351 -0.104762
1275341910 0.951363 -0.104495
1278305240 0.95358 -0.106094
1281268570 0.954769 -0.106905
1284231900 0.951912 -0.104244
1287195230 0.947401 -0.109637
1290158560 0.941678 -0.099198
1293121890 0.933578 -0.100017
1296085220 0.931317 -0.101254
1299048550 0.937002 -0.100366
1302011880 0.942124 -0.104535
1304975210 0.948036 -0.103165
1307938540 0.94568 -0.110253
1310901870 0.949258 -0.106222
1313865200 0.948066 -0.105552
1316828530 0.947431 -0.108872
1319791860 0.94169 -0.102203
1322755190 0.933886 -0.101233
1325718520 0.929931 -0.096372
1328681850 0.933638 -0.103873
1331645180 0.939514 -0.10345
1334608510 0.945117 -0.103416
1337571840 0.947956 -0.108074
1340535170 0.944155 -0.106303
1343498500 0.945272 -0.108927
1346461830 0.944913 -0.102885
1349425160 0.939971 -0.105279
1352388490 0.933614 -0.104833
1355351820 0.925901 -0.100604
1358315150 0.934662 -0.103881
1361278480 0.937364 -0.10844
1364241810 0.943189 -0.099562
1367205140 0.944889 -0.110857
1370168470 0.947113 -0.101822
1373131800 0.950353 -0.101859
1376095130 0.948737 -0.103944
1379058460 0.942697 -0.103263
1382021790 0.940865 -0.101758
1384985120 0.934123 -0.103398
1387948450 0.941181 -0.098484
1390911780 0.945065 -0.10239
1393875110 0.949577 -0.100795
1396838440 0.949624 -0.100015
1399801770 0.947189 -0.102381
1402765100 0.948924 -0.09599
1405728430 0.945809 -0.105709
1408691760 0.945528 -0.10118
1411655090 0.934947 -0.098923
1414618420 0.92978 -0.105082
1417581750 0.938045 -0.106192
1420545080 0.944786 -0.105193
1423508410 0.944751 -0.107305
1426471740 0.950178 -0.103316
1429435070 0.957831 -0.104597
1432398400 0.944891 -0.103653
1435361730 0.94866 -0.100849
1438325060 0.940243 -0.104863
1441288390 0.939505 -0.1038
1444251720 0.931284 -0.10819
1447215050 0.933107 -0.10555
1450178380 0.941201 -0.110333
1453141710 0.946256 -0.108981
1456105040 0.950824 -0.103808
1459068370 0.953531 -0.099396
1462031700 0.95373 -0.098192
1464995030 0.949803 -0.101003
1467958360 0.947024 -0.095062
1470921690 0.94301 -0.094543
1473885020 0.933891 -0.098235
1476848350 0.93598 -0.096968
1479811680 0.943077 -0.094831
1482775010 0.946633 -0.101068
1485738340 0.950902 -0.095879
1488701670 0.954298 -0.094818
1491665000 0.954685 -0.095322
1494628330 0.951893 -0.095215
1497591660 0.949375 -0.098833
1500554990 0.940812 -0.100928
1503518320 0.935104 -0.099539
1506481650 0.933543 -0.102179
1509444980 0.941008 -0.106067
1512408310 0.947622 -0.105157
1515371640 0.951823 -0.107499
1518334970 0.952778 -0.106343
1521298300 0.952056 -0.106298
1524261630 0.950298 -0.107145
1527224960 0.946251 -0.110386
1530188290 0.940132 -0.106675
1533151620 0.934262 -0.103387
1536114950 0.931763 -0.110898
1539078280 0.942886 -0.107642
1542041610 0.950499 -0.107697
1545004940 0.953157 -0.112295
1547968270 1.090671 -0.095142
1550931600 0.95484 -0.107604
1553894930 0.952424 -0.107954
1556858260 0.94874 -0.105134
1559821590 0.943406 -0.104615
1562784920 0.936132 -0.109895
1565748250 0.932432 -0.111987
1568711580 0.93893 -0.110113
1571674910 0.94471 -0.112471
1574638240 0.948597 -0.118484
1577601570 0.951266 -0.117198
1580564900 0.952408 -0.117908
1583528230 0.951037 -0.114908
1586491560 0.946109 -0.113303
1589454890 0.943051 -0.105767
1592418220 0.932888 -0.109584
1595381550 0.926209 -0.114139
1598344880 0.934222 -0.109971
1601308210 0.941323 -0.118152
1604271540 0.945702 -0.115492
1607234870 0.949295 -0.119051
1610198200 0.944425 -0.123181
1613161530 0.943688 -0.118715
1616124860 0.943067 -0.120474
1619088190 0.93855 -0.11939
1622051520 0.929265 -0.115185
1625014850 0.924662 -0.114519
1627978180 0.92863 -0.1192
1630941510 0.934991 -0.119614
1633904840 0.941858 -0.118809
1636868170 0.941219 -0.122674
1639831500 0.9437 -0.114585
1642794830 0.943102 -0.118322
1645758160 0.941643 -0.112168
1648721490 0.93495 -0.113994
1651684820 0.92787 -0.11269
1654648150 0.98592 -0.05039
1657611480 0.9276 -0.108984
1660574810 0.931931 -0.115107
1663538140 0.936764 -0.117945
1666501470 0.940077 -0.114676
1669464800 0.939097 -0.119027
1672428130 0.938899 -0.118061
1675391460 0.936058 -0.115279
1678354790 0.930886 -0.116811
1681318120 0.924196 -0.117061
1684281450 0.917708 -0.11913
1687244780 0.922982 -0.117447
1690208110 0.929177 -0.120995
1693171440 0.933144 -0.120498
1696134770 0.936096 -0.127547
1699098100 0.937082 -0.126808
1702061430 0.937879 -0.119945
1705024760 0.934286 -0.129584
1707988090 0.930676 -0.124627
1710951420 0.924237 -0.116064
1713914750 0.918391 -0.116774
1716878080 0.923734 -0.123732
1719841410 0.928849 -0.118884
1722804740 0.932571 -0.124354
1725768070 0.932459 -0.129138
1728731400 0.934154 -0.124252
1731694730 0.933899 -0.12864
1734658060 0.934194 -0.125286
1737621390 0.928109 -0.120827
1740584720 0.923918 -0.126432
1743548050 0.916867 -0.12664
1746511380 0.9213 -0.128632
1749474710 0.927731 -0.123413
1752438040 0.931863 -0.131328
1755401370 0.936412 -0.131818
1758364700 0.933452 -0.132362
1761328030 0.938614 -0.125535
1764291360 0.9332 -0.125573
1767254690 0.933153 -0.124414
1770218020 0.926331 -0.128726
1773181350 0.919869 -0.127819
1776144680 0.921372 -0.127814
1779108010 0.927779 -0.126239
1782071340 0.936977 -0.126486
1785034670 0.940465 -0.132219
1787998000 0.945385 -0.12149
1790961330 0.938533 -0.124984
1793924660 0.93366 -0.121519
1796887990 0.931241 -0.126068
1799851320 0.927397 -0.123435
1802814650 0.919682 -0.120673
1805777980 0.923096 -0.11829
1808741310 0.932453 -0.116556
1811704640 0.93521 -0.123726
1814667970 0.940162 -0.124864
1817631300 0.939005 -0.129426
1820594630 0.941341 -0.120481
1823557960 0.935434 -0.123037
1826521290 0.939259 -0.114873
1829484620 0.928721 -0.121744
1832447950 0.927204 -0.114056
1835411280 0.922541 -0.121418
1838374610 0.925274 -0.127608
1841337940 0.932406 -0.114991
1844301270 0.938189 -0.125554
1847264600 0.942663 -0.112999
1850227930 0.940649 -0.127136
1853191260 0.934619 -0.120459
1856154590 0.934898 -0.124054
1859117920 0.927435 -0.117663
1862081250 0.923291 -0.118247
1865044580 0.919088 -0.12119
1868007910 0.929798 -0.116885
1870971240 0.934355 -0.125899
1873934570 0.935615 -0.12739
1876897900 0.942844 -0.118666
1879861230 0.941076 -0.124208
1882824560 0.940552 -0.11968
1885787890 0.934785 -0.119613
1888751220 0.9298 -0.119185
1891714550 0.923055 -0.116802
1894677880 0.91937 -0.115475
1897641210 0.926351 -0.119991
1900604540 0.933736 -0.120171
1903567870 0.933999 -0.126412
1906531200 0.936177 -0.125357
1909494530 0.937548 -0.120073
1912457860 0.935579 -0.120451
1915421190 0.934338 -0.118707
1918384520 0.93036 -0.113953
1921347850 0.92141 -0.120891
1924311180 0.915213 -0.118365
1927274510 0.92354 -0.119944
1930237840 0.930399 -0.12309
1933201170 0.933992 -0.126293
1936164500 0.935565 -0.12212
1939127830 0.935887 -0.115003
1942091160 0.934642 -0.122273
1945054490 0.932287 -0.117201
1948017820 0.925839 -0.115874
1950981150 0.918668 -0.122729
1953944480 0.912116 -0.114683
1956907810 0.923326 -0.116523
1959871140 0.926633 -0.121216
1962834470 0.93191 -0.117287
1965797800 0.933022 -0.122537
1968761130 0.933224 -0.125858
1971724460 0.93125 -0.125119
1974687790 0.930932 -0.118532
1977651120 0.927832 -0.123933
1980614450 0.920313 -0.120483
1983577780 0.912854 -0.118485
1986541110 0.926171 -0.11955
1989504440 0.932239 -0.127646
1992467770 0.927153 -0.134861
1995431100 0.932086 -0.121623
1998394430 0.931587 -0.127569
2001357760 0.936516 -0.123323
2004321090 0.926952 -0.128706
2007284420 0.925999 -0.129652
2010247750 0.917379 -0.122717
2013211080 0.91326 -0.128771
2016174410 0.919229 -0.132079
2019137740 0.921105 -0.138848
2022101070 0.928864 -0.133195
2025064400 0.930816 -0.13044
2028027730 0.931089 -0.128011
2030991060 0.937188 -0.125076
2033954390 0.929541 -0.122488
2036917720 0.923493 -0.130077
2039881050 0.921404 -0.11999
2042844380 0.91476 -0.11499
2045807710 0.920325 -0.124259
2048771040 0.924656 -0.120205
2051734370 0.928094 -0.126863
2054697700 0.92813 -0.123297
2057661030 0.934103 -0.1295
2060624360 0.930976 -0.131563
2063587690 0.928768 -0.132596
2066551020 0.92348 -0.134275
2069514350 0.915259 -0.128321
2072477680 0.911201 -0.126926
2075441010 0.917448 -0.128188
2078404340 0.920591 -0.121966
2081367670 0.925907 -0.128292
2084331000 0.928708 -0.126755
2087294330 0.929121 -0.138948
2090257660 0.929834 -0.139415
2093220990 0.927716 -0.132368
2096184320 0.920413 -0.134174
2099147650 0.919085 -0.132081
2102110980 0.909247 -0.138787
2105074310 0.915001 -0.128818
2108037640 0.921082 -0.132445
2111000970 0.923989 -0.132425
2113964300 0.927224 -0.133117
2116927630 0.931994 -0.13523
2119890960 0.927983 -0.137124
2122854290 0.927618 -0.126773
2125817620 0.923187 -0.130535
2128780950 0.918507 -0.127494
2131744280 0.912848 -0.12587
2134707610 0.913615 -0.133261
2137670940 0.920359 -0.131442
2140634270 0.922511 -0.134382
2143597600 0.924285 -0.105352
2146560930 0.926899 -0.136389
2149524260 0.927757 -0.134785
2152487590 0.925894 -0.136023
2155450920 0.924719 -0.134551
2158414250 0.919115 -0.14045
2161377580 0.914425 -0.132138
2164340910 0.910909 -0.138332
2167304240 0.919015 -0.136407
2170267570 0.924521 -0.137469
2173230900 0.926565 -0.138699
2176194230 0.928968 -0.134994
2179157560 0.928523 -0.131042
2182120890 0.931249 -0.128184
2185084220 0.92372 -0.136211
2188047550 0.916505 -0.132181
2191010880 0.911553 -0.133595
2193974210 0.908801 -0.126107
2196937540 0.914373 -0.136385
2199900870 0.919307 -0.134918
2202864200 0.92632 -0.132588
2205827530 0.929197 -0.138708
2208790860 0.930478 -0.144051
2211754190 0.92457 -0.134785
2214717520 0.916314 -0.138517
2217680850 0.915465 -0.13723
2220644180 0.908723 -0.133706
2223607510 0.909805 -0.137466
2226570840 0.914632 -0.139173
2229534170 0.91907 -0.138421
2232497500 0.925442 -0.135845
2235460830 0.923928 -0.14028
2238424160 0.926473 -0.14097
2241387490 0.915267 -0.142514
2244350820 0.922034 -0.141278
2247314150 0.916326 -0.142396
2250277480 1.03064 -0.114313
2253240810 0.905743 -0.135306
2256204140 0.908091 -0.144093
2259167470 0.92113 -0.141359
2262130800 0.919613 -0.147356
2265094130 0.922409 -0.142985
2268057460 0.920568 -0.147329
2271020790 0.921296 -0.14583
2273984120 0.921063 -0.145164
2276947450 0.914117 -0.142926
2279910780 0.913873 -0.137569
2282874110 0.915017 -0.140894
2285837440 0.910836 -0.140385
2288800770 0.918909 -0.14314
2291764100 0.91947 -0.136421
2294727430 0.925219 -0.137303
2297690760 0.921547 -0.146123
2300654090 0.926664 -0.142855
2303617420 0.919321 -0.141444
2306580750 0.91728 -0.132881
2309544080 0.912859 -0.129132
2312507410 0.908164 -0.1335
2315470740 0.907618 -0.138513
2318434070 0.915854 -0.136864
2321397400 0.923645 -0.136367
2324360730 0.925512 -0.13191
2327324060 0.923261 -0.143383
2330287390 0.92106 -0.136834
2333250720 0.916029 -0.143914
2336214050 0.916186 -0.14335
2339177380 0.917576 -0.130889
2342140710 0.902913 -0.149331
2345104040 0.915199 -0.130979
2348067370 0.921609 -0.141335
2351030700 0.916402 -0.144818
2353994030 0.917512 -0.141008
2356957360 0.921644 -0.135767
2359920690 0.914096 -0.146727
2362884020 0.918613 -0.142076
2365847350 0.91604 -0.133612
2368810680 0.914152 -0.137006
2371774010 0.897274 -0.146093
2374737340 0.906209 -0.145594
2377700670 0.907725 -0.155115
2380664000 0.917232 -0.150074
2383627330 0.915922 -0.143099
2386590660 0.911674 -0.155182
2389553990 0.923547 -0.140213
2392517320 0.923975 -0.143787
2395480650 0.903821 -0.155459
2398443980 0.904808 -0.154561
2401407310 0.89905 -0.143393
2404370640 0.906776 -0.143393
2407333970 0.909216 -0.151107
2410297300 0.91343 -0.152602
2413260630 0.914566 -0.147627
2416223960 0.915602 -0.152461
2419187290 0.914535 -0.144926
2422150620 0.913747 -0.14573
2425113950 0.912113 -0.14767
2428077280 0.903286 -0.146485
2431040610 0.898579 -0.142007
2434003940 0.897576 -0.15558
2436967270 0.907857 -0.149198
2439930600 0.915991 -0.145897
2442893930 0.909079 -0.159718
2445857260 0.915484 -0.153231
2448820590 0.920277 -0.152961
2451783920 0.913287 -0.153501
2454747250 0.912394 -0.148923
2457710580 0.906869 -0.142278
2460673910 0.892665 -0.144108
2463637240 0.904873 -0.154796
2466600570 0.909388 -0.155294
2469563900 0.917774 -0.159757
2472527230 0.914525 -0.155108
2475490560 0.923651 -0.159096
2478453890 0.92674 -0.144309
2481417220 0.918269 -0.142412
2484380550 0.9197 -0.149997
2487343880 0.907819 -0.14524
2490307210 0.901272 -0.150544
2493270540 0.907598 -0.151841
2496233870 0.905455 -0.155769
2499197200 0.913697 -0.143345
2502160530 0.918502 -0.141737
2505123860 0.918884 -0.152961
2508087190 0.918148 -0.154002
2511050520 0.922939 -0.141365
2514013850 0.915547 -0.139351
2516977180 0.908214 -0.13649
2519940510 0.896944 -0.136601
2522903840 0.896993 -0.13727
2525867170 0.902314 -0.130348
2528830500 0.910732 -0.143034
2531793830 0.907855 -0.139788
2534757160 0.915664 -0.145258
2537720490 0.915404 -0.150117
2540683820 0.913446 -0.151434
2543647150 0.915278 -0.153608
2546610480 0.90499 -0.143275
2549573810 0.900575 -0.145863
2552537140 0.90409 -0.150633
2555500470 0.907897 -0.153816
2558463800 0.907815 -0.16244
2561427130 0.917415 -0.154372
2564390460 0.911276 -0.151825
2567353790 0.918607 -0.152947
2570317120 0.914493 -0.149371
2573280450 0.912638 -0.155645
2576243780 0.901676 -0.152536
2579207110 0.899188 -0.143676
2582170440 0.894244 -0.150044
2585133770 0.90447 -0.159515
2588097100 0.907831 -0.159205
2591060430 0.909234 -0.156922
2594023760 0.913567 -0.155146
2596987090 0.907559 -0.159947
2599950420 0.908592 -0.149326
2602913750 0.907148 -0.156318
2605877080 0.900967 -0.153259
2608840410 0.901339 -0.153009
2611803740 0.892038 -0.148229
2614767070 0.899845 -0.154472
2617730400 0.902204 -0.151378
2620693730 0.903526 -0.157566
2623657060 0.902812 -0.162446
2626620390 0.905789 -0.15666
2629583720 0.899458 -0.155702
2632547050 0.899307 -0.16088
2635510380 0.900525 -0.162566
2638473710 0.893454 -0.148208
2641437040 0.883167 -0.166514
2644400370 0.890696 -0.158534
2647363700 0.889494 -0.167974
2650327030 0.893245 -0.165059
2653290360 0.898974 -0.174829
2656253690 0.896903 -0.166831
2659217020 0.897705 -0.163369
2662180350 0.899463 -0.153478
2665143680 0.891185 -0.159489
2668107010 0.883026 -0.160163
2671070340 0.882102 -0.159989
2674033670 0.883468 -0.165213
2676997000 0.897634 -0.160901
2679960330 0.893215 -0.162897
2682923660 0.908989 -0.16456
2685886990 0.902182 -0.161359
2688850320 0.905612 -0.165795
2691813650 0.898786 -0.166633
2694776980 0.904671 -0.159464
2697740310 0.896008 -0.163942
2700703640 0.900987 -0.160374
2703666970 0.902738 -0.168358
2706630300 0.903328 -0.167562
2709593630 0.918252 -0.15976
2712556960 0.900399 -0.17006
2715520290 0.914024 -0.165436
2718483620 0.922546 -0.152504
2721446950 0.910068 -0.158529
2724410280 0.900748 -0.165247
2727373610 0.898112 -0.165395
2730336940 0.894624 -0.150262
2733300270 0.897931 -0.160805
2736263600 0.896506 -0.158107
2739226930 0.913098 -0.161818
2742190260 0.900858 -0.16966
2745153590 0.908228 -0.156605
2748116920 0.906404 -0.15994
2751080250 0.904687 -0.153118
2754043580 0.898171 -0.157111
2757006910 0.898475 -0.152477
2759970240 0.894609 -0.153987
2762933570 0.885827 -0.159927
2765896900 0.891504 -0.165459
2768860230 0.899448 -0.16483
2771823560 0.902306 -0.159431
2774786890 0.898614 -0.165611
2777750220 0.894892 -0.170816
2780713550 0.900992 -0.169354
2783676880 0.897411 -0.174539
2786640210 0.895454 -0.169544
2789603540 0.888403 -0.160632
2792566870 0.890463 -0.174291
2795530200 0.899055 -0.174042
2798493530 0.892888 -0.188972
2801456860 0.898737 -0.190351
2804420190 0.905953 -0.182185
2807383520 0.912753 -0.168646
2810346850 0.907573 -0.18132
2813310180 0.901643 -0.176582
2816273510 0.897493 -0.170124
2819236840 0.886664 -0.161766
2822200170 0.888647 -0.178981
2825163500 0.901348 -0.186807
2828126830 0.90688 -0.187111
2831090160 0.904431 -0.180234
2834053490 0.920712 -0.187226
2837016820 0.916672 -0.17976
2839980150 0.925018 -0.179953
2842943480 0.920926 -0.168827
2845906810 0.92097 -0.172954
2848870140 0.908892 -0.1644
2851833470 0.913021 -0.167781
2854796800 0.915392 -0.169218
2857760130 0.902294 -0.166956
2860723460 0.901981 -0.160173
2863686790 0.916776 -0.178264
2866650120 0.912636 -0.176698
2869613450 0.911121 -0.190155
2872576780 0.918105 -0.17147
2875540110 0.906651 -0.175955
2878503440 0.900169 -0.169438
2881466770 0.891133 -0.170347
2884430100 0.901805 -0.179242
2887393430 0.906334 -0.181726
2890356760 0.900738 -0.187522
2893320090 0.907846 -0.1875
2896283420 0.905435 -0.198375
2899246750 0.899943 -0.177216
2902210080 0.900846 -0.176427
2905173410 0.89604 -0.171858
2908136740 0.888829 -0.178736
2911100070 0.886437 -0.176766
2914063400 0.874907 -0.17584
2917026730 0.896052 -0.183293
2919990060 0.900941 -0.173479
2922953390 0.898666 -0.18307
2925916720 0.900525 -0.183929
2928880050 0.893503 -0.172047
2931843380 0.901188 -0.169309
2934806710 0.887649 -0.163937
2937770040 0.882852 -0.166368
2940733370 0.878266 -0.163526
2943696700 0.880478 -0.173018
2946660030 0.891028 -0.166673
2949623360 0.890013 -0.172513
2952586690 0.889642 -0.171466
2955550020 0.900899 -0.164715
2958513350 0.893256 -0.16706
2961476680 0.887289 -0.172177
2964440010 0.893698 -0.163301
2967403340 0.877059 -0.168644
2970366670 0.871762 -0.163486
2973330000 0.881814 -0.164904
2976293330 0.879455 -0.170108
2979256660 0.88995 -0.167798
2982219990 0.890984 -0.174493
2985183320 0.889896 -0.172534
2988146650 0.890722 -0.17203
2991109980 0.88895 -0.168947
2994073310 0.885125 -0.171124
2997036640 0.88238 -0.156334
2999999970 0.878192 -0.159096
