# HZ S RI R 50
10000000 0.998079 -0.002277
12963330 1.001263 -0.006069
15926660 1.005162 -0.009894
18889990 1.009859 -0.014128
21853320 1.012324 -0.015894
24816650 1.015735 -0.017857
27779980 1.014405 -0.018525
30743310 1.01311 -0.018092
33706640 1.010649 -0.017137
36669970 1.003942 -0.016894
39633300 0.996477 -0.01601
42596630 1.001698 -0.020421
45559960 1.008062 -0.02356
48523290 1.01942 0.00926
51486620 1.015755 -0.02779
54449950 1.016378 -0.027637
57413280 1.015771 -0.028373
60376610 1.012497 -0.027712
63339940 1.00762 -0.028056
66303270 1.002424 -0.026759
69266600 0.992029 -0.026493
72229930 0.996517 -0.028749
75193260 1.003248 -0.032323
78156590 1.006788 -0.034577
81119920 1.00863 -0.036014
84083250 1.009099 -0.036887
87046580 1.008283 -0.036446
90009910 1.004759 -0.037401
92973240 1.001571 -0.03669
95936570 0.995248 -0.034924
98899900 0.987657 -0.03556
101863230 0.99118 -0.03636
104826560 0.996098 -0.037956
107789890 0.998339 -0.041006
110753220 1.000418 -0.041212
113716550 1.001706 -0.041829
116679880 0.999449 -0.041022
119643210 0.998562 -0.039946
122606540 0.99345 -0.041284
125569870 0.988225 -0.040607
128533200 0.980231 -0.04006
131496530 0.983491 -0.041003
134459860 0.991039 -0.040603
137423190 0.982951 -0.052905
140386520 0.987361 -0.053477
143349850 0.989868 -0.052388
146313180 0.989997 -0.051034
149276510 0.989146 -0.050334
152239840 0.987078 -0.047861
155203170 0.982368 -0.04627
158166500 0.977027 -0.044195
161129830 0.978148 -0.045617
164093160 0.983358 -0.045886
167056490 0.986941 -0.046667
170019820 0.98916 -0.046474
172983150 0.990337 -0.047303
175946480 0.988691 -0.045992
178909810 0.986169 -0.045377
181873140 0.983693 -0.044809
184836470 0.978137 -0.046495
187799800 0.971686 -0.046444
190763130 0.971682 -0.048963
193726460 0.977129 -0.048889
196689790 0.981483 -0.047409
199653120 0.985424 -0.047191
202616450 0.986443 -0.047328
205579780 0.986276 -0.04644
208543110 0.984301 -0.047144
211506440 0.981139 -0.047104
214469770 0.974838 -0.047671
217433100 0.967997 -0.049246
220396430 0.965556 -0.051204
223359760 0.974134 -0.049401
226323090 0.979659 -0.0487
229286420 0.981485 -0.049624
232249750 0.983742 -0.049466
235213080 0.983222 -0.049063
238176410 0.981737 -0.048701
241139740 0.978576 -0.047702
244103070 0.972528 -0.048896
247066400 0.96447 -0.05089
250029730 0.96151 -0.052007
252993060 0.969535 -0.053635
255956390 0.974655 -0.053625
258919720 0.979741 -0.052522
261883050 0.982471 -0.052116
264846380 0.981703 -0.051126
267809710 0.979778 -0.051306
270773040 0.9772 -0.050751
273736370 0.971397 -0.051508
276699700 0.963503 -0.052165
279663030 0.958237 -0.054934
282626360 0.965854 -0.055508
285589690 0.975412 -0.054173
288553020 0.977187 -0.054228
291516350 0.978629 -0.054313
294479680 0.979132 -0.053354
297443010 0.978391 -0.052297
300406340 0.972452 -0.051688
303369670 0.967554 -0.053392
306333000 0.959292 -0.052736
309296330 0.95198 -0.05533
312259660 0.960121 -0.056746
315222990 0.967254 -0.056532
318186320 0.972275 -0.056848
321149650 0.973551 -0.057918
324112980 0.976053 -0.058935
327076310 0.975704 -0.056656
330039640 0.971987 -0.054387
333002970 0.967028 -0.056021
335966300 0.957376 -0.057381
338929630 0.95021 -0.058366
341892960 0.959009 -0.059105
344856290 0.963624 -0.061595
347819620 0.968197 -0.062398
350782950 0.972819 -0.062252
353746280 0.97485 -0.058223
356709610 0.972493 -0.062192
359672940 0.968621 -0.060021
362636270 0.962992 -0.059538
365599600 0.956346 -0.057745
368562930 0.946786 -0.059588
371526260 0.955379 -0.062033
374489590 0.959937 -0.065079
377452920 0.966922 -0.065083
380416250 0.969707 -0.064466
383379580 0.970728 -0.06363
386342910 0.969547 -0.06186
389306240 0.965731 -0.063293
392269570 0.962441 -0.060708
395232900 0.95524 -0.062279
398196230 0.946445 -0.060291
401159560 0.95197 -0.06367
404122890 0.957996 -0.065374
407086220 0.963439 -0.06394
410049550 0.965925 -0.065854
413012880 0.968748 -0.064658
415976210 0.967258 -0.063382
418939540 0.963682 -0.063826
421902870 0.961064 -0.060331
424866200 0.954228 -0.061055
427829530 0.945186 -0.058873
430792860 0.94724 -0.060818
433756190 0.955461 -0.063893
436719520 0.958807 -0.064396
439682850 0.962279 -0.063927
442646180 0.963202 -0.06484
445609510 0.962901 -0.062765
448572840 0.960306 -0.062772
451536170 0.956325 -0.060066
454499500 0.949986 -0.06158
457462830 0.941305 -0.059117
460426160 0.945435 -0.063332
463389490 0.949467 -0.063525
466352820 0.954733 -0.064759
469316150 0.956886 -0.065644
472279480 0.957451 -0.064924
475242810 0.956766 -0.06607
478206140 0.954791 -0.064258
481169470 0.951634 -0.063104
484132800 0.945392 -0.066008
487096130 0.939662 -0.064371
490059460 0.940476 -0.064511
493022790 0.946937 -0.064602
495986120 0.952724 -0.064469
498949450 0.955332 -0.068727
501912780 0.956516 -0.066173
504876110 0.958913 -0.062991
507839440 0.9579 -0.063533
510802770 0.952966 -0.063162
513766100 0.948394 -0.060926
516729430 0.942454 -0.06128
519692760 0.940636 -0.062412
522656090 0.947907 -0.063115
525619420 0.953012 -0.062391
528582750 0.957424 -0.06386
531546080 0.958049 -0.062363
534509410 0.957717 -0.064681
537472740 0.957902 -0.061711
540436070 0.955751 -0.063145
543399400 0.947426 -0.064096
546362730 0.941296 -0.06337
549326060 0.939389 -0.062871
552289390 0.947132 -0.067302
555252720 0.953233 -0.067138
558216050 0.957865 -0.064972
561179380 0.960092 -0.062254
564142710 0.959049 -0.065079
567106040 0.957565 -0.062284
570069370 0.954178 -0.062858
573032700 0.949444 -0.05993
575996030 0.966513 -0.052237
578959360 0.940504 -0.062837
581922690 0.946746 -0.062053
584886020 0.952352 -0.066319
587849350 0.956538 -0.06659
590812680 0.958114 -0.066344
593776010 0.959958 -0.066859
596739340 0.958076 -0.063028
599702670 0.954009 -0.065249
602666000 0.944896 -0.083248
605629330 0.938631 -0.080784
608592660 0.934936 -0.067238
611555990 0.94431 -0.068633
614519320 0.950828 -0.068326
617482650 0.956344 -0.070909
620445980 0.957884 -0.064976
623409310 0.958116 -0.066159
626372640 0.957151 -0.065819
629335970 0.956463 -0.064274
632299300 0.949305 -0.064772
635262630 0.942035 -0.064575
638225960 0.935462 -0.063688
641189290 0.9448 -0.066939
644152620 0.949122 -0.067305
647115950 0.954103 -0.068519
650079280 0.957184 -0.069266
653042610 0.958407 -0.065307
656005940 0.956971 -0.067936
658969270 0.956527 -0.067779
661932600 0.948848 -0.067839
664895930 0.941391 -0.062565
667859260 0.936433 -0.066118
670822590 0.941532 -0.067074
673785920 0.947369 -0.069047
676749250 0.952541 -0.072462
679712580 0.955751 -0.067469
682675910 0.957297 -0.068587
685639240 0.956549 -0.070235
688602570 0.954308 -0.069995
691565900 0.948913 -0.066409
694529230 0.942199 -0.065534
697492560 0.935765 -0.066446
700455890 0.941642 -0.065705
703419220 0.948144 -0.066545
706382550 0.950819 -0.06942
709345880 0.954566 -0.070455
712309210 0.956318 -0.07358
715272540 0.953219 -0.068617
718235870 0.951913 -0.070178
721199200 0.945658 -0.070599
724162530 0.941459 -0.067379
727125860 0.932469 -0.068799
730089190 0.940399 -0.066966
733052520 0.945161 -0.070613
736015850 0.94835 -0.073279
738979180 0.951959 -0.069582
741942510 0.951996 -0.071026
744905840 0.951154 -0.0681
747869170 0.95019 -0.067692
750832500 0.945397 -0.068399
753795830 0.940068 -0.066821
756759160 0.931273 -0.066028
759722490 0.937622 -0.066637
762685820 0.942247 -0.073472
765649150 0.946584 -0.067408
768612480 0.950266 -0.069866
771575810 0.950099 -0.069438
774539140 0.951255 -0.06796
777502470 0.95063 -0.066954
780465800 0.945767 -0.068424
783429130 0.94033 -0.067155
786392460 0.933061 -0.0672
789355790 0.936561 -0.068186
792319120 0.941562 -0.070831
795282450 0.94514 -0.069085
798245780 0.948483 -0.071065
801209110 0.950227 -0.068522
804172440 0.949428 -0.072011
807135770 0.946756 -0.071988
810099100 0.943844 -0.070462
813062430 0.937891 -0.072462
816025760 0.928713 -0.072912
818989090 0.932345 -0.070473
821952420 0.937062 -0.077286
824915750 0.944338 -0.072034
827879080 0.946585 -0.075559
830842410 0.947314 -0.074105
833805740 0.945209 -0.074891
836769070 0.945941 -0.073738
839732400 0.940953 -0.075467
842695730 0.936171 -0.072485
845659060 0.928872 -0.074849
848622390 0.927036 -0.073752
851585720 0.933038 -0.076731
854549050 0.940976 -0.077822
857512380 0.947106 -0.077556
860475710 0.945836 -0.079863
863439040 0.946557 -0.079533
866402370 0.944414 -0.078933
869365700 0.940043 -0.078553
872329030 0.934447 -0.080399
875292360 0.928574 -0.080613
878255690 0.924517 -0.080799
881219020 0.935098 -0.080559
884182350 0.9394 -0.085231
887145680 0.945525 -0.084954
890109010 0.947108 -0.086035
893072340 0.94736 -0.084691
896035670 0.946573 -0.083613
898999000 0.944158 -0.079304
901962330 0.938826 -0.080599
904925660 0.932279 -0.078889
907888990 0.926065 -0.077886
910852320 0.938095 -0.080749
913815650 0.940369 -0.088912
916778980 0.94639 -0.084299
919742310 0.946263 -0.088142
922705640 0.946929 -0.081637
925668970 0.945243 -0.08317
928632300 0.941645 -0.076272
931595630 0.936666 -0.080423
934558960 0.928272 -0.079988
937522290 0.92498 -0.077812
940485620 0.929764 -0.076162
943448950 0.93482 -0.083012
946412280 0.941018 -0.082985
949375610 0.941489 -0.083321
952338940 0.942843 -0.081719
955302270 0.942117 -0.080281
958265600 0.941101 -0.081457
961228930 0.936154 -0.076685
964192260 0.929066 -0.079205
967155590 0.924623 -0.077768
970118920 0.930034 -0.084748
973082250 0.935769 -0.083337
976045580 0.940181 -0.082116
979008910 0.942517 -0.083551
981972240 0.943375 -0.08436
984935570 0.943274 -0.083028
987898900 0.93947 -0.083919
990862230 0.936726 -0.081072
993825560 0.930969 -0.080011
996788890 0.923657 -0.076306
999752220 0.932243 -0.078552
1002715550 0.93543 -0.084257
1005678880 0.939881 -0.085097
1008642210 0.941485 -0.081579
1011605540 0.942338 -0.082327
1014568870 0.942206 -0.078565
1017532200 0.939367 -0.079925
1020495530 0.934542 -0.080749
1023458860 0.927619 -0.078375
1026422190 0.922318 -0.074614
1029385520 0.928963 -0.078781
1032348850 0.933744 -0.079958
1035312180 0.938108 -0.080614
1038275510 0.941994 -0.082915
1041238840 0.942279 -0.081895
1044202170 0.941443 -0.082826
1047165500 0.942255 -0.07911
1050128830 0.937611 -0.077924
1053092160 0.932988 -0.076848
1056055490 0.925515 -0.072907
1059018820 0.930565 -0.077155
1061982150 0.936297 -0.082121
1064945480 0.94108 -0.083464
1067908810 0.939212 -0.093889
1070872140 0.94486 -0.075531
1073835470 0.944269 -0.079351
1076798800 0.942224 -0.0742
1079762130 0.936621 -0.075167
1082725460 0.932331 -0.073843
1085688790 0.927173 -0.076895
1088652120 0.930404 -0.078534
1091615450 0.935924 -0.079089
1094578780 0.940412 -0.079032
1097542110 0.943853 -0.079519
1100505440 0.943886 -0.081486
1103468770 0.942913 -0.074631
1106432100 0.942409 -0.074299
1109395430 0.938354 -0.074887
1112358760 0.934775 -0.073099
1115322090 0.925466 -0.074926
1118285420 0.927551 -0.079708
1121248750 0.932464 -0.075498
1124212080 0.936988 -0.078003
1127175410 0.939366 -0.082061
1130138740 0.942709 -0.082602
1133102070 0.942179 -0.079609
1136065400 0.940561 -0.078966
1139028730 0.934195 -0.08214
1141992060 0.929824 -0.086047
1144955390 0.923828 -0.085509
1147918720 0.926818 -0.086436
1150882050 0.932041 -0.08886
1153845380 0.937582 -0.091732
1156808710 0.943086 -0.089943
1159772040 0.943281 -0.088465
1162735370 0.942928 -0.087957
1165698700 0.942747 -0.085755
1168662030 0.938471 -0.086792
1171625360 0.93278 -0.090871
1174588690 0.924952 -0.085537
1177552020 0.924767 -0.082241
1180515350 0.9315 -0.092415
1183478680 0.942346 -0.090733
1186442010 0.94319 -0.093945
1189405340 0.94547 -0.096208
1192368670 0.944008 -0.094407
1195332000 0.941762 -0.091767
1198295330 0.936669 -0.089508
1201258660 0.933445 -0.087733
1204221990 0.924847 -0.090555
1207185320 0.923982 -0.092734
1210148650 0.92962 -0.095949
1213111980 0.932153 -0.104389
1216075310 0.938215 -0.099728
1219038640 0.941453 -0.099477
1222001970 0.941076 -0.09856
1224965300 0.940045 -0.101264
1227928630 0.93609 -0.101926
1230891960 0.929252 -0.09558
1233855290 0.923437 -0.096072
1236818620 0.916989 -0.097192
1239781950 0.927437 -0.097942
1242745280 0.932694 -0.101993
1245708610 0.936022 -0.105754
1248671940 0.952275 -0.099333
1251635270 0.940367 -0.103689
1254598600 0.938587 -0.103486
1257561930 0.938567 -0.102915
1260525260 0.930551 -0.098806
1263488590 0.921877 -0.093961
1266451920 0.916452 -0.097015
1269415250 0.924297 -0.100541
1272378580 0.928898 -0.103366
1275341910 0.932545 -0.110452
1278305240 0.935751 -0.10555
1281268570 0.934643 -0.10596
1284231900 0.935116 -0.105746
1287195230 0.930222 -0.10956
1290158560 0.925008 -0.103554
1293121890 0.921873 -0.100899
1296085220 0.911612 -0.099046
1299048550 0.919771 -0.10755
1302011880 0.925865 -0.102105
1304975210 0.928773 -0.11025
1307938540 0.930614 -0.113719
1310901870 0.932624 -0.103003
1313865200 0.930254 -0.107044
1316828530 0.928472 -0.109892
1319791860 0.925353 -0.098485
1322755190 0.919917 -0.0993
1325718520 0.91205 -0.096594
1328681850 0.921129 -0.102952
1331645180 0.920266 -0.108154
1334608510 0.927722 -0.105509
1337571840 0.928685 -0.104246
1340535170 0.926747 -0.111891
1343498500 0.926602 -0.106938
1346461830 0.924378 -0.105484
1349425160 0.920149 -0.106882
1352388490 0.915484 -0.101385
1355351820 0.909356 -0.103322
1358315150 0.915583 -0.106859
1361278480 0.91904 -0.109489
1364241810 0.925151 -0.10591
1367205140 0.928327 -0.109437
1370168470 0.931309 -0.105439
1373131800 0.931433 -0.106708
1376095130 0.927731 -0.102074
1379058460 0.92496 -0.102462
1382021790 0.924993 -0.102869
1384985120 0.917076 -0.098462
1387948450 0.920033 -0.100398
1390911780 0.929048 -0.100985
1393875110 0.928187 -0.105032
1396838440 0.93072 -0.103235
1399801770 0.929563 -0.102768
1402765100 0.927394 -0.104559
1405728430 0.929497 -0.103604
1408691760 0.927495 -0.101338
1411655090 0.921448 -0.108218
1414618420 0.914401 -0.100659
1417581750 0.919932 -0.103404
1420545080 0.926792 -0.10024
1423508410 0.926085 -0.102114
1426471740 0.932125 -0.104258
1429435070 0.931915 -0.102497
1432398400 0.933466 -0.106349
1435361730 0.930961 -0.09848
1438325060 0.924936 -0.102957
1441288390 0.922316 -0.104843
1444251720 0.914366 -0.104326
1447215050 0.9164 -0.105026
1450178380 0.924755 -0.10322
1453141710 0.929905 -0.104162
1456105040 0.933841 -0.101013
1459068370 0.934326 -0.102052
1462031700 0.936386 -0.097058
1464995030 0.933336 -0.100385
1467958360 0.929757 -0.095766
1470921690 0.92312 -0.092751
1473885020 0.916309 -0.099471
1476848350 0.91737 -0.099443
1479811680 0.924773 -0.100583
1482775010 0.930732 -0.101322
1485738340 0.933558 -0.095049
1488701670 0.934345 -0.100938
1491665000 0.935726 -0.094643
1494628330 0.933649 -0.095244
1497591660 0.931358 -0.096131
1500554990 0.924721 -0.09749
1503518320 0.917441 -0.095899
1506481650 0.918684 -0.096276
1509444980 0.924339 -0.107733
1512408310 0.932039 -0.099621
1515371640 0.935101 -0.103337
1518334970 0.936185 -0.102316
1521298300 0.935042 -0.104663
1524261630 0.934346 -0.100149
1527224960 0.928297 -0.10829
1530188290 0.926789 -0.099937
1533151620 0.917496 -0.103052
1536114950 0.917889 -0.106523
1539078280 0.922906 -0.110527
1542041610 0.932645 -0.108405
1545004940 0.933528 -0.109193
1547968270 0.936809 -0.107238
1550931600 0.937361 -0.113434
1553894930 0.9363 -0.107728
1556858260 0.931929 -0.107699
1559821590 0.92618 -0.103077
1562784920 0.919234 -0.109367
1565748250 0.916357 -0.11052
1568711580 0.922878 -0.10838
1571674910 0.927348 -0.107552
1574638240 0.935283 -0.111084
1577601570 0.935182 -0.115233
1580564900 0.934166 -0.11576
1583528230 0.933397 -0.108219
1586491560 0.9284 -0.112916
1589454890 0.923173 -0.107251
1592418220 0.914806 -0.108277
1595381550 0.907374 -0.108506
1598344880 0.917116 -0.111156
1601308210 0.924415 -0.107467
1604271540 0.924622 -0.122952
1607234870 0.930447 -0.118563
1610198200 0.930448 -0.115357
1613161530 0.9269 -0.118423
1616124860 0.926701 -0.116973
1619088190 0.91913 -0.113259
1622051520 0.913135 -0.114711
1625014850 0.907748 -0.111552
1627978180 0.9157 -0.113266
1630941510 0.920851 -0.115688
1633904840 0.924795 -0.12277
1636868170 0.928169 -0.11574
1639831500 0.9271 -0.115498
1642794830 0.927036 -0.110605
1645758160 0.924029 -0.113176
1648721490 0.919566 -0.107559
1651684820 0.912088 -0.103309
1654648150 0.905754 -0.106403
1657611480 0.910398 -0.110947
1660574810 0.914169 -0.112424
1663538140 0.917391 -0.115749
1666501470 0.920986 -0.117734
1669464800 0.92142 -0.12038
1672428130 0.920129 -0.117616
1675391460 0.918587 -0.12001
1678354790 0.91356 -0.116902
1681318120 0.905465 -0.115786
1684281450 0.899919 -0.118843
1687244780 0.907054 -0.112276
1690208110 0.910506 -0.120017
1693171440 0.914779 -0.125522
1696134770 0.919712 -0.120418
1699098100 0.919733 -0.120758
1702061430 0.920135 -0.124033
1705024760 0.919138 -0.123561
1707988090 0.912481 -0.125946
1710951420 0.908043 -0.121631
1713914750 0.900574 -0.12001
1716878080 0.90609 -0.12074
1719841410 0.910759 -0.120348
1722804740 0.916949 -0.115693
1725768070 0.920691 -0.12521
1728731400 0.916682 -0.12321
1731694730 0.919202 -0.121081
1734658060 0.919441 -0.11709
1737621390 0.913295 -0.120829
1740584720 0.905811 -0.120036
1743548050 0.902718 -0.12419
1746511380 0.903127 -0.12049
1749474710 0.913056 -0.125135
1752438040 0.915821 -0.124322
1755401370 0.918227 -0.126593
1758364700 0.922039 -0.124471
1761328030 0.918347 -0.127259
1764291360 0.916522 -0.12226
1767254690 0.916157 -0.123574
1770218020 0.910636 -0.121414
1773181350 0.902827 -0.124013
1776144680 0.905197 -0.125932
1779108010 0.913083 -0.12434
1782071340 0.921327 -0.12378
1785034670 0.920593 -0.121577
1787998000 0.924922 -0.118229
1790961330 0.92437 -0.121298
1793924660 0.919584 -0.121214
1796887990 0.917368 -0.119291
1799851320 0.910115 -0.116761
1802814650 0.904144 -0.121888
1805777980 0.906045 -0.116981
1808741310 0.915723 -0.116557
1811704640 0.919863 -0.11804
1814667970 0.921111 -0.120232
1817631300 0.920207 -0.119856
1820594630 0.926199 -0.120847
1823557960 0.925769 -0.116022
1826521290 0.923292 -0.116888
1829484620 0.913312 -0.113497
1832447950 0.904138 -0.111604
1835411280 0.904737 -0.115815
1838374610 0.912479 -0.117421
1841337940 0.917152 -0.12333
1844301270 0.919137 -0.126042
1847264600 0.92283 -0.120658
1850227930 0.927558 -0.118035
1853191260 0.925069 -0.116787
1856154590 0.917141 -0.118743
1859117920 0.910932 -0.121952
1862081250 0.904996 -0.119467
1865044580 0.904439 -0.113037
1868007910 0.910188 -0.120837
1870971240 0.916655 -0.124425
1873934570 0.92451 -0.120841
1876897900 0.922168 -0.116812
1879861230 0.924959 -0.117706
1882824560 0.923312 -0.118646
1885787890 0.919858 -0.113853
1888751220 0.913333 -0.116852
1891714550 0.906067 -0.115187
1894677880 0.903891 -0.113149
1897641210 0.909931 -0.112232
1900604540 0.918556 -0.115487
1903567870 0.91869 -0.119054
1906531200 0.921572 -0.120107
1909494530 0.922015 -0.118737
1912457860 0.91947 -0.119849
1915421190 0.914262 -0.117685
1918384520 0.909748 -0.120999
1921347850 0.902184 -0.115481
1924311180 0.899809 -0.119704
1927274510 0.905533 -0.115897
1930237840 0.911349 -0.117809
1933201170 0.918552 -0.117246
1936164500 0.917641 -0.118511
1939127830 0.922262 -0.11517
1942091160 0.918849 -0.118429
1945054490 0.914056 -0.119178
1948017820 0.910586 -0.115795
1950981150 0.918287 -0.114783
1953944480 0.8994 -0.106863
1956907810 0.905245 -0.11445
1959871140 0.906523 -0.120353
1962834470 0.917359 -0.116151
1965797800 0.911651 -0.123636
1968761130 0.917415 -0.119021
1971724460 0.918678 -0.121397
1974687790 0.917779 -0.117735
1977651120 0.908662 -0.127278
1980614450 0.905753 -0.118319
1983577780 0.897119 -0.125994
1986541110 0.906357 -0.117978
1989504440 0.910086 -0.117608
1992467770 0.915232 -0.125749
1995431100 0.917932 -0.11816
1998394430 0.918213 -0.1173
2001357760 0.912335 -0.127112
2004321090 0.911882 -0.121601
2007284420 0.909812 -0.119449
2010247750 0.901787 -0.115887
2013211080 0.898176 -0.116657
2016174410 0.898875 -0.123097
2019137740 0.905485 -0.117881
2022101070 0.911008 -0.118488
2025064400 0.916083 -0.118428
2028027730 0.914819 -0.123942
2030991060 0.918493 -0.117561
2033954390 0.911423 -0.129239
2036917720 0.911879 -0.106739
2039881050 0.903912 -0.118935
2042844380 0.896773 -0.120218
2045807710 0.897881 -0.117567
2048771040 0.905495 -0.115716
2051734370 0.913797 -0.116627
2054697700 0.912394 -0.119996
2057661030 0.912505 -0.130366
2060624360 0.913456 -0.119729
2063587690 0.913975 -0.120193
2066551020 0.90726 -0.126608
2069514350 0.904821 -0.12523
2072477680 0.894995 -0.123608
2075441010 0.896722 -0.123671
2078404340 0.918929 -0.128677
2081367670 0.908134 -0.125148
2084331000 0.913564 -0.132742
2087294330 0.911391 -0.136251
2090257660 0.910301 -0.134956
2093220990 0.908012 -0.135571
2096184320 0.907254 -0.127756
2099147650 0.898672 -0.129916
2102110980 0.892909 -0.131179
2105074310 0.894271 -0.128554
2108037640 0.902095 -0.126851
2111000970 0.908278 -0.132334
2113964300 0.911073 -0.132697
2116927630 0.912726 -0.128802
2119890960 0.913879 -0.139932
2122854290 0.90946 -0.128568
2125817620 0.906815 -0.127084
2128780950 0.902108 -0.127791
2131744280 0.896887 -0.126973
2134707610 0.89645 -0.126025
2137670940 0.90298 -0.124888
2140634270 0.908081 -0.124096
2143597600 0.908524 -0.123896
2146560930 0.914145 -0.127796
2149524260 0.912598 -0.134244
2152487590 0.907998 -0.133262
2155450920 0.905028 -0.135787
2158414250 0.90269 -0.134019
2161377580 0.894573 -0.131279
2164340910 0.895278 -0.130038
2167304240 0.900062 -0.134205
2170267570 0.907298 -0.133353
2173230900 0.91047 -0.131953
2176194230 0.913807 -0.133097
2179157560 0.911048 -0.136658
2182120890 0.912248 -0.125187
2185084220 0.907211 -0.127072
2188047550 0.902015 -0.130749
2191010880 0.893718 -0.120663
2193974210 0.900601 -0.124507
2196937540 0.902654 -0.123281
2199900870 0.905548 -0.134033
2202864200 0.906791 -0.139205
2205827530 0.901904 -0.131369
2208790860 0.916293 -0.135254
2211754190 0.909167 -0.130926
2214717520 0.89895 -0.135198
2217680850 0.907968 -0.129383
2220644180 0.893356 -0.122814
2223607510 0.889605 -0.135737
2226570840 0.894589 -0.139135
2229534170 0.899562 -0.138406
2232497500 0.906832 -0.136173
2235460830 0.906031 -0.148464
2238424160 0.90786 -0.151031
2241387490 0.901636 -0.147415
2244350820 0.903803 -0.135201
2247314150 0.901666 -0.12936
2250277480 0.893016 -0.128661
2253240810 0.888091 -0.137407
2256204140 0.896338 -0.134529
2259167470 0.899789 -0.142045
2262130800 0.904461 -0.137643
2265094130 0.901426 -0.136644
2268057460 0.903507 -0.144046
2271020790 0.907918 -0.141284
2273984120 0.902915 -0.139304
2276947450 0.899658 -0.139818
2279910780 0.897751 -0.137855
2282874110 0.890033 -0.134052
2285837440 0.894282 -0.138512
2288800770 0.904816 -0.132514
2291764100 0.904187 -0.141855
2294727430 0.905273 -0.13926
2297690760 0.901704 -0.140237
2300654090 0.908202 -0.129682
2303617420 0.904059 -0.135859
2306580750 0.906512 -0.126945
2309544080 0.89979 -0.13621
2312507410 0.889609 -0.129936
2315470740 0.897237 -0.128109
2318434070 0.897326 -0.130738
2321397400 0.897525 -0.137116
2324360730 0.903275 -0.137864
2327324060 0.908142 -0.136266
2330287390 0.904075 -0.135834
2333250720 0.899959 -0.133012
2336214050 0.90054 -0.127324
2339177380 0.894229 -0.13
2342140710 0.888594 -0.139338
2345104040 0.893765 -0.137045
2348067370 0.901111 -0.134763
2351030700 0.905162 -0.134826
2353994030 0.90362 -0.132919
2356957360 0.900351 -0.136333
2359920690 0.899123 -0.144795
2362884020 0.897138 -0.141771
2365847350 0.903363 -0.130133
2368810680 0.890649 -0.137044
2371774010 0.887068 -0.137542
2374737340 0.880783 -0.148339
2377700670 0.897684 -0.125502
2380664000 0.896165 -0.144185
2383627330 0.897304 -0.13973
2386590660 0.903219 -0.132087
2389553990 0.905428 -0.134883
2392517320 0.897155 -0.145598
2395480650 0.900534 -0.134566
2398443980 0.888051 -0.135759
2401407310 0.87996 -0.145046
2404370640 0.890407 -0.137917
2407333970 0.896802 -0.150264
2410297300 0.896551 -0.145531
2413260630 0.893863 -0.152943
2416223960 0.900726 -0.13809
2419187290 0.900839 -0.138945
2422150620 0.896144 -0.137446
2425113950 0.891658 -0.142617
2428077280 0.886441 -0.136557
2431040610 0.883153 -0.154179
2434003940 0.887013 -0.145548
2436967270 0.890119 -0.144892
2439930600 0.896094 -0.146536
2442893930 0.729687 -0.1299
2445857260 0.895283 -0.142541
2448820590 0.90572 -0.152321
2451783920 0.899934 -0.139604
2454747250 0.896258 -0.141587
2457710580 0.890758 -0.143361
2460673910 0.884258 -0.149733
2463637240 0.889428 -0.145016
2466600570 0.89583 -0.149899
2469563900 0.899106 -0.143171
2472527230 0.906384 -0.150354
2475490560 0.904703 -0.158984
2478453890 0.908753 -0.140083
2481417220 0.902859 -0.146392
2484380550 0.90049 -0.1379
2487343880 0.89042 -0.137941
2490307210 0.88434 -0.133176
2493270540 0.891952 -0.137126
2496233870 0.890689 -0.14419
2499197200 0.897683 -0.137072
2502160530 0.904596 -0.144024
2505123860 0.907102 -0.137321
2508087190 0.907586 -0.133231
2511050520 0.902944 -0.13776
2514013850 0.89282 -0.131204
2516977180 0.89453 -0.135928
2519940510 0.88671 -0.128587
2522903840 0.885049 -0.135468
2525867170 0.891356 -0.136477
2528830500 0.893634 -0.139486
2531793830 0.892411 -0.1431
2534757160 0.902063 -0.144783
2537720490 0.900093 -0.141871
2540683820 0.896267 -0.140824
2543647150 0.890014 -0.140794
2546610480 0.896957 -0.151698
2549573810 0.885319 -0.14389
2552537140 0.882178 -0.15288
2555500470 0.893286 -0.146573
2558463800 0.900164 -0.148829
2561427130 0.900897 -0.150006
2564390460 0.89787 -0.154535
2567353790 0.903126 -0.149848
2570317120 0.898988 -0.148999
2573280450 0.898792 -0.140873
2576243780 0.89219 -0.148279
2579207110 0.885739 -0.14579
2582170440 0.884718 -0.147717
2585133770 0.88577 -0.147984
2588097100 0.893535 -0.144388
2591060430 0.893981 -0.14713
2594023760 0.899308 -0.14349
2596987090 0.894805 -0.148255
2599950420 0.897754 -0.144886
2602913750 0.890914 -0.150116
2605877080 0.885298 -0.148724
2608840410 0.879059 -0.146446
2611803740 0.872726 -0.149586
2614767070 0.87874 -0.155061
2617730400 0.882479 -0.141851
2620693730 0.890722 -0.145869
2623657060 0.889175 -0.153842
2626620390 0.884381 -0.153146
2629583720 0.89081 -0.153403
2632547050 0.884986 -0.154821
2635510380 0.88566 -0.153656
2638473710 0.873853 -0.153126
2641437040 0.869559 -0.157847
2644400370 0.873099 -0.159864
2647363700 0.88315 -0.1507
2650327030 0.881691 -0.152266
2653290360 0.888495 -0.152672
2656253690 0.890552 -0.149639
2659217020 0.885877 -0.154375
2662180350 0.882353 -0.15256
2665143680 0.876408 -0.150475
2668107010 0.873632 -0.149387
2671070340 0.870914 -0.150359
2674033670 0.868504 -0.157202
2676997000 0.883728 -0.150449
2679960330 0.881761 -0.155711
2682923660 0.888837 -0.15226
2685886990 0.890244 -0.162271
2688850320 0.889375 -0.153407
2691813650 0.891314 -0.157568
2694776980 0.881652 -0.162166
2697740310 0.873949 -0.159131
2700703640 0.877654 -0.157899
2703666970 0.894602 -0.154521
2706630300 0.887517 -0.160592
2709593630 0.887922 -0.15577
2712556960 0.89151 -0.158817
2715520290 0.888688 -0.159651
2718483620 0.901196 -0.158166
2721446950 0.892849 -0.152625
2724410280 0.893192 -0.146787
2727373610 0.882305 -0.151957
2730336940 0.889448 -0.143252
2733300270 0.88131 -0.153285
2736263600 0.893681 -0.150484
2739226930 0.88669 -0.15542
2742190260 0.891131 -0.159369
2745153590 0.888426 -0.156584
2748116920 0.898559 -0.147803
2751080250 0.894425 -0.147124
2754043580 0.879958 -0.159568
2757006910 0.8815 -0.142637
2759970240 0.8711 -0.159102
2762933570 0.871546 -0.154105
2765896900 0.875517 -0.15485
2768860230 0.88669 -0.154323
2771823560 0.876583 -0.167635
2774786890 0.88957 -0.156488
2777750220 0.884577 -0.158416
2780713550 0.882238 -0.162496
2783676880 0.878733 -0.172579
2786640210 0.877721 -0.156713
2789603540 0.864173 -0.169694
2792566870 0.870857 -0.164615
2795530200 0.878054 -0.174792
2798493530 0.882275 -0.176048
2801456860 0.890206 -0.170151
2804420190 0.88687 -0.178526
2807383520 0.893471 -0.186671
2810346850 0.88673 -0.175551
2813310180 0.892019 -0.162688
2816273510 0.872642 -0.165267
2819236840 0.884291 -0.163101
2822200170 0.881267 -0.18754
2825163500 0.882532 -0.176374
2828126830 0.887494 -0.179327
2831090160 0.892992 -0.183666
2834053490 0.896993 -0.184309
2837016820 0.904602 -0.174654
2839980150 0.897553 -0.160395
2842943480 0.901413 -0.160761
2845906810 0.89426 -0.161709
2848870140 0.891433 -0.161992
2851833470 0.871646 -0.164491
2854796800 0.883696 -0.181848
2857760130 0.888691 -0.152904
2860723460 0.89307 -0.164008
2863686790 0.895688 -0.174053
2866650120 0.891916 -0.161554
2869613450 0.897512 -0.182568
2872576780 0.885195 -0.174389
2875540110 0.885196 -0.161246
2878503440 0.883245 -0.171598
2881466770 0.880559 -0.171902
2884430100 0.889234 -0.171975
2887393430 0.876888 -0.166267
2890356760 0.894103 -0.178917
2893320090 0.888904 -0.178371
2896283420 0.880601 -0.177374
2899246750 0.883079 -0.184286
2902210080 0.882788 -0.172421
2905173410 0.882927 -0.174558
2908136740 0.874405 -0.167969
2911100070 0.863627 -0.167352
2914063400 0.883233 -0.175925
2917026730 0.879649 -0.166953
2919990060 0.879807 -0.177496
2922953390 0.8818 -0.163791
2925916720 0.886231 -0.172283
2928880050 0.886103 -0.164985
2931843380 0.889006 -0.167942
2934806710 0.873052 -0.156372
2937770040 0.869449 -0.167472
2940733370 0.861287 -0.157965
2943696700 0.873924 -0.16337
2946660030 0.87271 -0.161413
2949623360 0.874073 -0.166855
2952586690 0.872398 -0.168018
2955550020 0.880732 -0.169296
2958513350 0.876744 -0.160696
2961476680 0.87356 -0.16021
2964440010 0.870494 -0.164141
2967403340 0.866295 -0.159949
2970366670 0.855119 -0.161328
2973330000 0.868116 -0.155175
2976293330 0.867013 -0.167044
2979256660 0.868132 -0.169997
2982219990 0.878678 -0.161193
2985183320 0.871087 -0.169652
2988146650 0.877065 -0.161357
2991109980 0.875785 -0.159886
2994073310 0.868613 -0.155917
2997036640 0.867984 -0.151738
2999999970 0.861573 -0.153705
