# HZ S RI R 50
10000000 0.997776 -0.003448
12963330 1.000367 -0.006492
15926660 1.006025 -0.009887
18889990 1.01111 -0.014596
21853320 1.013772 -0.015372
24816650 1.01595 -0.017288
27779980 1.014474 -0.018644
30743310 1.012875 -0.018139
33706640 1.008292 -0.018699
36669970 1.004255 -0.016798
39633300 0.99516 -0.01658
42596630 1.002095 -0.019574
45559960 1.006923 -0.023935
48523290 1.0134 -0.025273
51486620 1.015475 -0.027865
54449950 1.016683 -0.028521
57413280 1.01676 -0.029022
60376610 1.012832 -0.028137
63339940 1.00838 -0.027305
66303270 1.000761 -0.026972
69266600 0.99288 -0.026485
72229930 0.99733 -0.028695
75193260 1.001239 -0.031555
78156590 1.006687 -0.03532
81119920 1.008351 -0.03493
84083250 1.009347 -0.036962
87046580 1.007299 -0.036627
90009910 1.005597 -0.036124
92973240 1.002703 -0.03478
95936570 0.996029 -0.035839
98899900 0.989016 -0.033015
101863230 0.989645 -0.037923
104826560 0.974772 -0.08874
107789890 0.99998 -0.040136
110753220 1.000803 -0.042444
113716550 1.003257 -0.04231
116679880 0.999984 -0.039836
119643210 1.000493 -0.041938
122606540 0.993605 -0.041016
125569870 0.986845 -0.042033
128533200 0.980211 -0.039194
131496530 0.983269 -0.039934
134459860 0.992046 -0.042469
137423190 0.983764 -0.054077
140386520 0.986499 -0.053803
143349850 0.987977 -0.052697
146313180 0.990144 -0.052773
149276510 0.989221 -0.050121
152239840 0.987634 -0.048924
155203170 0.983507 -0.04685
158166500 0.976942 -0.045339
161129830 0.97796 -0.046502
164093160 0.982674 -0.046305
167056490 0.986789 -0.047154
170019820 0.990528 -0.046772
172983150 0.989971 -0.047369
175946480 0.989748 -0.046604
178909810 0.987069 -0.045823
181873140 0.98361 -0.046255
184836470 0.979037 -0.047144
187799800 0.97235 -0.048476
190763130 0.970976 -0.048978
193726460 0.977315 -0.049243
196689790 0.981091 -0.048771
199653120 0.984114 -0.049267
202616450 0.986317 -0.048341
205579780 0.986336 -0.04682
208543110 0.984237 -0.047965
211506440 0.979683 -0.047175
214469770 0.975472 -0.048457
217433100 0.967943 -0.048734
220396430 0.966263 -0.051282
223359760 0.974225 -0.05125
226323090 0.979554 -0.050382
229286420 0.981616 -0.049955
232249750 0.983111 -0.049894
235213080 0.983573 -0.049967
238176410 0.980835 -0.050806
241139740 0.977788 -0.04951
244103070 0.971418 -0.050269
247066400 0.964626 -0.052377
250029730 0.960453 -0.053365
252993060 0.968464 -0.054684
255956390 0.97608 -0.054113
258919720 0.979994 -0.05379
261883050 0.982606 -0.053312
264846380 0.981373 -0.053131
267809710 0.980846 -0.051044
270773040 0.976883 -0.053028
273736370 0.970999 -0.052957
276699700 0.962845 -0.054596
279663030 0.958029 -0.055361
282626360 0.966767 -0.055725
285589690 0.975946 -0.054733
288553020 0.976524 -0.055102
291516350 0.97799 -0.054704
294479680 0.978482 -0.055021
297443010 0.977466 -0.054354
300406340 0.973155 -0.05454
303369670 0.967153 -0.053154
306333000 0.958914 -0.054526
309296330 0.951202 -0.057308
312259660 0.960307 -0.057221
315222990 0.9696 -0.057256
318186320 0.971987 -0.060174
321149650 0.972524 -0.060618
324112980 0.975282 -0.05945
327076310 0.974048 -0.058934
330039640 0.971538 -0.058372
333002970 0.966535 -0.058019
335966300 0.958531 -0.056683
338929630 0.947669 -0.058442
341892960 0.957867 -0.060942
344856290 0.964571 -0.062896
347819620 0.97006 -0.063
350782950 0.972622 -0.065002
353746280 0.97263 -0.063329
356709610 0.972152 -0.06203
359672940 0.970415 -0.060783
362636270 1.113592 -0.040863
365599600 0.956735 -0.059596
368562930 0.946671 -0.06104
371526260 0.953519 -0.063063
374489590 0.959493 -0.063725
377452920 0.965148 -0.063518
380416250 0.967923 -0.064655
383379580 0.969373 -0.063475
386342910 0.967867 -0.061706
389306240 0.965147 -0.062806
392269570 0.961193 -0.063577
395232900 0.954563 -0.061035
398196230 0.946618 -0.063606
401159560 0.950593 -0.063382
404122890 0.957818 -0.065851
407086220 0.962098 -0.064887
410049550 0.965136 -0.066117
413012880 0.966396 -0.066124
415976210 0.967345 -0.064862
418939540 0.96408 -0.064443
421902870 0.958595 -0.063575
424866200 0.952763 -0.060966
427829530 0.944741 -0.060789
430792860 0.949169 -0.062393
433756190 0.955228 -0.064312
436719520 0.957958 -0.066332
439682850 0.961986 -0.066126
442646180 0.96197 -0.064961
445609510 0.961455 -0.06591
448572840 0.958938 -0.064261
451536170 0.956656 -0.062725
454499500 0.949096 -0.062923
457462830 0.940585 -0.061229
460426160 0.941079 -0.064412
463389490 0.950229 -0.064999
466352820 0.953947 -0.066218
469316150 0.95714 -0.067838
472279480 0.957063 -0.066595
475242810 0.957807 -0.065015
478206140 0.955161 -0.065892
481169470 0.950886 -0.061706
484132800 0.945079 -0.064273
487096130 0.937618 -0.064061
490059460 0.937978 -0.066034
493022790 0.946582 -0.066243
495986120 0.951244 -0.066613
498949450 0.954768 -0.066864
501912780 0.956615 -0.066168
504876110 0.9589 -0.064497
507839440 0.954454 -0.062957
510802770 0.952806 -0.062171
513766100 0.947987 -0.061831
516729430 0.943008 -0.062721
519692760 0.94058 -0.062569
522656090 0.946932 -0.063801
525619420 0.952871 -0.065196
528582750 0.955087 -0.063677
531546080 0.958162 -0.062894
534509410 0.959215 -0.063154
537472740 0.954572 -0.063079
540436070 0.95243 -0.063367
543399400 0.946804 -0.064261
546362730 0.940305 -0.062273
549326060 0.937683 -0.064963
552289390 0.946188 -0.065523
555252720 0.950493 -0.066895
558216050 0.955321 -0.068306
561179380 0.959015 -0.065417
564142710 0.959447 -0.065299
567106040 0.957756 -0.065231
570069370 0.953154 -0.066831
573032700 0.946615 -0.062911
575996030 0.964418 -0.051033
578959360 0.936938 -0.065946
581922690 0.944974 -0.063421
584886020 0.950668 -0.064319
587849350 0.954978 -0.070423
590812680 0.9588 -0.066233
593776010 0.958577 -0.068957
596739340 0.954518 -0.066989
599702670 0.952655 -0.064479
602666000 0.947953 -0.066709
605629330 0.939339 -0.06554
608592660 0.934318 -0.06732
611555990 0.942738 -0.067921
614519320 0.948878 -0.070311
617482650 0.954516 -0.070161
620445980 0.956542 -0.070219
623409310 0.957878 -0.068279
626372640 0.956897 -0.066001
629335970 0.953362 -0.065739
632299300 0.947929 -0.06455
635262630 0.941264 -0.065115
638225960 0.935073 -0.065242
641189290 0.943029 -0.067881
644152620 0.948547 -0.068
647115950 0.952525 -0.069326
650079280 0.956362 -0.070708
653042610 0.957393 -0.069944
656005940 0.955508 -0.069729
658969270 0.953606 -0.066852
661932600 0.948604 -0.065459
664895930 0.941723 -0.066339
667859260 0.93355 -0.065423
670822590 0.940917 -0.067533
673785920 0.945195 -0.070998
676749250 0.952172 -0.070258
679712580 0.954457 -0.071011
682675910 0.955388 -0.071192
685639240 0.953987 -0.071767
688602570 0.953285 -0.06801
691565900 0.947761 -0.067982
694529230 0.941657 -0.066068
697492560 0.932525 -0.067124
700455890 0.938924 -0.071972
703419220 0.944153 -0.070384
706382550 0.949443 -0.070908
709345880 0.949635 -0.071319
712309210 0.954981 -0.071297
715272540 0.948758 -0.069598
718235870 0.950478 -0.069302
721199200 0.947508 -0.067496
724162530 0.939611 -0.07184
727125860 0.929242 -0.065932
730089190 0.936061 -0.069779
733052520 0.941803 -0.072136
736015850 0.945562 -0.071543
738979180 0.951511 -0.070258
741942510 0.950476 -0.070499
744905840 0.950815 -0.071705
747869170 0.947647 -0.067466
750832500 0.945043 -0.067606
753795830 0.938542 -0.068081
756759160 0.931284 -0.067711
759722490 0.934546 -0.067498
762685820 0.940208 -0.070809
765649150 0.945873 -0.072242
768612480 0.948507 -0.072097
771575810 0.950787 -0.070824
774539140 0.949196 -0.068906
777502470 0.946157 -0.072022
780465800 0.941887 -0.06725
783429130 0.93685 -0.066206
786392460 0.929428 -0.069092
789355790 0.932447 -0.069604
792319120 0.939371 -0.070423
795282450 0.945557 -0.068025
798245780 0.946398 -0.070432
801209110 0.949021 -0.070037
804172440 0.948036 -0.069088
807135770 0.944484 -0.073851
810099100 0.941135 -0.070623
813062430 0.936373 -0.070625
816025760 0.930103 -0.072241
818989090 0.930098 -0.07295
821952420 0.935454 -0.074298
824915750 0.941437 -0.07471
827879080 0.943343 -0.079729
830842410 0.946256 -0.076516
833805740 0.944864 -0.076631
836769070 0.943384 -0.075901
839732400 0.940105 -0.07327
842695730 0.933952 -0.074936
845659060 0.926093 -0.075342
848622390 0.926339 -0.074914
851585720 0.932708 -0.079887
854549050 0.939142 -0.077353
857512380 0.943479 -0.080524
860475710 0.944197 -0.07995
863439040 0.944862 -0.082053
866402370 0.943941 -0.079796
869365700 0.938421 -0.080052
872329030 0.93467 -0.077125
875292360 0.927472 -0.079044
878255690 0.925432 -0.082814
881219020 0.930904 -0.082338
884182350 0.937616 -0.083311
887145680 0.943947 -0.083112
890109010 0.945735 -0.083466
893072340 0.946173 -0.085107
896035670 0.943943 -0.080365
898999000 0.941139 -0.082432
901962330 0.935589 -0.083929
904925660 0.927734 -0.079905
907888990 0.924346 -0.081723
910852320 0.934677 -0.086825
913815650 0.939003 -0.087149
916778980 0.943346 -0.08662
919742310 0.945746 -0.08669
922705640 0.948239 -0.082393
925668970 0.942279 -0.083811
928632300 0.940326 -0.076519
931595630 0.934496 -0.077309
934558960 0.927221 -0.072674
937522290 0.921826 -0.075819
940485620 0.927888 -0.079955
943448950 0.933792 -0.083021
946412280 0.938881 -0.084422
949375610 0.941605 -0.082225
952338940 0.941637 -0.083324
955302270 0.941717 -0.086438
958265600 0.937479 -0.077255
961228930 0.933002 -0.076291
964192260 0.791345 -0.081857
967155590 0.923329 -0.077139
970118920 0.927693 -0.08227
973082250 0.934679 -0.087264
976045580 0.939538 -0.086501
979008910 0.941296 -0.084722
981972240 0.94175 -0.08592
984935570 0.940299 -0.087259
987898900 0.937111 -0.084626
990862230 0.935474 -0.078713
993825560 0.929982 -0.080016
996788890 0.94775 -0.031533
999752220 0.929311 -0.078989
1002715550 0.929798 -0.099166
1005678880 0.93663 -0.082292
1008642210 0.935995 -0.1015
1011605540 0.942007 -0.084321
1014568870 0.936082 -0.097939
1017532200 0.938867 -0.081043
1020495530 0.932255 -0.078596
1023458860 0.926301 -0.082553
1026422190 0.922107 -0.081685
1029385520 0.926754 -0.08016
1032348850 0.93356 -0.083235
1035312180 0.936573 -0.083917
1038275510 0.938958 -0.083256
1041238840 0.941518 -0.082811
1044202170 0.941368 -0.081224
1047165500 0.939332 -0.079484
1050128830 0.935511 -0.076488
1053092160 0.930543 -0.080587
1056055490 0.923665 -0.077317
1059018820 0.928883 -0.075284
1061982150 0.933003 -0.078685
1064945480 0.938117 -0.081562
1067908810 0.939792 -0.083109
1070872140 0.942406 -0.078904
1073835470 1.056344 -0.018576
1076798800 0.940197 -0.078115
1079762130 0.933888 -0.076876
1082725460 0.930404 -0.079009
1085688790 0.924155 -0.076697
1088652120 0.928961 -0.078161
1091615450 0.934961 -0.076765
1094578780 0.939676 -0.082644
1097542110 0.942638 -0.076414
1100505440 0.939775 -0.081357
1103468770 0.940864 -0.080191
1106432100 0.939534 -0.082467
1109395430 0.937234 -0.073935
1112358760 0.93103 -0.075808
1115322090 0.92341 -0.073642
1118285420 0.926227 -0.074653
1121248750 0.93181 -0.079079
1124212080 0.935001 -0.080109
1127175410 0.939821 -0.081736
1130138740 0.941343 -0.080339
1133102070 0.940097 -0.084402
1136065400 0.939247 -0.078589
1139028730 0.933186 -0.081536
1141992060 0.925966 -0.0879
1144955390 0.920712 -0.086023
1147918720 0.921374 -0.089408
1150882050 0.932088 -0.085468
1153845380 0.937751 -0.084442
1156808710 0.938853 -0.090007
1159772040 0.941597 -0.088132
1162735370 0.943569 -0.08314
1165698700 0.940206 -0.084897
1168662030 0.934874 -0.089816
1171625360 0.930114 -0.091854
1174588690 0.923847 -0.08552
1177552020 0.927088 -0.084395
1180515350 0.928138 -0.09109
1183478680 0.936284 -0.090844
1186442010 0.936887 -0.092786
1189405340 0.937433 -0.093434
1192368670 0.940954 -0.092472
1195332000 0.936763 -0.092509
1198295330 0.936705 -0.096011
1201258660 0.929095 -0.090678
1204221990 0.921019 -0.091997
1207185320 0.919614 -0.0951
1210148650 0.927008 -0.096309
1213111980 0.93646 -0.097168
1216075310 0.936389 -0.099612
1219038640 0.938768 -0.097256
1222001970 0.940011 -0.099429
1224965300 0.935122 -0.102379
1227928630 0.935749 -0.095592
1230891960 0.926344 -0.097627
1233855290 0.920628 -0.10041
1236818620 0.918503 -0.100616
1239781950 0.923577 -0.101525
1242745280 0.930244 -0.107264
1245708610 0.933981 -0.104859
1248671940 0.932245 -0.121955
1251635270 0.939038 -0.106213
1254598600 0.935734 -0.100619
1257561930 0.933643 -0.098043
1260525260 0.928249 -0.098384
1263488590 0.921452 -0.094552
1266451920 0.915654 -0.100055
1269415250 0.92138 -0.10459
1272378580 0.928339 -0.101451
1275341910 0.929896 -0.102087
1278305240 0.933856 -0.100408
1281268570 0.933602 -0.107603
1284231900 0.933616 -0.10461
1287195230 0.927543 -0.105775
1290158560 0.923314 -0.103755
1293121890 0.917678 -0.097409
1296085220 0.910347 -0.103866
1299048550 0.917934 -0.102325
1302011880 0.921892 -0.109663
1304975210 0.925853 -0.11443
1307938540 0.929156 -0.111021
1310901870 0.928458 -0.110647
1313865200 0.928346 -0.105725
1316828530 0.925375 -0.105277
1319791860 0.92214 -0.098487
1322755190 0.915727 -0.100728
1325718520 0.909877 -0.102394
1328681850 0.91634 -0.107099
1331645180 0.920575 -0.104639
1334608510 0.923264 -0.108279
1337571840 0.927026 -0.108301
1340535170 0.92701 -0.110679
1343498500 0.929246 -0.102881
1346461830 0.925111 -0.104373
1349425160 0.923352 -0.10156
1352388490 0.91367 -0.101757
1355351820 0.907074 -0.098703
1358315150 0.913334 -0.100061
1361278480 0.920887 -0.102395
1364241810 0.923083 -0.107574
1367205140 0.926076 -0.102455
1370168470 0.927577 -0.106618
1373131800 0.927128 -0.107656
1376095130 0.925867 -0.107184
1379058460 0.925742 -0.100439
1382021790 0.917967 -0.097053
1384985120 0.910706 -0.096069
1387948450 0.918676 -0.094189
1390911780 0.92368 -0.09565
1393875110 0.928425 -0.103443
1396838440 0.923088 -0.102566
1399801770 0.928378 -0.102816
1402765100 0.92874 -0.103949
1405728430 0.925179 -0.103581
1408691760 0.925704 -0.10372
1411655090 0.917507 -0.10192
1414618420 0.911661 -0.099426
1417581750 0.918225 -0.105992
1420545080 0.921899 -0.107924
1423508410 0.927405 -0.103401
1426471740 0.928488 -0.105834
1429435070 0.929418 -0.10778
1432398400 0.931917 -0.108673
1435361730 0.924609 -0.10328
1438325060 0.927644 -0.100228
1441288390 0.919538 -0.108651
1444251720 0.913935 -0.101287
1447215050 0.917621 -0.106147
1450178380 0.920065 -0.105718
1453141710 0.927159 -0.105061
1456105040 0.93235 -0.100942
1459068370 0.931704 -0.101306
1462031700 0.933785 -0.098536
1464995030 0.932152 -0.095729
1467958360 0.927114 -0.094114
1470921690 0.922687 -0.095859
1473885020 0.913274 -0.096396
1476848350 0.916761 -0.093032
1479811680 0.924066 -0.095754
1482775010 0.929804 -0.098118
1485738340 0.931103 -0.095676
1488701670 0.932972 -0.097972
1491665000 0.935791 -0.09438
1494628330 0.932526 -0.094866
1497591660 0.929552 -0.094859
1500554990 0.921977 -0.09797
1503518320 0.915463 -0.100359
1506481650 0.915104 -0.10233
1509444980 0.924791 -0.099383
1512408310 0.929977 -0.100015
1515371640 0.932258 -0.104549
1518334970 0.933891 -0.101955
1521298300 0.933975 -0.102728
1524261630 0.931358 -0.104513
1527224960 0.928062 -0.106652
1530188290 0.924042 -0.103506
1533151620 0.91368 -0.109526
1536114950 0.91683 -0.104253
1539078280 0.922606 -0.10626
1542041610 0.925485 -0.116537
1545004940 0.933637 -0.111825
1547968270 0.936042 -0.111603
1550931600 0.946749 -0.081086
1553894930 0.948927 -0.095975
1556858260 0.954147 -0.082262
1559821590 0.943182 -0.063111
1562784920 0.933527 -0.06437
1565748250 0.928489 -0.09851
1568711580 0.940842 -0.066781
1571674910 0.945707 -0.071327
1574638240 0.951488 -0.068424
1577601570 0.954338 -0.067066
1580564900 0.952069 -0.070405
1583528230 0.950099 -0.066325
1586491560 0.945909 -0.070496
1589454890 0.936285 -0.096164
1592418220 0.925459 -0.097375
1595381550 0.928044 -0.072573
1598344880 0.933274 -0.070589
1601308210 0.919832 -0.113275
1604271540 0.926697 -0.114872
1607234870 0.930617 -0.114215
1610198200 0.927047 -0.116166
1613161530 0.928937 -0.120346
1616124860 0.925704 -0.112546
1619088190 0.920251 -0.106551
1622051520 0.912878 -0.111482
1625014850 0.905203 -0.111082
1627978180 0.912594 -0.112524
1630941510 0.91772 -0.11643
1633904840 0.924436 -0.119329
1636868170 0.924149 -0.113808
1639831500 0.921713 -0.128133
1642794830 0.925512 -0.109806
1645758160 0.921935 -0.116058
1648721490 0.91637 -0.10187
1651684820 0.909988 -0.111284
1654648150 0.903353 -0.104595
1657611480 0.907677 -0.111257
1660574810 0.91417 -0.115209
1663538140 0.918098 -0.117416
1666501470 0.92168 -0.111736
1669464800 0.918949 -0.119246
1672428130 0.918305 -0.117017
1675391460 0.915173 -0.118688
1678354790 0.913592 -0.118685
1681318120 0.90655 -0.114897
1684281450 0.900438 -0.11167
1687244780 0.904848 -0.117623
1690208110 0.911604 -0.118911
1693171440 0.913242 -0.123892
1696134770 0.916794 -0.124553
1699098100 0.915904 -0.124353
1702061430 0.916972 -0.12454
1705024760 0.915648 -0.115719
1707988090 0.91322 -0.121696
1710951420 0.905214 -0.112568
1713914750 0.901288 -0.116843
1716878080 0.905385 -0.121386
1719841410 0.909458 -0.121655
1722804740 0.911105 -0.121608
1725768070 0.917932 -0.118551
1728731400 0.917592 -0.121552
1731694730 0.917483 -0.118175
1734658060 0.912927 -0.124292
1737621390 0.91366 -0.120119
1740584720 0.905598 -0.123605
1743548050 0.90031 -0.120066
1746511380 0.90113 -0.122924
1749474710 0.90635 -0.128461
1752438040 0.912186 -0.120479
1755401370 0.914722 -0.12571
1758364700 0.918512 -0.124211
1761328030 0.91685 -0.122828
1764291360 0.917154 -0.124091
1767254690 0.913009 -0.127502
1770218020 0.904893 -0.123532
1773181350 0.900134 -0.120219
1776144680 0.902182 -0.124852
1779108010 0.911176 -0.122424
1782071340 0.918779 -0.121407
1785034670 0.92047 -0.122325
1787998000 0.925226 -0.119996
1790961330 0.923088 -0.123083
1793924660 0.921484 -0.122085
1796887990 0.912574 -0.122114
1799851320 0.909158 -0.114252
1802814650 0.901548 -0.119025
1805777980 0.899379 -0.120422
1808741310 0.909078 -0.121549
1811704640 0.913409 -0.125705
1814667970 0.921141 -0.119344
1817631300 0.917372 -0.125105
1820594630 0.928027 -0.118775
1823557960 0.924991 -0.110333
1826521290 0.916872 -0.114608
1829484620 0.913975 -0.110695
1832447950 0.903948 -0.11252
1835411280 0.901898 -0.113005
1838374610 0.912273 -0.118061
1841337940 0.916318 -0.120743
1844301270 0.919071 -0.118828
1847264600 0.919448 -0.122802
1850227930 0.919577 -0.115599
1853191260 0.919546 -0.111737
1856154590 0.915337 -0.12286
1859117920 0.911422 -0.117216
1862081250 0.904239 -0.116876
1865044580 0.903677 -0.11458
1868007910 0.909266 -0.120388
1870971240 0.913449 -0.122346
1873934570 0.925268 -0.119395
1876897900 0.921735 -0.124624
1879861230 0.923495 -0.119388
1882824560 0.921998 -0.12119
1885787890 0.914453 -0.119314
1888751220 0.91272 -0.113297
1891714550 0.904882 -0.116029
1894677880 0.90229 -0.115354
1897641210 0.910582 -0.112476
1900604540 0.914697 -0.117875
1903567870 0.916218 -0.11793
1906531200 0.91966 -0.116919
1909494530 0.916674 -0.120785
1912457860 0.913461 -0.12201
1915421190 0.913859 -0.119787
1918384520 0.907651 -0.117823
1921347850 0.90216 -0.11623
1924311180 0.897432 -0.111976
1927274510 0.90323 -0.123992
1930237840 0.913201 -0.10908
1933201170 0.915827 -0.122358
1936164500 0.911141 -0.125447
1939127830 0.920325 -0.11089
1942091160 0.917029 -0.11531
1945054490 0.913566 -0.1144
1948017820 0.907897 -0.111573
1950981150 0.900122 -0.108627
1953944480 0.897117 -0.104418
1956907810 0.90321 -0.114661
1959871140 0.90849 -0.11715
1962834470 0.911821 -0.11782
1965797800 0.912527 -0.119259
1968761130 0.917509 -0.114852
1971724460 0.917228 -0.118381
1974687790 0.916512 -0.116875
1977651120 0.91173 -0.116137
1980614450 0.903098 -0.118733
1983577780 0.901651 -0.114507
1986541110 0.904681 -0.119379
1989504440 0.913195 -0.117086
1992467770 0.911973 -0.118273
1995431100 0.913058 -0.124411
1998394430 0.916394 -0.120586
2001357760 0.913544 -0.127231
2004321090 0.911458 -0.119546
2007284420 0.90861 -0.125246
2010247750 0.90276 -0.121951
2013211080 0.894688 -0.119848
2016174410 0.896079 -0.126545
2019137740 0.902878 -0.134964
2022101070 0.910182 -0.126127
2025064400 0.913039 -0.126125
2028027730 0.911311 -0.12543
2030991060 0.907728 -0.128159
2033954390 0.909544 -0.117493
2036917720 0.90749 -0.121158
2039881050 0.899079 -0.121131
2042844380 0.895587 -0.123501
2045807710 0.900969 -0.113924
2048771040 0.906881 -0.117327
2051734370 0.909678 -0.125576
2054697700 0.91095 -0.120496
2057661030 0.906345 -0.128064
2060624360 0.908188 -0.129771
2063587690 0.908449 -0.12598
2066551020 0.904574 -0.127435
2069514350 0.896899 -0.129955
2072477680 0.892587 -0.120793
2075441010 0.897368 -0.125594
2078404340 0.913812 -0.114172
2081367670 0.907014 -0.130803
2084331000 0.911663 -0.127147
2087294330 0.910287 -0.125605
2090257660 0.912 -0.128673
2093220990 0.907582 -0.137209
2096184320 0.90545 -0.123885
2099147650 0.900948 -0.126937
2102110980 0.892703 -0.129576
2105074310 0.894878 -0.122936
2108037640 0.900574 -0.125307
2111000970 0.907474 -0.131124
2113964300 0.907923 -0.127962
2116927630 0.912505 -0.127537
2119890960 0.91221 -0.12642
2122854290 0.909182 -0.125024
2125817620 0.90531 -0.130186
2128780950 0.900865 -0.127144
2131744280 0.892065 -0.125881
2134707610 0.894778 -0.132571
2137670940 0.89848 -0.130648
2140634270 0.904311 -0.126897
2143597600 0.908834 -0.128821
2146560930 0.907162 -0.132277
2149524260 0.912784 -0.130307
2152487590 0.909218 -0.134531
2155450920 0.907299 -0.126721
2158414250 0.898437 -0.129737
2161377580 0.894143 -0.129235
2164340910 0.891659 -0.132827
2167304240 0.901416 -0.130702
2170267570 0.904142 -0.131748
2173230900 0.909425 -0.133994
2176194230 0.912826 -0.136594
2179157560 0.911786 -0.133425
2182120890 0.911625 -0.126509
2185084220 0.906665 -0.129404
2188047550 0.89982 -0.129435
2191010880 0.899422 -0.124319
2193974210 0.897142 -0.120085
2196937540 0.901489 -0.127632
2199900870 0.90322 -0.134298
2202864200 0.905494 -0.134947
2205827530 0.908311 -0.128104
2208790860 0.911532 -0.137906
2211754190 0.904384 -0.130928
2214717520 0.910399 -0.128919
2217680850 0.899112 -0.128279
2220644180 0.887483 -0.130665
2223607510 0.887242 -0.13349
2226570840 0.893176 -0.139504
2229534170 0.902722 -0.132069
2232497500 0.905235 -0.133673
2235460830 0.899583 -0.140988
2238424160 0.903463 -0.14305
2241387490 0.899053 -0.140481
2244350820 0.899689 -0.135348
2247314150 0.89779 -0.133949
2250277480 0.891668 -0.119225
2253240810 0.884977 -0.132815
2256204140 0.898604 -0.118094
2259167470 0.897975 -0.130928
2262130800 0.904282 -0.130336
2265094130 0.900368 -0.140686
2268057460 0.91528 -0.121348
2271020790 0.90332 -0.142877
2273984120 0.906487 -0.122727
2276947450 0.900172 -0.132374
2279910780 0.898032 -0.119286
2282874110 0.899555 -0.129704
2285837440 0.90188 -0.120959
2288800770 0.900634 -0.137014
2291764100 0.907334 -0.12713
2294727430 0.909448 -0.13606
2297690760 0.911904 -0.121061
2300654090 0.90733 -0.133823
2303617420 0.911531 -0.115718
2306580750 0.895366 -0.123856
2309544080 0.897096 -0.122604
2312507410 0.884705 -0.133909
2315470740 0.901574 -0.114615
2318434070 0.898441 -0.131033
2321397400 0.91152 -0.113258
2324360730 0.903887 -0.141063
2327324060 0.917151 -0.112467
2330287390 0.910017 -0.134534
2333250720 0.914498 -0.11385
2336214050 0.895642 -0.13172
2339177380 0.9 -0.113191
2342140710 0.888501 -0.134595
2345104040 0.896158 -0.124594
2348067370 0.894542 -0.130721
2351030700 0.900741 -0.137589
2353994030 0.902137 -0.145929
2356957360 0.901331 -0.13488
2359920690 0.89847 -0.13739
2362884020 0.899358 -0.13182
2365847350 0.89576 -0.140936
2368810680 0.889563 -0.130996
2371774010 0.886824 -0.131482
2374737340 0.889716 -0.14294
2377700670 0.886691 -0.137585
2380664000 0.898931 -0.131363
2383627330 0.902012 -0.131087
2386590660 0.903536 -0.13195
2389553990 0.90444 -0.129726
2392517320 0.894296 -0.146345
2395480650 0.900052 -0.130501
2398443980 0.891754 -0.139054
2401407310 0.877052 -0.147981
2404370640 0.892969 -0.140274
2407333970 0.893323 -0.144592
2410297300 0.889794 -0.150979
2413260630 0.898458 -0.142348
2416223960 0.90052 -0.144427
2419187290 0.899856 -0.143277
2422150620 0.893902 -0.140428
2425113950 0.891614 -0.145779
2428077280 0.887122 -0.137407
2431040610 0.875965 -0.144078
2434003940 0.880053 -0.133044
2436967270 0.889503 -0.154463
2439930600 0.799292 -0.214523
2442893930 0.902967 -0.145911
2445857260 0.899058 -0.143743
2448820590 0.906753 -0.145847
2451783920 0.894872 -0.139494
2454747250 0.895475 -0.14084
2457710580 0.889186 -0.152091
2460673910 0.87866 -0.157511
2463637240 0.887675 -0.136529
2466600570 0.892858 -0.157415
2469563900 0.901768 -0.152768
2472527230 0.898304 -0.140574
2475490560 0.907568 -0.15318
2478453890 0.901642 -0.145773
2481417220 0.896679 -0.148673
2484380550 0.896472 -0.137461
2487343880 0.894338 -0.141324
2490307210 0.885779 -0.150296
2493270540 0.886827 -0.134109
2496233870 0.895736 -0.139315
2499197200 0.901474 -0.145393
2502160530 0.898396 -0.132644
2505123860 0.9009 -0.14375
2508087190 0.906952 -0.130133
2511050520 0.899218 -0.143485
2514013850 0.89604 -0.140441
2516977180 0.89073 -0.137823
2519940510 0.879139 -0.136945
2522903840 0.881507 -0.125234
2525867170 0.882333 -0.136168
2528830500 0.89242 -0.139032
2531793830 0.892079 -0.13657
2534757160 0.898982 -0.139169
2537720490 0.897857 -0.142587
2540683820 0.893164 -0.144899
2543647150 0.895661 -0.144574
2546610480 0.904054 -0.122863
2549573810 0.886039 -0.140416
2552537140 0.88317 -0.145395
2555500470 0.890206 -0.144258
2558463800 0.895937 -0.151381
2561427130 0.898788 -0.151613
2564390460 0.897781 -0.160444
2567353790 0.897853 -0.152055
2570317120 0.894161 -0.148948
2573280450 0.900541 -0.145893
2576243780 0.889777 -0.142735
2579207110 0.887083 -0.143173
2582170440 0.878672 -0.144072
2585133770 0.886205 -0.144195
2588097100 0.890724 -0.146834
2591060430 0.886516 -0.153322
2594023760 0.892466 -0.145394
2596987090 0.888215 -0.149053
2599950420 0.896264 -0.145514
2602913750 0.888794 -0.150946
2605877080 0.885297 -0.144439
2608840410 0.879761 -0.145542
2611803740 0.873471 -0.147625
2614767070 0.875214 -0.149826
2617730400 0.881312 -0.149234
2620693730 0.885209 -0.150713
2623657060 0.885906 -0.146038
2626620390 0.888763 -0.150314
2629583720 0.884729 -0.154695
2632547050 0.885739 -0.156145
2635510380 0.880001 -0.153103
2638473710 0.876732 -0.151949
2641437040 0.869055 -0.161334
2644400370 0.872074 -0.159806
2647363700 0.874463 -0.158178
2650327030 0.877831 -0.153372
2653290360 0.889398 -0.15735
2656253690 0.886318 -0.155591
2659217020 0.889888 -0.151733
2662180350 0.872253 -0.157424
2665143680 0.880487 -0.152421
2668107010 0.871875 -0.150782
2671070340 0.865382 -0.148593
2674033670 0.866056 -0.158349
2676997000 0.875981 -0.152659
2679960330 0.882353 -0.158335
2682923660 0.885496 -0.156835
2685886990 0.889324 -0.155198
2688850320 0.88548 -0.158205
2691813650 0.886647 -0.160073
2694776980 0.868914 -0.15967
2697740310 0.881795 -0.157547
2700703640 0.877008 -0.15451
2703666970 0.887024 -0.156391
2706630300 0.885674 -0.1555
2709593630 0.906443 -0.151705
2712556960 0.900148 -0.156056
2715520290 0.896663 -0.159986
2718483620 0.889761 -0.152969
2721446950 0.887687 -0.159042
2724410280 0.892653 -0.145007
2727373610 0.883166 -0.148849
2730336940 0.874489 -0.15402
2733300270 0.875715 -0.157261
2736263600 0.890663 -0.152016
2739226930 0.879313 -0.162922
2742190260 0.887466 -0.158417
2745153590 0.891515 -0.150781
2748116920 0.89557 -0.153348
2751080250 0.887404 -0.152676
2754043580 0.878881 -0.145949
2757006910 0.882784 -0.151291
2759970240 0.870002 -0.152232
2762933570 0.873926 -0.149832
2765896900 0.8704 -0.159172
2768860230 0.878904 -0.163007
2771823560 0.880863 -0.162507
2774786890 0.888449 -0.156123
2777750220 0.881753 -0.163392
2780713550 0.885664 -0.158438
2783676880 0.874448 -0.165172
2786640210 0.870875 -0.177546
2789603540 0.874686 -0.152214
2792566870 0.878545 -0.16794
2795530200 0.881227 -0.166425
2798493530 0.884558 -0.178222
2801456860 0.887328 -0.158424
2804420190 0.886368 -0.176294
2807383520 0.881967 -0.186907
2810346850 0.888458 -0.17213
2813310180 0.888568 -0.166982
2816273510 0.88552 -0.173891
2819236840 0.866537 -0.179974
2822200170 0.876466 -0.166081
2825163500 0.88256 -0.174494
2828126830 0.899711 -0.17714
2831090160 0.88673 -0.178137
2834053490 0.896965 -0.178197
2837016820 0.890683 -0.179794
2839980150 0.910416 -0.161184
2842943480 0.896599 -0.137577
2845906810 0.896518 -0.15908
2848870140 0.886848 -0.157421
2851833470 0.888143 -0.159944
2854796800 0.889084 -0.217608
2857760130 0.898253 -0.16315
2860723460 0.893741 -0.17602
2863686790 0.889796 -0.16248
2866650120 0.89453 -0.165137
2869613450 0.889333 -0.169868
2872576780 0.8842 -0.171042
2875540110 0.880949 -0.168004
2878503440 0.877233 -0.168247
2881466770 0.869995 -0.176493
2884430100 0.872324 -0.172613
2887393430 0.886005 -0.160549
2890356760 0.873269 -0.174295
2893320090 0.887965 -0.153958
2896283420 0.886806 -0.167806
2899246750 0.878741 -0.17632
2902210080 0.884085 -0.17369
2905173410 0.875426 -0.169648
2908136740 0.866735 -0.173514
2911100070 0.863328 -0.167155
2914063400 0.874346 -0.15881
2917026730 0.878912 -0.159592
2919990060 0.878294 -0.175757
2922953390 0.882797 -0.178656
2925916720 0.881375 -0.173409
2928880050 0.883984 -0.168832
2931843380 0.873578 -0.172302
2934806710 0.871511 -0.156058
2937770040 0.869346 -0.159042
2940733370 0.860626 -0.159146
2943696700 0.864792 -0.15683
2946660030 0.872557 -0.167251
2949623360 0.872446 -0.166157
2952586690 0.876669 -0.165845
2955550020 0.874842 -0.17042
2958513350 0.874356 -0.16416
2961476680 0.873046 -0.160655
2964440010 0.868744 -0.163503
2967403340 0.867537 -0.160098
2970366670 0.858985 -0.158545
2973330000 0.86492 -0.159329
2976293330 0.870229 -0.158935
2979256660 0.869469 -0.165324
2982219990 0.870798 -0.165108
2985183320 0.87509 -0.164108
2988146650 0.873741 -0.16858
2991109980 0.870527 -0.156394
2994073310 0.869903 -0.1538
2997036640 0.864854 -0.156285
2999999970 0.855022 -0.153208
