# HZ S RI R 50
10000000 0.996933 -0.00378
12963330 1.001854 -0.007051
15926660 1.005732 -0.01043
18889990 1.010452 -0.012704
21853320 1.014648 -0.015775
24816650 1.015689 -0.018101
27779980 1.01479 -0.01779
30743310 1.013992 -0.018935
33706640 1.009642 -0.018032
36669970 1.005824 -0.016055
39633300 0.996031 -0.016057
42596630 1.002995 -0.020086
45559960 1.006497 -0.0239
48523290 1.012393 -0.025833
51486620 1.015446 -0.028253
54449950 1.017957 -0.028514
57413280 1.01555 -0.029323
60376610 1.01263 -0.028615
63339940 1.007846 -0.025969
66303270 1.00187 -0.027352
69266600 0.993018 -0.026134
72229930 0.995619 -0.029175
75193260 1.00255 -0.03188
78156590 1.005005 -0.03391
81119920 1.008628 -0.035578
84083250 1.008818 -0.035921
87046580 1.008563 -0.036291
90009910 1.005476 -0.037364
92973240 1.002243 -0.034893
95936570 0.996555 -0.035564
98899900 0.98729 -0.034471
101863230 0.990683 -0.038668
104826560 0.995628 -0.039284
107789890 1.000129 -0.038489
110753220 1.000754 -0.041285
113716550 1.00199 -0.041535
116679880 1.001569 -0.041931
119643210 0.99905 -0.040901
122606540 0.994383 -0.041568
125569870 0.988921 -0.042027
128533200 0.981856 -0.04003
131496530 0.983273 -0.04087
134459860 0.991873 -0.042878
137423190 0.982045 -0.054126
140386520 0.986696 -0.054171
143349850 0.989902 -0.053062
146313180 0.990263 -0.052539
149276510 0.989799 -0.050533
152239840 0.987989 -0.047421
155203170 0.982919 -0.047315
158166500 0.976878 -0.046088
161129830 0.978589 -0.046202
164093160 0.98281 -0.047199
167056490 0.988164 -0.047286
170019820 0.989497 -0.047
172983150 0.990293 -0.046318
175946480 0.990316 -0.047197
178909810 0.988211 -0.046869
181873140 0.983792 -0.048245
184836470 0.979277 -0.046948
187799800 0.972099 -0.04853
190763130 0.970941 -0.048986
193726460 0.977236 -0.049775
196689790 0.981692 -0.048984
199653120 0.985731 -0.049968
202616450 0.987063 -0.048399
205579780 0.986739 -0.047783
208543110 0.983232 -0.048982
211506440 0.980125 -0.048492
214469770 0.974886 -0.049173
217433100 0.968563 -0.050081
220396430 0.96677 -0.051529
223359760 0.973992 -0.051792
226323090 0.978879 -0.050241
229286420 0.980847 -0.05048
232249750 0.98381 -0.051229
235213080 0.983314 -0.050521
238176410 0.980934 -0.051271
241139740 0.977389 -0.050874
244103070 0.973505 -0.04965
247066400 0.964846 -0.050936
250029730 0.961807 -0.053919
252993060 0.969343 -0.054159
255956390 0.974933 -0.054346
258919720 0.980323 -0.052239
261883050 0.981696 -0.052757
264846380 0.982162 -0.05306
267809710 0.979818 -0.052389
270773040 0.9758 -0.052932
273736370 0.970259 -0.052617
276699700 0.962946 -0.05502
279663030 0.957152 -0.056978
282626360 0.964883 -0.055969
285589690 0.974156 -0.054147
288553020 0.977229 -0.055496
291516350 0.978279 -0.054532
294479680 0.97895 -0.056602
297443010 0.977342 -0.055067
300406340 0.973611 -0.053465
303369670 0.96755 -0.054372
306333000 0.959261 -0.055223
309296330 0.951213 -0.057839
312259660 0.96122 -0.059801
315222990 0.967201 -0.058241
318186320 0.970566 -0.059824
321149650 0.974594 -0.060211
324112980 0.975298 -0.059352
327076310 0.974059 -0.059345
330039640 0.969884 -0.057998
333002970 0.96614 -0.058946
335966300 0.956963 -0.058422
338929630 0.948217 -0.060057
341892960 0.956217 -0.061102
344856290 0.963553 -0.062518
347819620 0.970726 -0.064591
350782950 0.972405 -0.063457
353746280 0.972778 -0.064426
356709610 0.970575 -0.063173
359672940 0.967275 -0.061484
362636270 0.961292 -0.061295
365599600 0.956042 -0.061244
368562930 0.94605 -0.061148
371526260 0.953671 -0.0631
374489590 0.959363 -0.06428
377452920 0.963853 -0.064897
380416250 0.968081 -0.065037
383379580 0.969007 -0.065543
386342910 0.968222 -0.065272
389306240 0.965446 -0.063649
392269570 0.960735 -0.062975
395232900 0.953434 -0.064123
398196230 0.944605 -0.061841
401159560 0.950844 -0.066607
404122890 0.956918 -0.068668
407086220 0.961495 -0.067939
410049550 0.965398 -0.067214
413012880 0.967476 -0.066086
415976210 0.965543 -0.065269
418939540 0.96537 -0.048074
421902870 0.958825 -0.061364
424866200 0.953077 -0.064071
427829530 0.943987 -0.059929
430792860 0.948066 -0.062568
433756190 0.951903 -0.065024
436719520 0.957461 -0.067226
439682850 0.9609 -0.065438
442646180 0.962253 -0.064388
445609510 0.960733 -0.064052
448572840 0.959339 -0.064533
451536170 0.954671 -0.062366
454499500 0.949388 -0.06297
457462830 0.941823 -0.062171
460426160 0.941856 -0.062331
463389490 0.949583 -0.068014
466352820 0.953756 -0.064827
469316150 0.956033 -0.066429
472279480 0.957383 -0.068178
475242810 0.95704 -0.066516
478206140 0.954182 -0.065386
481169470 0.950942 -0.064698
484132800 0.944288 -0.066565
487096130 0.93835 -0.06337
490059460 0.938105 -0.065613
493022790 0.946239 -0.06626
495986120 0.951062 -0.067376
498949450 0.954753 -0.068835
501912780 0.956225 -0.066386
504876110 0.956751 -0.065541
507839440 0.954988 -0.06369
510802770 0.952789 -0.063822
513766100 0.947112 -0.063159
516729430 0.940958 -0.062271
519692760 0.939685 -0.063568
522656090 0.947265 -0.063745
525619420 0.950662 -0.064815
528582750 0.955682 -0.064646
531546080 0.956565 -0.065007
534509410 0.957113 -0.064102
537472740 0.955567 -0.064496
540436070 0.952904 -0.063942
543399400 0.945941 -0.065805
546362730 0.940732 -0.065057
549326060 0.937643 -0.065395
552289390 0.945137 -0.067166
555252720 0.949117 -0.068785
558216050 0.956493 -0.066409
561179380 0.956555 -0.066794
564142710 0.957469 -0.066294
567106040 0.956054 -0.065734
570069370 0.952945 -0.065152
573032700 0.947259 -0.064351
575996030 0.952394 -0.056729
578959360 0.936798 -0.066105
581922690 0.944561 -0.068494
584886020 0.951475 -0.068409
587849350 0.954206 -0.066369
590812680 0.95609 -0.066394
593776010 0.958536 -0.067402
596739340 0.956189 -0.067867
599702670 0.951844 -0.06669
602666000 0.946787 -0.065565
605629330 0.938373 -0.06648
608592660 0.934913 -0.06629
611555990 0.943023 -0.069868
614519320 0.948646 -0.069853
617482650 0.953587 -0.070307
620445980 0.955229 -0.068347
623409310 0.954752 -0.067752
626372640 0.95665 -0.067039
629335970 0.950909 -0.067179
632299300 0.947648 -0.066628
635262630 0.940746 -0.065522
638225960 0.933921 -0.063616
641189290 0.941234 -0.065795
644152620 0.947079 -0.068163
647115950 0.95325 -0.068843
650079280 0.955741 -0.070315
653042610 0.951457 -0.084944
656005940 0.954839 -0.068769
658969270 0.95371 -0.064382
661932600 0.947664 -0.067368
664895930 0.941339 -0.065839
667859260 0.932836 -0.067981
670822590 0.941001 -0.068747
673785920 0.946975 -0.070079
676749250 0.951314 -0.071848
679712580 0.954592 -0.070193
682675910 0.956453 -0.07024
685639240 0.955267 -0.069128
688602570 0.953182 -0.069886
691565900 0.94857 -0.067098
694529230 0.939917 -0.066096
697492560 0.932901 -0.066276
700455890 0.939135 -0.070183
703419220 0.945697 -0.071712
706382550 0.948534 -0.069214
709345880 0.95347 -0.069128
712309210 0.955043 -0.073822
715272540 0.950089 -0.070351
718235870 0.947858 -0.071557
721199200 0.945593 -0.069721
724162530 0.938293 -0.071265
727125860 0.932452 -0.067285
730089190 0.937269 -0.069438
733052520 0.943186 -0.072208
736015850 0.946465 -0.072634
738979180 0.949853 -0.070471
741942510 0.949904 -0.070802
744905840 0.949736 -0.069477
747869170 0.94646 -0.071559
750832500 0.944175 -0.066609
753795830 0.938258 -0.067124
756759160 0.930133 -0.069863
759722490 0.93365 -0.067704
762685820 0.939913 -0.071341
765649150 0.945467 -0.071127
768612480 0.946845 -0.072343
771575810 0.949198 -0.07042
774539140 0.948722 -0.070062
777502470 0.946316 -0.069686
780465800 0.942763 -0.069752
783429130 0.939402 -0.066668
786392460 0.930118 -0.066987
789355790 0.93432 -0.066289
792319120 0.93965 -0.071818
795282450 0.941373 -0.07177
798245780 0.946047 -0.07079
801209110 0.947282 -0.069161
804172440 0.945758 -0.071538
807135770 0.94522 -0.07057
810099100 0.940177 -0.071813
813062430 0.935838 -0.071401
816025760 0.928529 -0.073728
818989090 0.929036 -0.075943
821952420 0.9356 -0.073216
824915750 0.940566 -0.072731
827879080 0.943465 -0.075948
830842410 0.94571 -0.077189
833805740 0.945746 -0.075915
836769070 0.94282 -0.071593
839732400 0.94071 -0.073971
842695730 0.932847 -0.073799
845659060 0.925264 -0.074861
848622390 0.924832 -0.07642
851585720 0.932591 -0.079317
854549050 0.939175 -0.079048
857512380 0.941015 -0.082065
860475710 0.945006 -0.079771
863439040 0.94479 -0.079605
866402370 0.942654 -0.079045
869365700 0.939447 -0.078844
872329030 0.932975 -0.079168
875292360 0.92777 -0.081369
878255690 0.924411 -0.082078
881219020 0.933931 -0.085126
884182350 0.937786 -0.083796
887145680 0.942089 -0.086364
890109010 0.942473 -0.088192
893072340 0.946351 -0.087479
896035670 0.945211 -0.082864
898999000 0.940754 -0.086631
901962330 0.9354 -0.079897
904925660 0.92926 -0.076742
907888990 0.92678 -0.080757
910852320 0.934075 -0.087615
913815650 0.938773 -0.08287
916778980 0.942826 -0.083231
919742310 0.941649 -0.083037
922705640 0.945716 -0.079789
925668970 0.942227 -0.084844
928632300 0.94078 -0.081318
931595630 0.934662 -0.074848
934558960 0.926955 -0.077378
937522290 0.922299 -0.07804
940485620 0.929538 -0.079163
943448950 0.93444 -0.081189
946412280 0.938157 -0.084037
949375610 0.940455 -0.082006
952338940 0.940916 -0.084057
955302270 0.94028 -0.080236
958265600 0.938429 -0.082651
961228930 0.933117 -0.080254
964192260 0.927929 -0.079835
967155590 0.922412 -0.077203
970118920 0.926431 -0.08372
973082250 0.932465 -0.083573
976045580 0.938117 -0.086781
979008910 0.937929 -0.084017
981972240 0.941686 -0.088389
984935570 0.940056 -0.087149
987898900 0.939002 -0.083725
990862230 0.934783 -0.079768
993825560 0.927223 -0.081953
996788890 0.921503 -0.0778
999752220 0.930772 -0.083745
1002715550 0.935291 -0.083031
1005678880 0.937999 -0.082946
1008642210 0.938767 -0.081956
1011605540 0.941238 -0.085053
1014568870 0.938317 -0.08061
1017532200 0.936647 -0.079721
1020495530 0.932259 -0.079357
1023458860 0.92911 -0.080924
1026422190 0.921239 -0.075153
1029385520 0.926085 -0.074461
1032348850 0.931778 -0.080898
1035312180 0.935509 -0.082966
1038275510 0.939823 -0.080343
1041238840 0.941344 -0.083174
1044202170 0.938383 -0.082221
1047165500 0.938087 -0.080249
1050128830 0.933904 -0.081715
1053092160 0.929119 -0.079062
1056055490 0.922601 -0.074365
1059018820 0.926795 -0.07756
1061982150 0.9311 -0.080225
1064945480 0.933008 -0.10079
1067908810 0.937451 -0.08218
1070872140 0.940128 -0.082806
1073835470 0.943386 -0.081039
1076798800 0.938227 -0.07999
1079762130 0.936542 -0.074941
1082725460 0.92947 -0.081214
1085688790 0.923385 -0.078161
1088652120 0.92898 -0.076938
1091615450 0.93559 -0.079523
1094578780 0.93869 -0.077801
1097542110 0.940275 -0.081251
1100505440 0.942119 -0.08115
1103468770 0.942054 -0.07876
1106432100 0.939613 -0.076205
1109395430 0.934592 -0.079354
1112358760 0.930435 -0.075417
1115322090 0.922503 -0.079355
1118285420 0.927311 -0.077343
1121248750 0.932277 -0.07951
1124212080 0.933772 -0.082109
1127175410 0.939283 -0.083858
1130138740 0.940775 -0.081526
1133102070 0.941825 -0.080035
1136065400 0.938262 -0.084963
1139028730 0.934937 -0.087413
1141992060 0.924787 -0.086546
1144955390 0.920864 -0.085549
1147918720 0.925168 -0.085032
1150882050 0.928817 -0.090075
1153845380 0.934831 -0.088586
1156808710 0.943374 -0.089132
1159772040 0.94273 -0.088031
1162735370 0.942369 -0.091356
1165698700 0.940022 -0.087134
1168662030 0.935522 -0.088728
1171625360 0.92971 -0.085448
1174588690 0.922134 -0.091742
1177552020 0.922208 -0.091296
1180515350 0.930886 -0.089703
1183478680 0.938046 -0.095338
1186442010 0.938897 -0.09039
1189405340 0.940277 -0.096145
1192368670 0.942531 -0.08563
1195332000 0.937524 -0.093697
1198295330 0.936321 -0.089432
1201258660 0.929583 -0.092846
1204221990 0.92017 -0.091735
1207185320 0.918828 -0.090876
1210148650 0.927485 -0.098404
1213111980 0.9339 -0.095372
1216075310 0.937799 -0.097336
1219038640 0.93852 -0.095825
1222001970 0.937921 -0.099156
1224965300 0.933367 -0.1007
1227928630 0.933219 -0.096999
1230891960 0.928413 -0.097756
1233855290 0.918931 -0.097356
1236818620 0.916743 -0.098408
1239781950 0.924973 -0.097862
1242745280 0.93001 -0.107232
1245708610 0.935635 -0.104188
1248671940 0.936784 -0.102436
1251635270 0.939515 -0.102278
1254598600 0.938672 -0.100705
1257561930 0.933815 -0.09973
1260525260 0.927084 -0.097159
1263488590 0.919601 -0.097082
1266451920 0.914764 -0.090447
1269415250 0.922011 -0.102482
1272378580 0.926694 -0.105616
1275341910 0.931751 -0.10229
1278305240 0.932409 -0.104112
1281268570 0.932959 -0.105021
1284231900 0.931201 -0.111232
1287195230 0.928695 -0.103941
1290158560 0.92374 -0.101312
1293121890 0.915731 -0.104392
1296085220 0.910224 -0.09874
1299048550 0.914829 -0.106542
1302011880 0.92298 -0.102436
1304975210 0.926241 -0.108488
1307938540 0.928631 -0.110216
1310901870 0.928045 -0.113932
1313865200 0.925597 -0.106507
1316828530 0.92718 -0.10721
1319791860 0.920984 -0.102921
1322755190 0.913483 -0.104036
1325718520 0.907258 -0.101041
1328681850 0.914976 -0.107628
1331645180 0.919761 -0.099725
1334608510 0.923656 -0.103971
1337571840 0.92247 -0.106969
1340535170 0.924076 -0.108678
1343498500 0.925268 -0.106864
1346461830 0.924814 -0.106135
1349425160 0.920862 -0.107933
1352388490 0.914798 -0.107603
1355351820 0.907293 -0.104631
1358315150 0.913543 -0.104594
1361278480 0.917315 -0.105908
1364241810 0.921709 -0.108256
1367205140 0.928207 -0.111614
1370168470 0.932745 -0.102453
1373131800 0.929893 -0.105908
1376095130 0.925128 -0.102429
1379058460 0.923231 -0.100293
1382021790 0.923852 -0.10193
1384985120 0.912061 -0.103195
1387948450 0.91781 -0.098631
1390911780 0.927425 -0.107769
1393875110 0.925238 -0.104948
1396838440 0.931639 -0.105698
1399801770 0.928405 -0.100965
1402765100 0.925304 -0.100857
1405728430 0.927704 -0.099759
1408691760 0.92522 -0.100658
1411655090 0.919073 -0.094335
1414618420 0.910861 -0.100054
1417581750 0.91834 -0.101623
1420545080 0.91904 -0.107558
1423508410 0.925423 -0.106934
1426471740 0.926369 -0.106822
1429435070 0.926009 -0.106744
1432398400 0.928418 -0.101494
1435361730 0.925321 -0.103899
1438325060 0.925757 -0.1022
1441288390 0.918854 -0.107347
1444251720 0.914781 -0.102499
1447215050 0.915605 -0.109155
1450178380 0.921761 -0.107832
1453141710 0.92853 -0.103022
1456105040 0.930474 -0.103826
1459068370 0.931826 -0.096848
1462031700 0.93303 -0.098045
1464995030 0.930822 -0.101776
1467958360 0.924071 -0.098
1470921690 0.920756 -0.093062
1473885020 0.914419 -0.094247
1476848350 0.917654 -0.091879
1479811680 0.921913 -0.09637
1482775010 0.928889 -0.10052
1485738340 0.930738 -0.093044
1488701670 0.933508 -0.098941
1491665000 0.933214 -0.096991
1494628330 0.930618 -0.098377
1497591660 0.928101 -0.097999
1500554990 0.923312 -0.09202
1503518320 0.914006 -0.099582
1506481650 0.914329 -0.101919
1509444980 0.921212 -0.103905
1512408310 0.928367 -0.100094
1515371640 0.930551 -0.104493
1518334970 0.932346 -0.104648
1521298300 0.933583 -0.107256
1524261630 0.931965 -0.105158
1527224960 0.92708 -0.10562
1530188290 0.919231 -0.107891
1533151620 0.914442 -0.104998
1536114950 0.914633 -0.104064
1539078280 0.922236 -0.112473
1542041610 0.930961 -0.107694
1545004940 0.925095 -0.12304
1547968270 0.918732 -0.13355
1550931600 0.906578 -0.140935
1553894930 0.928807 -0.106777
1556858260 0.92929 -0.108825
1559821590 0.923708 -0.106703
1562784920 0.911385 -0.106937
1565748250 0.910328 -0.108608
1568711580 0.919834 -0.112266
1571674910 0.927748 -0.111537
1574638240 0.928626 -0.113363
1577601570 0.931969 -0.110502
1580564900 0.934347 -0.109304
1583528230 0.929696 -0.112889
1586491560 0.928512 -0.109063
1589454890 0.920673 -0.109111
1592418220 0.914315 -0.107733
1595381550 0.910528 -0.104468
1598344880 0.914463 -0.108792
1601308210 0.921214 -0.114793
1604271540 0.923733 -0.117804
1607234870 0.928038 -0.118948
1610198200 0.927409 -0.11697
1613161530 0.925937 -0.114986
1616124860 0.925779 -0.108565
1619088190 0.918379 -0.117422
1622051520 0.911282 -0.111039
1625014850 0.903609 -0.120502
1627978180 0.913543 -0.110047
1630941510 0.915435 -0.125684
1633904840 0.920721 -0.119867
1636868170 0.925398 -0.109472
1639831500 0.926545 -0.114942
1642794830 0.924457 -0.111495
1645758160 0.920906 -0.115034
1648721490 0.915414 -0.11217
1651684820 0.907876 -0.105964
1654648150 0.906149 -0.089534
1657611480 0.909167 -0.113026
1660574810 0.914111 -0.109488
1663538140 0.915175 -0.120124
1666501470 0.921013 -0.116565
1669464800 0.9207 -0.117955
1672428130 0.918768 -0.109485
1675391460 0.917118 -0.107993
1678354790 0.912956 -0.117676
1681318120 0.904599 -0.116999
1684281450 0.896955 -0.117627
1687244780 0.90195 -0.13832
1690208110 0.908916 -0.120477
1693171440 0.914174 -0.118646
1696134770 0.917058 -0.12042
1699098100 0.916875 -0.123807
1702061430 0.916157 -0.121265
1705024760 0.913551 -0.120785
1707988090 0.912196 -0.118523
1710951420 0.90647 -0.117822
1713914750 0.897169 -0.122638
1716878080 0.904896 -0.115883
1719841410 0.909654 -0.120684
1722804740 0.913346 -0.120991
1725768070 0.914862 -0.122532
1728731400 0.917962 -0.124211
1731694730 0.918732 -0.120905
1734658060 0.912907 -0.123613
1737621390 0.910122 -0.115698
1740584720 0.90894 -0.118941
1743548050 0.898788 -0.117235
1746511380 0.90206 -0.115185
1749474710 0.911514 -0.121104
1752438040 0.916033 -0.123269
1755401370 0.918101 -0.122395
1758364700 0.917196 -0.123022
1761328030 0.914988 -0.127694
1764291360 0.915614 -0.119613
1767254690 0.908052 -0.117191
1770218020 0.906472 -0.122674
1773181350 0.897606 -0.125281
1776144680 0.900559 -0.126851
1779108010 0.912117 -0.121076
1782071340 0.91906 -0.111258
1785034670 0.921367 -0.118486
1787998000 0.923336 -0.122025
1790961330 0.919942 -0.124276
1793924660 0.919815 -0.119695
1796887990 0.911792 -0.118385
1799851320 0.909279 -0.113774
1802814650 0.905009 -0.115271
1805777980 0.904235 -0.119847
1808741310 0.913558 -0.116293
1811704640 0.917177 -0.119327
1814667970 0.923735 -0.114801
1817631300 0.919764 -0.12187
1820594630 0.921192 -0.119749
1823557960 0.916772 -0.115675
1826521290 0.915112 -0.118373
1829484620 0.91085 -0.120638
1832447950 0.906117 -0.108332
1835411280 0.903913 -0.108738
1838374610 0.911228 -0.114208
1841337940 0.913684 -0.122703
1844301270 0.89689 -0.133607
1847264600 0.91927 -0.116314
1850227930 0.924115 -0.115131
1853191260 0.921071 -0.121537
1856154590 0.913284 -0.120482
1859117920 0.90729 -0.118639
1862081250 0.90198 -0.120542
1865044580 0.901858 -0.113592
1868007910 0.904828 -0.128048
1870971240 0.912191 -0.12084
1873934570 0.919983 -0.120424
1876897900 0.922288 -0.118294
1879861230 0.919219 -0.123606
1882824560 0.919471 -0.119149
1885787890 0.917001 -0.115285
1888751220 0.911262 -0.118072
1891714550 0.90312 -0.113424
1894677880 0.899431 -0.117871
1897641210 0.909654 -0.110331
1900604540 0.912413 -0.119721
1903567870 0.916738 -0.120583
1906531200 0.914595 -0.125368
1909494530 0.918972 -0.116185
1912457860 0.912089 -0.120514
1915421190 0.913261 -0.110992
1918384520 0.908616 -0.120294
1921347850 0.903651 -0.112283
1924311180 0.898051 -0.114522
1927274510 0.907369 -0.117683
1930237840 0.911249 -0.120694
1933201170 0.91408 -0.118375
1936164500 0.916878 -0.119321
1939127830 0.916665 -0.119772
1942091160 0.918007 -0.118026
1945054490 0.912859 -0.110908
1948017820 0.906825 -0.111525
1950981150 0.9126 -0.077673
1953944480 0.898477 -0.110214
1956907810 0.901972 -0.112251
1959871140 0.905913 -0.119259
1962834470 0.910245 -0.12315
1965797800 0.911029 -0.117933
1968761130 0.916312 -0.116734
1971724460 0.915778 -0.112493
1974687790 0.913254 -0.116176
1977651120 0.908356 -0.11585
1980614450 0.902614 -0.118794
1983577780 0.901826 -0.117977
1986541110 0.90316 -0.11827
1989504440 0.909291 -0.119376
1992467770 0.912239 -0.118094
1995431100 0.911704 -0.124807
1998394430 0.914932 -0.118462
2001357760 0.90666 -0.125645
2004321090 0.910609 -0.11319
2007284420 0.908503 -0.116117
2010247750 0.901122 -0.11722
2013211080 0.891514 -0.11946
2016174410 0.898857 -0.117797
2019137740 0.907821 -0.11671
2022101070 0.909501 -0.120758
2025064400 0.916352 -0.115462
2028027730 0.911539 -0.126917
2030991060 0.908044 -0.115793
2033954390 0.909291 -0.115732
2036917720 0.904103 -0.123902
2039881050 0.899754 -0.116683
2042844380 0.893074 -0.110122
2045807710 0.897278 -0.11936
2048771040 0.901454 -0.116756
2051734370 0.909782 -0.123866
2054697700 0.910421 -0.125923
2057661030 0.910183 -0.122292
2060624360 0.910346 -0.129351
2063587690 0.906188 -0.120713
2066551020 0.904365 -0.12309
2069514350 0.899294 -0.125549
2072477680 0.893616 -0.120296
2075441010 0.894838 -0.13136
2078404340 0.893021 -0.122595
2081367670 0.906757 -0.134387
2084331000 0.908957 -0.131199
2087294330 0.910273 -0.128522
2090257660 0.907732 -0.131589
2093220990 0.912098 -0.129778
2096184320 0.905705 -0.119728
2099147650 0.897063 -0.128213
2102110980 0.892614 -0.125775
2105074310 0.893105 -0.124705
2108037640 0.900849 -0.134332
2111000970 0.905558 -0.128842
2113964300 0.908883 -0.125724
2116927630 0.909606 -0.13021
2119890960 0.911782 -0.129222
2122854290 0.906093 -0.119274
2125817620 0.903959 -0.12768
2128780950 0.896659 -0.119889
2131744280 0.891572 -0.122132
2134707610 0.895236 -0.131232
2137670940 0.899233 -0.122886
2140634270 0.90423 -0.12758
2143597600 0.915345 -0.100656
2146560930 0.909074 -0.131529
2149524260 0.909016 -0.1305
2152487590 0.909636 -0.13054
2155450920 0.907679 -0.132808
2158414250 0.898809 -0.127157
2161377580 0.89036 -0.134337
2164340910 0.893365 -0.131969
2167304240 0.897506 -0.131563
2170267570 0.901467 -0.134684
2173230900 0.909455 -0.129866
2176194230 0.90841 -0.131656
2179157560 0.913474 -0.1296
2182120890 0.909173 -0.131999
2185084220 0.90634 -0.126608
2188047550 0.899579 -0.125865
2191010880 0.895162 -0.12945
2193974210 0.884829 -0.128516
2196937540 0.899701 -0.13549
2199900870 0.902575 -0.132091
2202864200 0.904976 -0.131463
2205827530 0.907391 -0.133513
2208790860 0.903838 -0.139258
2211754190 0.91192 -0.126712
2214717520 0.908484 -0.127814
2217680850 0.893581 -0.136441
2220644180 0.895628 -0.13275
2223607510 0.887881 -0.135782
2226570840 0.893393 -0.135312
2229534170 0.894783 -0.140294
2232497500 0.905738 -0.130777
2235460830 0.902782 -0.139095
2238424160 0.906542 -0.141207
2241387490 0.906656 -0.127465
2244350820 0.899634 -0.138363
2247314150 0.895154 -0.133083
2250277480 0.886906 -0.132738
2253240810 0.884453 -0.135668
2256204140 0.891123 -0.134642
2259167470 0.900129 -0.134378
2262130800 0.902699 -0.134418
2265094130 0.903483 -0.132623
2268057460 0.899731 -0.143465
2271020790 0.898552 -0.138093
2273984120 0.899846 -0.135224
2276947450 0.897626 -0.133678
2279910780 0.895164 -0.130909
2282874110 0.894116 -0.136591
2285837440 0.890546 -0.135667
2288800770 0.900659 -0.134795
2291764100 0.903259 -0.138797
2294727430 0.903865 -0.134231
2297690760 0.905908 -0.134725
2300654090 0.90313 -0.136115
2303617420 0.902949 -0.132658
2306580750 0.898153 -0.131446
2309544080 0.88902 -0.136294
2312507410 0.883229 -0.131457
2315470740 0.894315 -0.130622
2318434070 0.898829 -0.129878
2321397400 0.901272 -0.136492
2324360730 0.904503 -0.134083
2327324060 0.910307 -0.131704
2330287390 0.903668 -0.132535
2333250720 0.900435 -0.131956
2336214050 0.893405 -0.133813
2339177380 0.893886 -0.132097
2342140710 0.890959 -0.132766
2345104040 0.895932 -0.137451
2348067370 0.896144 -0.135447
2351030700 0.900495 -0.130863
2353994030 0.892793 -0.147026
2356957360 0.90038 -0.137296
2359920690 0.904593 -0.129757
2362884020 0.893347 -0.12862
2365847350 0.89874 -0.137441
2368810680 0.883384 -0.137906
2371774010 0.881963 -0.135537
2374737340 0.888156 -0.127595
2377700670 0.894427 -0.140836
2380664000 0.893804 -0.149131
2383627330 0.895833 -0.138315
2386590660 0.902872 -0.132144
2389553990 0.896211 -0.148477
2392517320 0.893159 -0.14451
2395480650 0.894222 -0.13986
2398443980 0.890589 -0.135543
2401407310 0.884581 -0.140158
2404370640 0.881813 -0.148729
2407333970 0.889683 -0.137854
2410297300 0.89365 -0.143528
2413260630 0.896765 -0.131749
2416223960 0.898042 -0.142644
2419187290 0.893972 -0.14296
2422150620 0.894071 -0.141271
2425113950 0.893469 -0.142786
2428077280 0.885359 -0.153756
2431040610 0.884111 -0.139701
2434003940 0.889336 -0.149207
2436967270 0.887789 -0.145474
2439930600 0.889738 -0.141192
2442893930 1.033057 -0.146545
2445857260 0.904398 -0.14246
2448820590 0.89513 -0.147972
2451783920 0.892266 -0.153712
2454747250 0.892638 -0.143992
2457710580 0.890734 -0.152954
2460673910 0.886854 -0.141895
2463637240 0.88825 -0.147345
2466600570 0.891096 -0.146929
2469563900 0.901556 -0.149889
2472527230 0.90138 -0.148616
2475490560 0.897459 -0.148903
2478453890 0.9053 -0.142486
2481417220 0.894719 -0.13957
2484380550 0.899559 -0.139313
2487343880 0.892013 -0.139155
2490307210 0.884008 -0.146768
2493270540 0.882921 -0.141801
2496233870 0.892442 -0.166309
2499197200 0.895185 -0.140417
2502160530 0.899888 -0.13596
2505123860 0.907404 -0.130135
2508087190 0.908104 -0.141371
2511050520 0.901485 -0.133472
2514013850 0.8941 -0.139578
2516977180 0.889642 -0.12624
2519940510 0.884291 -0.134503
2522903840 0.879236 -0.12693
2525867170 0.885667 -0.129068
2528830500 0.889322 -0.124135
2531793830 0.890196 -0.137692
2534757160 0.897552 -0.141839
2537720490 0.898317 -0.141604
2540683820 0.891025 -0.140275
2543647150 0.895537 -0.141387
2546610480 0.889744 -0.142854
2549573810 0.884484 -0.146361
2552537140 0.880657 -0.146837
2555500470 0.887619 -0.147435
2558463800 0.895689 -0.152342
2561427130 0.893344 -0.148715
2564390460 0.903117 -0.147867
2567353790 0.898498 -0.141069
2570317120 0.896442 -0.148591
2573280450 0.89992 -0.140117
2576243780 0.891927 -0.14292
2579207110 0.881818 -0.141044
2582170440 0.881912 -0.136411
2585133770 0.882204 -0.147732
2588097100 0.886709 -0.15382
2591060430 0.891959 -0.142345
2594023760 0.892933 -0.146394
2596987090 0.888905 -0.150642
2599950420 0.896492 -0.147984
2602913750 0.887622 -0.142251
2605877080 0.883322 -0.143579
2608840410 0.876039 -0.146633
2611803740 0.875646 -0.143355
2614767070 0.87825 -0.150975
2617730400 0.879806 -0.153291
2620693730 0.885628 -0.148795
2623657060 0.882868 -0.155803
2626620390 0.886439 -0.155047
2629583720 0.885234 -0.157643
2632547050 0.883504 -0.155356
2635510380 0.876449 -0.152247
2638473710 0.874253 -0.151688
2641437040 0.865184 -0.149672
2644400370 0.87723 -0.151191
2647363700 0.877063 -0.149225
2650327030 0.88074 -0.162094
2653290360 0.888017 -0.156539
2656253690 0.881349 -0.157504
2659217020 0.888609 -0.15357
2662180350 0.87642 -0.156542
2665143680 0.874507 -0.149956
2668107010 0.872802 -0.151629
2671070340 0.863793 -0.151406
2674033670 0.868163 -0.155191
2676997000 0.87941 -0.14901
2679960330 0.884021 -0.155281
2682923660 0.877224 -0.156185
2685886990 0.886034 -0.159793
2688850320 0.885897 -0.157897
2691813650 0.890725 -0.154596
2694776980 0.88014 -0.159906
2697740310 0.88593 -0.153537
2700703640 0.881219 -0.143959
2703666970 0.886884 -0.159174
2706630300 0.882699 -0.168281
2709593630 0.890218 -0.161653
2712556960 0.885339 -0.155935
2715520290 0.890591 -0.155163
2718483620 0.899567 -0.156838
2721446950 0.886095 -0.163651
2724410280 0.892174 -0.147322
2727373610 0.884845 -0.149216
2730336940 0.875818 -0.146375
2733300270 0.878626 -0.148602
2736263600 0.883118 -0.141978
2739226930 0.895691 -0.143847
2742190260 0.88938 -0.151787
2745153590 0.892091 -0.153142
2748116920 0.885752 -0.156233
2751080250 0.887995 -0.1506
2754043580 0.889417 -0.141952
2757006910 0.877746 -0.147155
2759970240 0.862917 -0.153894
2762933570 0.862932 -0.159951
2765896900 0.876792 -0.160645
2768860230 0.884748 -0.161533
2771823560 0.879915 -0.152384
2774786890 0.882476 -0.160544
2777750220 0.890111 -0.159193
2780713550 0.88644 -0.162909
2783676880 0.877672 -0.159676
2786640210 0.875235 -0.161449
2789603540 0.858801 -0.17706
2792566870 0.864895 -0.181139
2795530200 0.875363 -0.17942
2798493530 0.886627 -0.167634
2801456860 0.882509 -0.170922
2804420190 0.876658 -0.177323
2807383520 0.890291 -0.1767
2810346850 0.884802 -0.166593
2813310180 0.885907 -0.177491
2816273510 0.875784 -0.183473
2819236840 0.873317 -0.164836
2822200170 0.871368 -0.176047
2825163500 0.886358 -0.158829
2828126830 0.881041 -0.165098
2831090160 0.899765 -0.185023
2834053490 0.897796 -0.185554
2837016820 0.903712 -0.167944
2839980150 0.900176 -0.160767
2842943480 0.897834 -0.171628
2845906810 0.893425 -0.149849
2848870140 0.89159 -0.14723
2851833470 0.889447 -0.182131
2854796800 0.889783 -0.158719
2857760130 0.888645 -0.170948
2860723460 0.892944 -0.151682
2863686790 0.895979 -0.170064
2866650120 0.896652 -0.158143
2869613450 0.895054 -0.181956
2872576780 0.903132 -0.193988
2875540110 0.886524 -0.177573
2878503440 0.875522 -0.162841
2881466770 0.867162 -0.16668
2884430100 0.873795 -0.170336
2887393430 0.88562 -0.176554
2890356760 0.882554 -0.186401
2893320090 0.887354 -0.172708
2896283420 0.887294 -0.170849
2899246750 0.889652 -0.166634
2902210080 0.880429 -0.17357
2905173410 0.877818 -0.162956
2908136740 0.872792 -0.177095
2911100070 0.868039 -0.165491
2914063400 0.875242 -0.175029
2917026730 0.880027 -0.1687
2919990060 0.877414 -0.172067
2922953390 0.882694 -0.165126
2925916720 0.881902 -0.172039
2928880050 0.883249 -0.157402
2931843380 0.872498 -0.155534
2934806710 0.874958 -0.15567
2937770040 0.86156 -0.153352
2940733370 0.862818 -0.153467
2943696700 0.866067 -0.158266
2946660030 0.875399 -0.162048
2949623360 0.871198 -0.152685
2952586690 0.87075 -0.171151
2955550020 0.868829 -0.167599
2958513350 0.871577 -0.163726
2961476680 0.873135 -0.16768
2964440010 0.872261 -0.154412
2967403340 0.865097 -0.162819
2970366670 0.858939 -0.156604
2973330000 0.864171 -0.160196
2976293330 0.865786 -0.1632
2979256660 0.870905 -0.170127
2982219990 0.871637 -0.170601
2985183320 0.874444 -0.157956
2988146650 0.873286 -0.161301
2991109980 0.874034 -0.158188
2994073310 0.868051 -0.155048
2997036640 0.864465 -0.152854
2999999970 0.860685 -0.150001
