# HZ S RI R 50
10000000 0.998047 -0.003536
12963330 1.000007 -0.006764
15926660 1.006091 -0.010383
18889990 1.011294 -0.014637
21853320 1.013317 -0.016287
24816650 1.015091 -0.016935
27779980 1.014277 -0.018101
30743310 1.011728 -0.0185
33706640 1.009728 -0.018314
36669970 1.003645 -0.01747
39633300 0.995294 -0.015681
42596630 1.002394 -0.020546
45559960 1.008449 -0.022984
48523290 1.013884 -0.026875
51486620 1.015875 -0.027392
54449950 1.017601 -0.027859
57413280 1.014713 -0.028902
60376610 1.014078 -0.028678
63339940 1.008652 -0.027496
66303270 1.002392 -0.026361
69266600 0.992954 -0.02688
72229930 0.997654 -0.029668
75193260 1.00408 -0.032687
78156590 1.004848 -0.037636
81119920 1.009618 -0.035744
84083250 1.009855 -0.034725
87046580 1.008581 -0.037261
90009910 1.006908 -0.035636
92973240 1.000829 -0.036085
95936570 0.995656 -0.035506
98899900 0.989614 -0.034138
101863230 0.99223 -0.037823
104826560 0.995529 -0.038198
107789890 0.999422 -0.040846
110753220 1.001504 -0.041692
113716550 1.002311 -0.041053
116679880 1.001289 -0.042215
119643210 0.997693 -0.042992
122606540 0.995078 -0.041132
125569870 0.990857 -0.040697
128533200 0.98326 -0.044106
131496530 0.984207 -0.041537
134459860 0.991739 -0.043703
137423190 0.984544 -0.054062
140386520 0.98813 -0.054731
143349850 0.99007 -0.053701
146313180 0.990358 -0.0532
149276510 0.988711 -0.052837
152239840 0.987918 -0.049451
155203170 0.983999 -0.048521
158166500 0.978728 -0.046736
161129830 0.978915 -0.046701
164093160 0.984724 -0.048505
167056490 0.988876 -0.048079
170019820 0.99021 -0.048595
172983150 0.992256 -0.047864
175946480 0.991601 -0.048379
178909810 0.990508 -0.047521
181873140 0.984426 -0.049092
184836470 0.979076 -0.047216
187799800 0.973172 -0.050051
190763130 0.971542 -0.050352
193726460 0.978024 -0.050245
196689790 0.982203 -0.050432
199653120 0.985604 -0.05001
202616450 0.987556 -0.050691
205579780 0.987073 -0.049936
208543110 0.985632 -0.048942
211506440 0.980459 -0.050624
214469770 0.975999 -0.050297
217433100 0.969474 -0.051619
220396430 0.968181 -0.052881
223359760 0.973432 -0.05281
226323090 0.978774 -0.053544
229286420 0.98282 -0.052298
232249750 0.983849 -0.051956
235213080 0.983768 -0.051981
238176410 0.982021 -0.051072
241139740 0.978972 -0.051807
244103070 0.972271 -0.05333
247066400 0.964834 -0.054644
250029730 0.961369 -0.055275
252993060 0.968618 -0.057002
255956390 0.976382 -0.056719
258919720 0.97957 -0.056883
261883050 0.98256 -0.055649
264846380 0.982237 -0.055785
267809710 0.980388 -0.052836
270773040 0.977834 -0.054653
273736370 0.970544 -0.054548
276699700 0.962991 -0.057836
279663030 0.958137 -0.057479
282626360 0.966332 -0.058592
285589690 0.975614 -0.059423
288553020 0.975499 -0.05789
291516350 0.977316 -0.057312
294479680 0.97838 -0.058792
297443010 0.976767 -0.055866
300406340 0.971225 -0.055109
303369670 0.966698 -0.056822
306333000 0.95921 -0.056987
309296330 0.950779 -0.057056
312259660 0.959372 -0.060443
315222990 0.96713 -0.06031
318186320 0.970344 -0.061497
321149650 0.97351 -0.059956
324112980 0.974689 -0.060735
327076310 0.973588 -0.060696
330039640 0.970409 -0.060645
333002970 0.965449 -0.059388
335966300 0.95681 -0.061757
338929630 0.949709 -0.0603
341892960 0.955788 -0.064518
344856290 0.964698 -0.063616
347819620 0.966553 -0.064547
350782950 0.97115 -0.065095
353746280 0.972122 -0.063699
356709610 0.97143 -0.063916
359672940 0.967717 -0.062046
362636270 0.962596 -0.062437
365599600 0.953798 -0.063155
368562930 0.94601 -0.062764
371526260 0.952534 -0.064041
374489590 0.957961 -0.065971
377452920 0.963045 -0.066412
380416250 0.967002 -0.068284
383379580 0.967783 -0.067384
386342910 0.967125 -0.067037
389306240 0.962489 -0.066034
392269570 0.959911 -0.065529
395232900 0.953125 -0.064267
398196230 0.943884 -0.066663
401159560 0.948337 -0.06595
404122890 0.956467 -0.070076
407086220 0.961185 -0.070813
410049550 0.963593 -0.068266
413012880 0.964427 -0.067875
415976210 0.963802 -0.06686
418939540 0.961897 -0.067104
421902870 0.956652 -0.063109
424866200 0.951201 -0.062982
427829530 0.943095 -0.063268
430792860 0.94612 -0.064903
433756190 0.951345 -0.066794
436719520 0.956623 -0.065886
439682850 0.960168 -0.067664
442646180 0.961219 -0.068988
445609510 0.961094 -0.066265
448572840 0.958857 -0.064881
451536170 0.953371 -0.065711
454499500 0.947937 -0.065256
457462830 0.941214 -0.06467
460426160 0.942143 -0.065406
463389490 0.947853 -0.069077
466352820 0.952197 -0.069033
469316150 0.954826 -0.069499
472279480 0.955777 -0.069591
475242810 0.95475 -0.066872
478206140 0.952997 -0.066901
481169470 0.948909 -0.066795
484132800 0.942918 -0.066101
487096130 0.93618 -0.066015
490059460 0.936777 -0.06809
493022790 0.943022 -0.068902
495986120 0.949333 -0.068734
498949450 0.953483 -0.069109
501912780 0.955261 -0.069459
504876110 0.954068 -0.070209
507839440 0.953376 -0.068033
510802770 0.94912 -0.064572
513766100 0.945296 -0.065333
516729430 0.938926 -0.066039
519692760 0.938729 -0.064584
522656090 0.943754 -0.06498
525619420 0.950755 -0.066484
528582750 0.954846 -0.065332
531546080 0.954618 -0.067114
534509410 0.956262 -0.065792
537472740 0.95385 -0.065974
540436070 0.949201 -0.067483
543399400 0.944523 -0.065985
546362730 0.939008 -0.067566
549326060 0.935346 -0.068753
552289390 0.94478 -0.069871
555252720 0.950395 -0.070894
558216050 0.954905 -0.066155
561179380 0.953539 -0.069223
564142710 0.956764 -0.070539
567106040 0.954445 -0.067007
570069370 0.950829 -0.065162
573032700 0.946092 -0.065981
575996030 0.922867 -0.07729
578959360 0.934847 -0.065972
581922690 0.944898 -0.066638
584886020 0.94901 -0.07148
587849350 0.954831 -0.069464
590812680 0.955519 -0.068527
593776010 0.95537 -0.066407
596739340 0.954821 -0.068004
599702670 0.95033 -0.069067
602666000 0.943803 -0.066763
605629330 0.937754 -0.067241
608592660 0.932765 -0.068818
611555990 0.940467 -0.070217
614519320 0.946748 -0.072072
617482650 0.95131 -0.069825
620445980 0.955584 -0.070207
623409310 0.954828 -0.070086
626372640 0.955561 -0.066696
629335970 0.950446 -0.069267
632299300 0.947834 -0.066349
635262630 0.939085 -0.064842
638225960 0.930697 -0.06874
641189290 0.939519 -0.069982
644152620 0.946614 -0.07035
647115950 0.950422 -0.070643
650079280 0.952906 -0.069863
653042610 0.952579 -0.070506
656005940 0.952892 -0.070907
658969270 0.949613 -0.067702
661932600 0.946227 -0.069732
664895930 0.938862 -0.067961
667859260 0.929991 -0.067894
670822590 0.938918 -0.068278
673785920 0.9469 -0.070791
676749250 0.950416 -0.070666
679712580 0.951212 -0.072684
682675910 0.952528 -0.074051
685639240 0.952284 -0.071828
688602570 0.947432 -0.071771
691565900 0.945149 -0.067138
694529230 0.937603 -0.068031
697492560 0.930175 -0.067556
700455890 0.93829 -0.068855
703419220 0.943077 -0.072674
706382550 0.94651 -0.070728
709345880 0.948967 -0.073868
712309210 0.950756 -0.074037
715272540 0.949784 -0.070038
718235870 0.948266 -0.069106
721199200 0.944614 -0.070296
724162530 0.937455 -0.069438
727125860 0.927411 -0.068632
730089190 0.933565 -0.069258
733052520 0.939952 -0.074409
736015850 0.94294 -0.072909
738979180 0.947218 -0.073219
741942510 0.948912 -0.077406
744905840 0.946443 -0.072874
747869170 0.945325 -0.071026
750832500 0.940178 -0.07206
753795830 0.936457 -0.070458
756759160 0.927097 -0.068989
759722490 0.933756 -0.059474
762685820 0.938356 -0.072495
765649150 0.94249 -0.070576
768612480 0.946072 -0.071843
771575810 0.945113 -0.073495
774539140 0.945914 -0.072257
777502470 0.945377 -0.069921
780465800 0.939865 -0.067772
783429130 0.933578 -0.071443
786392460 0.929274 -0.068341
789355790 0.929449 -0.068729
792319120 0.936946 -0.069574
795282450 0.939953 -0.075722
798245780 0.942939 -0.072976
801209110 0.946228 -0.073152
804172440 0.945038 -0.075169
807135770 0.943112 -0.075576
810099100 0.93887 -0.071532
813062430 0.931805 -0.068587
816025760 0.92497 -0.074395
818989090 0.926874 -0.076086
821952420 0.933638 -0.07488
824915750 0.939826 -0.075709
827879080 0.941941 -0.078348
830842410 0.94382 -0.07706
833805740 0.942649 -0.076928
836769070 0.939398 -0.077639
839732400 0.936947 -0.075462
842695730 0.93176 -0.078824
845659060 0.924601 -0.076273
848622390 0.92294 -0.077816
851585720 0.931556 -0.079147
854549050 0.936081 -0.079583
857512380 0.93918 -0.084131
860475710 0.942087 -0.082595
863439040 0.9417 -0.083233
866402370 0.939639 -0.080558
869365700 0.938551 -0.081094
872329030 0.930029 -0.082861
875292360 0.92326 -0.081871
878255690 0.923178 -0.078205
881219020 0.928816 -0.085965
884182350 0.936981 -0.087032
887145680 0.939096 -0.086101
890109010 0.94184 -0.086271
893072340 0.943036 -0.08325
896035670 0.944537 -0.084078
898999000 0.937857 -0.083102
901962330 0.933598 -0.084341
904925660 0.92869 -0.081807
907888990 0.922384 -0.082824
910852320 0.931776 -0.086256
913815650 0.933501 -0.082713
916778980 0.940618 -0.085584
919742310 0.942023 -0.088766
922705640 0.942723 -0.085774
925668970 0.941164 -0.084471
928632300 0.93814 -0.08116
931595630 0.931578 -0.07736
934558960 0.924684 -0.077704
937522290 0.921768 -0.072343
940485620 0.925481 -0.080019
943448950 0.931563 -0.0821
946412280 0.934501 -0.083096
949375610 0.939412 -0.086496
952338940 0.940133 -0.083661
955302270 0.94035 -0.082189
958265600 0.93582 -0.080189
961228930 0.93313 -0.080422
964192260 0.924422 -0.079918
967155590 0.921238 -0.080544
970118920 0.925084 -0.08207
973082250 0.930309 -0.089254
976045580 0.936507 -0.084141
979008910 0.938758 -0.085825
981972240 0.93728 -0.0859
984935570 0.938391 -0.087053
987898900 0.935416 -0.086436
990862230 0.932829 -0.079431
993825560 0.926712 -0.081491
996788890 0.919464 -0.081442
999752220 0.923692 -0.086354
1002715550 0.931668 -0.078707
1005678880 0.935228 -0.081616
1008642210 0.935761 -0.086799
1011605540 0.938475 -0.083316
1014568870 0.936436 -0.082205
1017532200 0.932285 -0.083321
1020495530 0.930526 -0.079897
1023458860 0.92439 -0.078687
1026422190 0.91753 -0.076674
1029385520 0.924713 -0.083037
1032348850 0.929352 -0.082099
1035312180 0.932962 -0.083647
1038275510 0.936953 -0.082709
1041238840 0.938099 -0.0811
1044202170 0.935686 -0.083561
1047165500 0.93627 -0.079078
1050128830 0.931879 -0.080928
1053092160 0.927442 -0.079711
1056055490 0.920399 -0.077459
1059018820 0.92511 -0.078022
1061982150 0.93156 -0.081023
1064945480 0.935223 -0.078004
1067908810 0.93851 -0.083236
1070872140 0.938813 -0.076343
1073835470 0.937963 -0.082072
1076798800 0.935922 -0.077284
1079762130 0.93236 -0.076612
1082725460 0.927403 -0.080376
1085688790 0.921366 -0.078099
1088652120 0.924576 -0.08185
1091615450 0.932265 -0.081599
1094578780 0.936543 -0.07693
1097542110 0.937923 -0.080576
1100505440 0.936442 -0.080844
1103468770 0.938073 -0.078292
1106432100 0.936577 -0.075005
1109395430 0.933172 -0.073895
1112358760 0.926381 -0.07731
1115322090 0.92069 -0.078232
1118285420 0.922623 -0.080017
1121248750 0.92641 -0.080429
1124212080 0.934111 -0.08027
1127175410 0.936635 -0.081177
1130138740 0.936145 -0.080545
1133102070 0.937092 -0.081782
1136065400 0.936723 -0.087201
1139028730 0.935456 -0.083461
1141992060 0.923577 -0.086295
1144955390 0.917304 -0.086796
1147918720 0.917212 -0.087548
1150882050 0.928107 -0.088767
1153845380 0.932452 -0.085156
1156808710 0.939149 -0.090694
1159772040 0.936729 -0.08826
1162735370 0.939909 -0.088955
1165698700 0.937985 -0.089621
1168662030 0.933563 -0.084724
1171625360 0.927203 -0.086416
1174588690 0.918529 -0.088498
1177552020 0.921422 -0.090648
1180515350 0.927979 -0.093842
1183478680 0.933362 -0.092148
1186442010 0.935606 -0.092793
1189405340 0.941205 -0.091037
1192368670 0.936761 -0.092771
1195332000 0.936645 -0.090979
1198295330 0.931505 -0.091586
1201258660 0.92741 -0.087627
1204221990 0.919202 -0.091549
1207185320 0.917819 -0.091154
1210148650 0.926144 -0.095954
1213111980 0.930898 -0.099136
1216075310 0.932143 -0.09849
1219038640 0.938001 -0.096305
1222001970 0.936782 -0.100134
1224965300 0.932141 -0.097516
1227928630 0.932246 -0.096851
1230891960 0.925459 -0.097476
1233855290 0.918016 -0.099791
1236818620 0.91359 -0.09666
1239781950 0.921396 -0.102988
1242745280 0.926538 -0.102907
1245708610 0.933179 -0.10486
1248671940 0.93314 -0.105026
1251635270 0.947413 -0.114022
1254598600 0.934727 -0.104689
1257561930 0.932111 -0.098487
1260525260 0.925483 -0.100001
1263488590 0.916064 -0.098778
1266451920 0.910855 -0.098884
1269415250 0.91831 -0.101264
1272378580 0.922446 -0.106238
1275341910 0.929946 -0.103963
1278305240 0.931976 -0.102314
1281268570 0.931937 -0.10661
1284231900 0.93061 -0.106333
1287195230 0.926259 -0.105443
1290158560 0.9194 -0.107477
1293121890 0.913135 -0.104382
1296085220 0.908766 -0.101271
1299048550 0.913963 -0.10801
1302011880 0.919454 -0.105662
1304975210 0.92433 -0.109553
1307938540 0.923597 -0.105506
1310901870 0.927937 -0.107908
1313865200 0.926464 -0.1031
1316828530 0.923781 -0.104635
1319791860 0.91953 -0.104692
1322755190 0.913409 -0.100021
1325718520 0.905946 -0.096619
1328681850 0.911118 -0.101857
1331645180 0.915848 -0.104618
1334608510 0.921209 -0.107397
1337571840 0.921178 -0.104353
1340535170 0.923959 -0.105447
1343498500 0.924572 -0.107634
1346461830 0.920954 -0.104838
1349425160 0.918398 -0.106182
1352388490 0.911218 -0.104887
1355351820 0.905077 -0.105763
1358315150 1.041445 -0.068874
1361278480 0.913972 -0.107713
1364241810 0.921713 -0.104403
1367205140 0.924367 -0.108643
1370168470 0.927885 -0.098839
1373131800 0.92853 -0.105801
1376095130 0.92249 -0.103939
1379058460 0.919971 -0.107861
1382021790 0.918643 -0.096157
1384985120 0.907986 -0.105146
1387948450 0.916906 -0.104658
1390911780 0.917648 -0.111852
1393875110 0.920913 -0.102764
1396838440 0.922516 -0.110491
1399801770 0.926989 -0.100022
1402765100 0.929016 -0.109522
1405728430 0.921321 -0.09748
1408691760 0.923045 -0.104525
1411655090 0.917813 -0.097274
1414618420 0.910893 -0.102623
1417581750 0.910948 -0.104051
1420545080 0.919621 -0.101879
1423508410 0.921913 -0.104921
1426471740 0.925934 -0.104009
1429435070 0.924033 -0.110027
1432398400 0.926102 -0.105883
1435361730 0.926623 -0.098374
1438325060 0.92356 -0.103379
1441288390 0.916067 -0.105832
1444251720 0.911983 -0.104835
1447215050 0.911803 -0.1072
1450178380 0.921098 -0.105728
1453141710 0.924525 -0.104513
1456105040 0.928868 -0.103995
1459068370 0.931268 -0.10028
1462031700 0.92897 -0.102671
1464995030 0.924767 -0.102735
1467958360 0.923818 -0.097054
1470921690 0.918052 -0.098477
1473885020 0.913044 -0.090197
1476848350 0.912493 -0.097485
1479811680 0.919927 -0.096512
1482775010 0.925394 -0.100268
1485738340 0.927871 -0.099875
1488701670 0.930335 -0.094472
1491665000 0.932447 -0.095164
1494628330 0.927337 -0.100782
1497591660 0.924135 -0.102275
1500554990 0.919645 -0.09764
1503518320 0.911556 -0.098017
1506481650 0.914039 -0.095984
1509444980 0.921599 -0.100992
1512408310 0.926911 -0.101814
1515371640 0.928286 -0.103028
1518334970 0.932264 -0.101581
1521298300 0.931606 -0.104421
1524261630 0.928046 -0.105766
1527224960 0.924439 -0.10547
1530188290 0.919713 -0.103989
1533151620 0.911988 -0.103452
1536114950 0.910587 -0.106835
1539078280 0.9198 -0.105782
1542041610 0.927409 -0.110708
1545004940 0.929728 -0.105641
1547968270 0.933473 -0.109208
1550931600 0.931788 -0.11031
1553894930 0.928364 -0.100477
1556858260 0.924407 -0.109032
1559821590 0.920227 -0.106893
1562784920 0.914182 -0.109937
1565748250 0.908223 -0.11585
1568711580 0.917344 -0.108255
1571674910 0.923301 -0.111353
1574638240 0.927201 -0.11057
1577601570 0.929556 -0.111838
1580564900 0.929987 -0.108215
1583528230 0.928709 -0.111141
1586491560 0.922833 -0.107954
1589454890 0.916387 -0.111865
1592418220 0.910021 -0.108523
1595381550 0.902589 -0.104364
1598344880 0.910847 -0.111554
1601308210 0.917937 -0.113812
1604271540 0.920851 -0.118812
1607234870 0.923527 -0.117728
1610198200 0.923463 -0.120108
1613161530 0.923543 -0.117632
1616124860 0.919911 -0.116396
1619088190 0.916747 -0.111265
1622051520 0.908359 -0.116068
1625014850 0.902593 -0.111546
1627978180 0.910386 -0.111807
1630941510 0.913234 -0.120005
1633904840 0.921264 -0.12258
1636868170 0.920758 -0.121165
1639831500 0.920143 -0.120649
1642794830 0.920503 -0.110652
1645758160 0.918378 -0.113923
1648721490 0.914463 -0.11371
1651684820 0.908188 -0.111413
1654648150 0.899706 -0.111066
1657611480 0.906287 -0.112039
1660574810 0.909855 -0.11608
1663538140 0.91513 -0.116981
1666501470 0.918831 -0.113635
1669464800 0.917836 -0.117488
1672428130 0.91386 -0.118455
1675391460 0.912672 -0.113545
1678354790 0.908799 -0.120807
1681318120 0.904152 -0.11127
1684281450 0.896513 -0.113791
1687244780 0.901007 -0.117994
1690208110 0.909113 -0.118356
1693171440 0.910748 -0.124748
1696134770 0.913945 -0.120105
1699098100 0.914599 -0.12899
1702061430 0.913431 -0.120279
1705024760 0.910872 -0.119926
1707988090 0.909662 -0.119216
1710951420 0.90327 -0.116343
1713914750 0.894896 -0.117622
1716878080 0.898933 -0.117676
1719841410 0.906732 -0.115899
1722804740 0.909706 -0.124518
1725768070 0.914888 -0.119329
1728731400 0.909757 -0.127763
1731694730 0.914047 -0.125752
1734658060 0.912139 -0.126536
1737621390 0.90948 -0.118619
1740584720 0.90168 -0.121884
1743548050 0.898135 -0.120783
1746511380 0.898121 -0.122967
1749474710 0.906039 -0.126159
1752438040 0.909909 -0.127676
1755401370 0.916734 -0.125953
1758364700 0.915932 -0.1244
1761328030 0.91185 -0.124057
1764291360 0.910225 -0.123367
1767254690 0.910312 -0.118354
1770218020 0.906662 -0.123083
1773181350 0.89929 -0.11937
1776144680 0.897713 -0.126017
1779108010 0.910251 -0.124665
1782071340 0.912256 -0.120714
1785034670 0.915231 -0.122223
1787998000 0.919028 -0.116669
1790961330 0.918848 -0.123913
1793924660 0.915166 -0.117848
1796887990 0.910157 -0.119125
1799851320 0.907895 -0.114646
1802814650 0.898448 -0.118615
1805777980 0.899636 -0.118307
1808741310 0.911538 -0.1237
1811704640 0.912736 -0.114027
1814667970 0.917704 -0.117416
1817631300 0.914635 -0.121033
1820594630 0.915559 -0.118144
1823557960 0.91647 -0.112226
1826521290 0.909985 -0.118134
1829484620 0.903861 -0.118089
1832447950 0.902742 -0.111186
1835411280 0.901599 -0.11176
1838374610 0.907376 -0.118931
1841337940 0.911555 -0.119435
1844301270 0.914093 -0.118894
1847264600 0.917755 -0.116424
1850227930 0.918115 -0.120045
1853191260 0.912485 -0.118398
1856154590 0.912481 -0.117412
1859117920 0.913441 -0.110047
1862081250 0.898168 -0.120217
1865044580 0.898703 -0.116847
1868007910 0.906984 -0.116873
1870971240 0.91274 -0.124228
1873934570 0.917978 -0.118858
1876897900 0.915421 -0.126739
1879861230 0.925579 -0.109173
1882824560 0.915761 -0.121971
1885787890 0.912974 -0.117187
1888751220 0.908712 -0.114335
1891714550 0.903071 -0.112129
1894677880 0.898651 -0.115586
1897641210 0.904801 -0.110711
1900604540 0.907706 -0.121974
1903567870 0.914705 -0.11738
1906531200 0.913944 -0.120413
1909494530 0.915339 -0.123147
1912457860 0.913684 -0.120912
1915421190 0.912579 -0.11656
1918384520 0.903271 -0.116759
1921347850 0.899418 -0.116397
1924311180 0.895931 -0.111432
1927274510 0.903404 -0.112283
1930237840 0.907048 -0.11936
1933201170 0.912652 -0.114704
1936164500 0.912864 -0.124356
1939127830 0.9116 -0.116879
1942091160 0.912086 -0.116418
1945054490 0.910809 -0.112837
1948017820 0.903893 -0.111059
1950981150 0.891841 -0.11349
1953944480 0.891214 -0.111981
1956907810 0.899526 -0.113514
1959871140 0.90672 -0.111719
1962834470 0.904233 -0.126104
1965797800 0.916115 -0.114261
1968761130 0.912822 -0.116838
1971724460 0.911114 -0.119224
1974687790 0.914877 -0.114207
1977651120 0.904839 -0.115629
1980614450 0.898061 -0.120427
1983577780 0.898683 -0.11095
1986541110 0.899319 -0.120471
1989504440 0.910743 -0.117322
1992467770 0.908784 -0.124385
1995431100 0.910293 -0.12787
1998394430 0.907476 -0.122121
2001357760 0.907654 -0.121248
2004321090 0.910042 -0.119259
2007284420 0.900174 -0.128382
2010247750 0.897359 -0.120148
2013211080 0.888942 -0.117828
2016174410 0.895527 -0.121906
2019137740 0.900626 -0.124922
2022101070 0.904575 -0.128242
2025064400 0.910955 -0.114042
2028027730 0.90837 -0.119871
2030991060 0.906021 -0.119385
2033954390 0.905852 -0.11701
2036917720 0.904371 -0.115364
2039881050 0.89861 -0.113311
2042844380 0.890354 -0.114309
2045807710 0.897331 -0.112525
2048771040 0.903391 -0.122927
2051734370 0.902356 -0.118324
2054697700 0.90937 -0.124622
2057661030 0.905903 -0.126733
2060624360 0.907155 -0.129206
2063587690 0.905681 -0.12332
2066551020 0.904325 -0.118764
2069514350 0.895541 -0.121009
2072477680 0.888546 -0.122797
2075441010 0.892007 -0.128042
2078404340 0.909164 -0.136778
2081367670 0.904185 -0.121965
2084331000 0.90367 -0.128134
2087294330 0.909111 -0.129268
2090257660 0.904149 -0.126819
2093220990 0.905698 -0.129998
2096184320 0.901434 -0.128925
2099147650 0.896077 -0.123257
2102110980 0.885416 -0.131753
2105074310 0.890161 -0.124276
2108037640 0.900999 -0.129259
2111000970 0.902505 -0.134689
2113964300 0.90696 -0.129557
2116927630 0.909542 -0.130536
2119890960 0.909868 -0.126131
2122854290 0.907402 -0.125987
2125817620 0.90282 -0.130167
2128780950 0.899749 -0.122069
2131744280 0.889601 -0.117889
2134707610 0.891563 -0.123814
2137670940 0.896872 -0.124019
2140634270 0.900768 -0.123656
2143597600 0.907624 -0.130237
2146560930 0.905183 -0.127311
2149524260 0.908772 -0.134854
2152487590 0.902495 -0.1321
2155450920 0.870033 -0.175166
2158414250 0.895616 -0.133803
2161377580 0.891694 -0.131771
2164340910 0.888582 -0.135034
2167304240 0.895391 -0.12855
2170267570 0.903476 -0.137059
2173230900 0.906641 -0.131802
2176194230 0.909767 -0.131912
2179157560 0.909211 -0.129586
2182120890 0.905373 -0.123973
2185084220 0.904609 -0.125984
2188047550 0.898222 -0.127326
2191010880 0.890482 -0.119389
2193974210 0.893653 -0.126906
2196937540 0.895747 -0.129824
2199900870 0.901278 -0.131366
2202864200 0.902549 -0.135911
2205827530 0.907748 -0.136604
2208790860 0.904217 -0.135552
2211754190 0.903886 -0.129759
2214717520 0.897078 -0.124684
2217680850 0.890277 -0.137091
2220644180 0.889612 -0.133046
2223607510 0.885117 -0.12966
2226570840 0.892142 -0.135832
2229534170 0.89739 -0.132502
2232497500 0.90254 -0.143071
2235460830 0.901902 -0.136267
2238424160 0.899416 -0.140208
2241387490 0.89718 -0.140806
2244350820 0.898006 -0.140825
2247314150 0.894695 -0.133552
2250277480 0.8839 -0.133746
2253240810 0.884839 -0.131021
2256204140 0.889364 -0.142493
2259167470 0.889379 -0.137313
2262130800 0.896237 -0.144213
2265094130 0.899338 -0.136588
2268057460 0.900569 -0.141326
2271020790 0.898604 -0.139019
2273984120 0.900606 -0.140196
2276947450 0.893107 -0.133984
2279910780 0.887226 -0.138672
2282874110 0.883921 -0.12738
2285837440 0.894538 -0.130626
2288800770 0.892056 -0.140901
2291764100 0.898536 -0.135349
2294727430 0.90407 -0.130672
2297690760 0.906959 -0.123389
2300654090 0.898017 -0.135605
2303617420 0.895665 -0.140171
2306580750 0.893712 -0.130778
2309544080 0.897359 -0.131796
2312507410 0.882538 -0.129043
2315470740 0.889572 -0.129774
2318434070 0.896095 -0.132013
2321397400 0.902435 -0.13262
2324360730 0.901157 -0.129776
2327324060 0.899123 -0.137408
2330287390 0.895461 -0.141902
2333250720 0.896813 -0.137919
2336214050 0.899514 -0.125384
2339177380 0.895116 -0.129948
2342140710 0.884468 -0.129302
2345104040 0.89556 -0.133012
2348067370 0.893382 -0.135348
2351030700 0.906338 -0.126391
2353994030 0.900328 -0.138482
2356957360 0.894685 -0.142928
2359920690 0.901121 -0.133783
2362884020 0.896873 -0.14073
2365847350 0.887875 -0.147967
2368810680 0.885287 -0.136528
2371774010 0.877376 -0.138696
2374737340 0.886713 -0.131973
2377700670 0.88879 -0.136737
2380664000 0.895502 -0.140509
2383627330 0.891583 -0.1428
2386590660 0.899527 -0.124119
2389553990 0.893847 -0.145149
2392517320 0.893334 -0.144611
2395480650 0.896572 -0.130761
2398443980 0.882548 -0.145636
2401407310 0.878017 -0.14026
2404370640 0.883657 -0.13932
2407333970 0.881326 -0.145505
2410297300 0.885028 -0.147023
2413260630 0.893345 -0.140284
2416223960 0.89427 -0.147046
2419187290 0.902624 -0.141714
2422150620 0.892169 -0.14206
2425113950 0.888763 -0.140579
2428077280 0.880875 -0.150346
2431040610 0.878099 -0.141489
2434003940 0.885094 -0.142794
2436967270 0.887509 -0.141799
2439930600 0.88423 -0.152408
2442893930 0.896257 -0.142266
2445857260 0.885064 -0.191663
2448820590 0.897881 -0.136028
2451783920 0.890218 -0.147639
2454747250 0.891245 -0.146871
2457710580 0.887847 -0.143238
2460673910 0.878726 -0.146354
2463637240 0.882357 -0.143922
2466600570 0.886391 -0.146249
2469563900 0.8859 -0.14585
2472527230 0.896791 -0.147666
2475490560 0.899817 -0.144958
2478453890 0.904161 -0.154939
2481417220 0.896525 -0.132667
2484380550 0.893324 -0.14405
2487343880 0.885515 -0.140841
2490307210 0.879504 -0.145435
2493270540 0.875512 -0.141482
2496233870 0.887339 -0.14137
2499197200 0.893398 -0.139315
2502160530 0.894672 -0.148516
2505123860 0.893166 -0.134505
2508087190 0.892774 -0.13774
2511050520 0.89354 -0.132643
2514013850 0.895739 -0.130554
2516977180 0.885251 -0.1326
2519940510 0.878299 -0.123155
2522903840 0.877021 -0.133522
2525867170 0.884055 -0.127573
2528830500 0.884765 -0.137506
2531793830 0.893613 -0.128926
2534757160 0.891283 -0.145144
2537720490 0.898972 -0.141836
2540683820 0.891051 -0.141139
2543647150 0.893458 -0.145601
2546610480 0.887101 -0.147557
2549573810 0.879045 -0.136645
2552537140 0.882759 -0.189032
2555500470 0.888936 -0.145031
2558463800 0.886325 -0.147352
2561427130 0.894752 -0.149127
2564390460 0.900573 -0.148634
2567353790 0.897279 -0.147097
2570317120 0.895303 -0.149555
2573280450 0.89119 -0.148798
2576243780 0.884772 -0.138146
2579207110 0.882038 -0.139077
2582170440 0.879446 -0.141787
2585133770 0.883636 -0.147378
2588097100 0.886693 -0.149148
2591060430 0.887539 -0.146313
2594023760 0.890909 -0.146639
2596987090 0.891203 -0.151858
2599950420 0.891931 -0.145286
2602913750 0.889278 -0.1443
2605877080 0.879276 -0.144905
2608840410 0.87384 -0.145238
2611803740 0.871276 -0.142611
2614767070 0.874592 -0.149662
2617730400 0.877892 -0.154609
2620693730 0.88415 -0.152072
2623657060 0.884955 -0.146989
2626620390 0.881682 -0.154819
2629583720 0.881456 -0.152122
2632547050 0.884881 -0.154554
2635510380 0.878372 -0.152744
2638473710 0.871348 -0.147797
2641437040 0.861446 -0.153956
2644400370 0.873037 -0.157452
2647363700 0.86803 -0.156272
2650327030 0.877306 -0.16065
2653290360 0.874335 -0.161337
2656253690 0.872728 -0.163102
2659217020 0.887993 -0.157763
2662180350 0.874433 -0.155594
2665143680 0.866442 -0.153937
2668107010 0.865085 -0.147268
2671070340 0.86334 -0.148235
2674033670 0.862529 -0.152755
2676997000 0.875002 -0.158364
2679960330 0.881255 -0.157915
2682923660 0.872436 -0.160032
2685886990 0.881606 -0.156918
2688850320 0.882971 -0.156318
2691813650 0.883248 -0.160321
2694776980 0.879906 -0.150566
2697740310 0.86772 -0.158005
2700703640 0.875432 -0.154001
2703666970 0.885059 -0.153325
2706630300 0.884026 -0.160853
2709593630 0.897877 -0.155389
2712556960 0.892324 -0.151749
2715520290 0.89227 -0.154543
2718483620 0.893757 -0.147504
2721446950 0.897654 -0.149911
2724410280 0.881582 -0.147016
2727373610 0.877735 -0.156061
2730336940 0.871953 -0.146324
2733300270 0.883859 -0.141424
2736263600 0.891196 -0.147305
2739226930 0.885655 -0.151881
2742190260 0.891082 -0.144336
2745153590 0.75935 -0.149994
2748116920 0.889029 -0.145108
2751080250 0.890498 -0.14648
2754043580 0.878211 -0.149261
2757006910 0.872049 -0.152841
2759970240 0.871118 -0.130307
2762933570 0.874991 -0.144777
2765896900 0.862785 -0.166658
2768860230 0.880623 -0.158067
2771823560 0.877339 -0.160207
2774786890 0.881779 -0.16661
2777750220 0.878294 -0.16432
2780713550 0.877033 -0.161513
2783676880 0.872859 -0.159947
2786640210 0.875286 -0.161548
2789603540 0.872006 -0.158219
2792566870 0.872591 -0.163539
2795530200 0.871344 -0.169211
2798493530 0.880181 -0.155158
2801456860 0.876068 -0.174465
2804420190 0.881002 -0.177266
2807383520 0.88989 -0.167204
2810346850 0.884929 -0.171602
2813310180 0.884119 -0.164657
2816273510 0.882502 -0.164044
2819236840 0.868996 -0.153884
2822200170 0.871414 -0.176668
2825163500 0.875386 -0.182838
2828126830 0.891033 -0.171935
2831090160 0.89974 -0.167398
2834053490 0.89775 -0.182302
2837016820 0.896805 -0.175411
2839980150 0.894407 -0.164082
2842943480 0.898894 -0.164412
2845906810 0.891753 -0.159292
2848870140 0.879571 -0.142623
2851833470 0.867766 -0.153728
2854796800 0.885089 -0.166739
2857760130 0.89178 -0.157796
2860723460 0.886717 -0.157441
2863686790 0.896602 -0.159724
2866650120 0.885217 -0.158005
2869613450 0.893283 -0.164731
2872576780 0.886462 -0.154178
2875540110 0.890258 -0.169461
2878503440 0.874603 -0.168755
2881466770 0.871528 -0.145457
2884430100 0.87556 -0.178179
2887393430 0.878587 -0.173487
2890356760 0.882688 -0.188363
2893320090 0.880028 -0.174261
2896283420 0.87703 -0.167333
2899246750 0.882321 -0.172662
2902210080 0.87243 -0.171224
2905173410 0.878821 -0.170024
2908136740 0.867133 -0.177607
2911100070 0.87065 -0.169286
2914063400 0.864352 -0.174552
2917026730 0.874484 -0.173099
2919990060 0.874658 -0.171046
2922953390 0.883218 -0.174227
2925916720 0.87744 -0.167182
2928880050 0.878301 -0.168786
2931843380 0.886532 -0.16542
2934806710 0.864831 -0.153911
2937770040 0.853815 -0.160198
2940733370 0.86459 -0.157832
2943696700 0.865232 -0.155791
2946660030 0.868592 -0.163154
2949623360 0.870402 -0.164189
2952586690 0.86749 -0.165466
2955550020 0.87231 -0.157774
2958513350 0.865161 -0.161318
2961476680 0.870906 -0.154787
2964440010 0.865739 -0.164154
2967403340 0.859937 -0.163126
2970366670 0.853034 -0.155585
2973330000 0.85955 -0.163576
2976293330 0.861079 -0.168743
2979256660 0.867176 -0.16776
2982219990 0.872006 -0.158235
2985183320 0.868505 -0.163783
2988146650 0.871994 -0.162304
2991109980 0.866641 -0.163026
2994073310 0.868011 -0.156286
2997036640 0.858036 -0.151812
2999999970 0.856711 -0.149754
