# HZ S RI R 50
10000000 0.998105 -0.001808
12963330 1.00077 -0.007021
15926660 1.006169 -0.009533
18889990 1.010909 -0.014333
21853320 1.012747 -0.016073
24816650 1.014588 -0.016882
27779980 1.015302 -0.018386
30743310 1.013666 -0.017762
33706640 1.010465 -0.017381
36669970 1.004858 -0.016915
39633300 0.996674 -0.016105
42596630 1.002982 -0.020692
45559960 1.008607 -0.023737
48523290 1.013581 -0.025821
51486620 1.015313 -0.028466
54449950 1.01697 -0.028326
57413280 1.015652 -0.028029
60376610 1.012392 -0.027014
63339940 1.009218 -0.02801
66303270 1.002292 -0.025421
69266600 0.993757 -0.025994
72229930 0.997757 -0.029925
75193260 1.002156 -0.031619
78156590 1.006234 -0.034794
81119920 1.008251 -0.034915
84083250 1.010454 -0.036213
87046580 1.009282 -0.035827
90009910 1.006787 -0.036454
92973240 1.00249 -0.035613
95936570 0.99739 -0.034974
98899900 0.988992 -0.035534
101863230 0.992736 -0.037556
104826560 0.995782 -0.041154
107789890 0.999855 -0.041478
110753220 1.001204 -0.04179
113716550 1.003287 -0.041156
116679880 1.002678 -0.042084
119643210 0.997911 -0.04197
122606540 0.995142 -0.042859
125569870 0.990667 -0.042282
128533200 0.982616 -0.039487
131496530 0.986006 -0.041663
134459860 0.991636 -0.043007
137423190 0.983737 -0.055443
140386520 0.988462 -0.055055
143349850 0.989822 -0.054049
146313180 0.990966 -0.052427
149276510 0.991053 -0.050684
152239840 0.988823 -0.050058
155203170 0.984029 -0.049571
158166500 0.977563 -0.047221
161129830 0.978845 -0.046681
164093160 0.983787 -0.047545
167056490 0.987822 -0.04792
170019820 0.990432 -0.049024
172983150 0.992491 -0.049125
175946480 0.990566 -0.048038
178909810 0.987754 -0.047107
181873140 0.985042 -0.048704
184836470 0.980202 -0.049162
187799800 0.973835 -0.048831
190763130 0.971393 -0.051316
193726460 0.977929 -0.050457
196689790 0.98339 -0.05121
199653120 0.985877 -0.050552
202616450 0.987021 -0.050416
205579780 0.986469 -0.050254
208543110 0.985184 -0.049976
211506440 0.980374 -0.049945
214469770 0.975587 -0.050132
217433100 0.968799 -0.052665
220396430 0.96759 -0.054733
223359760 0.973814 -0.054175
226323090 0.979022 -0.053557
229286420 0.982157 -0.053341
232249750 0.983491 -0.052606
235213080 0.983908 -0.052319
238176410 0.98278 -0.053112
241139740 0.977956 -0.053756
244103070 0.972705 -0.053908
247066400 0.96498 -0.055115
250029730 0.96164 -0.055695
252993060 0.968329 -0.057352
255956390 0.975725 -0.057084
258919720 0.977864 -0.056406
261883050 0.981784 -0.055396
264846380 0.982255 -0.055844
267809710 0.979791 -0.05639
270773040 0.976494 -0.055315
273736370 0.970743 -0.055709
276699700 0.962598 -0.056937
279663030 0.958072 -0.058964
282626360 0.964285 -0.060152
285589690 0.967961 -0.061016
288553020 0.977655 -0.058693
291516350 0.977908 -0.060352
294479680 0.977796 -0.057657
297443010 0.976273 -0.056707
300406340 0.972183 -0.058007
303369670 0.96626 -0.055958
306333000 0.957521 -0.057051
309296330 0.951087 -0.058814
312259660 0.959566 -0.060731
315222990 0.965577 -0.063596
318186320 0.971607 -0.062582
321149650 0.972273 -0.061718
324112980 0.974576 -0.061205
327076310 0.973425 -0.06029
330039640 0.970118 -0.061201
333002970 0.966102 -0.060083
335966300 0.957191 -0.062653
338929630 0.948539 -0.062956
341892960 0.956789 -0.06343
344856290 0.962944 -0.06527
347819620 0.968496 -0.066332
350782950 0.969732 -0.064774
353746280 0.973268 -0.064173
356709610 0.970954 -0.062714
359672940 0.967018 -0.065065
362636270 0.961502 -0.063309
365599600 0.955083 -0.063096
368562930 0.944689 -0.063397
371526260 0.955784 -0.050203
374489590 0.968753 -0.034429
377452920 0.972114 -0.034984
380416250 0.97547 -0.033927
383379580 0.977219 -0.034812
386342910 0.975611 -0.034991
389306240 0.97309 -0.032237
392269570 0.968901 -0.032062
395232900 0.960343 -0.031139
398196230 0.952089 -0.031222
401159560 0.95826 -0.033275
404122890 0.964529 -0.035038
407086220 0.968773 -0.035152
410049550 0.970946 -0.036659
413012880 0.973617 -0.034466
415976210 0.973914 -0.033898
418939540 0.970688 -0.032693
421902870 0.957464 -0.063944
424866200 0.950757 -0.064849
427829530 0.942053 -0.06597
430792860 0.94512 -0.067924
433756190 0.952653 -0.06722
436719520 0.956642 -0.068078
439682850 0.959952 -0.068459
442646180 0.960481 -0.067854
445609510 0.959657 -0.068428
448572840 0.958531 -0.066878
451536170 0.951973 -0.064767
454499500 0.946768 -0.063738
457462830 0.939993 -0.066191
460426160 0.941278 -0.06627
463389490 0.943892 -0.066176
466352820 0.95156 -0.068778
469316150 0.954702 -0.070461
472279480 0.955152 -0.069135
475242810 0.954487 -0.067939
478206140 0.9524 -0.068195
481169470 0.948769 -0.068975
484132800 0.941137 -0.069179
487096130 0.934334 -0.068887
490059460 0.936072 -0.068324
493022790 0.944526 -0.068494
495986120 0.948298 -0.07074
498949450 0.951742 -0.069234
501912780 0.954185 -0.068885
504876110 0.954557 -0.067633
507839440 0.952393 -0.067774
510802770 0.950573 -0.067648
513766100 0.944119 -0.063829
516729430 0.937743 -0.064943
519692760 0.939735 -0.064835
522656090 0.944769 -0.066377
525619420 0.950136 -0.065325
528582750 0.953789 -0.065615
531546080 0.953529 -0.068621
534509410 0.955547 -0.066469
537472740 0.953601 -0.06874
540436070 0.948755 -0.068714
543399400 0.944396 -0.066192
546362730 0.935919 -0.067134
549326060 0.937822 -0.067025
552289390 0.942559 -0.070331
555252720 0.949789 -0.070654
558216050 0.95174 -0.06868
561179380 0.954406 -0.067735
564142710 0.955701 -0.069484
567106040 0.955593 -0.066257
570069370 0.950551 -0.06723
573032700 0.945163 -0.066169
575996030 0.916199 -0.077283
578959360 0.937093 -0.065028
581922690 0.94357 -0.065495
584886020 0.947365 -0.071334
587849350 0.95227 -0.06831
590812680 0.9556 -0.067391
593776010 0.952967 -0.068121
596739340 0.954475 -0.066455
599702670 0.949867 -0.065882
602666000 0.943384 -0.069241
605629330 0.937419 -0.068385
608592660 0.931444 -0.070034
611555990 0.939959 -0.072002
614519320 0.945376 -0.072461
617482650 0.950472 -0.071981
620445980 0.953705 -0.072041
623409310 0.954778 -0.071282
626372640 0.953323 -0.072411
629335970 0.949631 -0.069156
632299300 0.94499 -0.067715
635262630 0.938591 -0.06438
638225960 0.932219 -0.06534
641189290 0.938663 -0.068886
644152620 0.944867 -0.070667
647115950 0.949112 -0.072816
650079280 0.952903 -0.070524
653042610 0.955245 -0.070876
656005940 0.951802 -0.071728
658969270 0.950239 -0.069659
661932600 0.945556 -0.068016
664895930 0.938373 -0.065067
667859260 0.929457 -0.066861
670822590 0.937288 -0.067948
673785920 0.944652 -0.070155
676749250 0.948677 -0.071457
679712580 0.951977 -0.075083
682675910 0.952546 -0.07098
685639240 0.953433 -0.074504
688602570 0.949463 -0.069119
691565900 0.943542 -0.070909
694529230 0.938615 -0.065897
697492560 0.930009 -0.066995
700455890 0.936216 -0.069999
703419220 0.942233 -0.074867
706382550 0.945721 -0.072151
709345880 0.947026 -0.074401
712309210 0.949319 -0.072912
715272540 0.948077 -0.071376
718235870 0.946071 -0.073153
721199200 0.943054 -0.070605
724162530 0.936618 -0.071203
727125860 0.929277 -0.072018
730089190 0.932833 -0.071834
733052520 0.939676 -0.072772
736015850 0.945766 -0.072921
738979180 0.945901 -0.073303
741942510 0.949099 -0.072446
744905840 0.947568 -0.07027
747869170 0.944008 -0.072981
750832500 0.941423 -0.071745
753795830 0.935171 -0.070524
756759160 0.928552 -0.070339
759722490 0.93056 -0.069253
762685820 0.937202 -0.071301
765649150 0.941653 -0.074075
768612480 0.943727 -0.071892
771575810 0.946039 -0.071545
774539140 0.944784 -0.071782
777502470 0.942868 -0.070525
780465800 0.938815 -0.071921
783429130 0.935714 -0.070033
786392460 0.92652 -0.070428
789355790 0.930491 -0.068196
792319120 0.936254 -0.071587
795282450 0.94132 -0.07113
798245780 0.942708 -0.075339
801209110 0.944752 -0.075959
804172440 0.944622 -0.0711
807135770 0.941679 -0.07249
810099100 0.938107 -0.07279
813062430 0.932456 -0.07284
816025760 0.922622 -0.076582
818989090 0.924714 -0.074104
821952420 0.93275 -0.075203
824915750 0.937554 -0.077639
827879080 0.940296 -0.080176
830842410 0.943061 -0.07468
833805740 0.941268 -0.07801
836769070 0.941214 -0.076175
839732400 0.934881 -0.079876
842695730 0.930259 -0.078415
845659060 0.924046 -0.074234
848622390 0.924061 -0.075759
851585720 0.929484 -0.079898
854549050 0.935509 -0.084118
857512380 0.938245 -0.08174
860475710 0.940916 -0.081069
863439040 0.942438 -0.081735
866402370 0.940131 -0.081983
869365700 0.938042 -0.081081
872329030 0.930283 -0.08027
875292360 0.922878 -0.078817
878255690 0.920958 -0.08123
881219020 0.929315 -0.086088
884182350 0.933485 -0.090471
887145680 0.939051 -0.085595
890109010 0.940246 -0.084604
893072340 0.942663 -0.087665
896035670 0.940815 -0.088237
898999000 0.937033 -0.082283
901962330 0.931887 -0.079247
904925660 0.926178 -0.080008
907888990 0.922573 -0.082006
910852320 0.929001 -0.08972
913815650 0.935151 -0.092134
916778980 0.941456 -0.088453
919742310 0.938938 -0.089093
922705640 0.938411 -0.08682
925668970 0.93972 -0.084875
928632300 0.937923 -0.081371
931595630 0.931245 -0.080213
934558960 0.922109 -0.076389
937522290 0.917811 -0.078426
940485620 0.925486 -0.083134
943448950 0.931795 -0.082683
946412280 0.933289 -0.086027
949375610 0.911071 -0.164647
952338940 0.947286 -0.036042
955302270 0.936447 -0.083556
958265600 0.934128 -0.081811
961228930 0.928531 -0.084115
964192260 0.92455 -0.082394
967155590 0.916737 -0.080768
970118920 0.926218 -0.083856
973082250 0.931342 -0.084628
976045580 0.932946 -0.084144
979008910 0.935784 -0.087152
981972240 0.938637 -0.086635
984935570 0.936615 -0.087784
987898900 0.934985 -0.080561
990862230 0.930511 -0.08517
993825560 0.925098 -0.084064
996788890 0.918933 -0.076574
999752220 0.925823 -0.080855
1002715550 0.928608 -0.08543
1005678880 0.935725 -0.085779
1008642210 0.936403 -0.081641
1011605540 0.93754 -0.083238
1014568870 0.936625 -0.082935
1017532200 0.933067 -0.080438
1020495530 0.92984 -0.082429
1023458860 0.922467 -0.082262
1026422190 0.912159 -0.097656
1029385520 0.919756 -0.095527
1032348850 0.931331 -0.06771
1035312180 0.928342 -0.101601
1038275510 0.939576 -0.063322
1041238840 0.934204 -0.101619
1044202170 0.938098 -0.068709
1047165500 0.930261 -0.098948
1050128830 0.935196 -0.063509
1053092160 0.922379 -0.095799
1056055490 0.922411 -0.059786
1059018820 0.928342 -0.06424
1061982150 0.922796 -0.097629
1064945480 0.940118 -0.063796
1067908810 0.932234 -0.098603
1070872140 0.944238 -0.061964
1073835470 0.933932 -0.097697
1076798800 0.939926 -0.063449
1079762130 0.92796 -0.094638
1082725460 0.930186 -0.061822
1085688790 0.915578 -0.096893
1088652120 0.927634 -0.064193
1091615450 0.924641 -0.095213
1094578780 0.93915 -0.062534
1097542110 0.934194 -0.093013
1100505440 0.940281 -0.064685
1103468770 0.930665 -0.096994
1106432100 0.940148 -0.060937
1109395430 0.928449 -0.090039
1112358760 0.931394 -0.06272
1115322090 0.913239 -0.09721
1118285420 0.927979 -0.063091
1121248750 0.922008 -0.095339
1124212080 0.932852 -0.074734
1127175410 0.933746 -0.08508
1130138740 0.934818 -0.078941
1133102070 0.935105 -0.081033
1136065400 0.935396 -0.086857
1139028730 0.931313 -0.087119
1141992060 0.922262 -0.086285
1144955390 0.91908 -0.084309
1147918720 0.919978 -0.088423
1150882050 0.926553 -0.092034
1153845380 0.929592 -0.092547
1156808710 0.935964 -0.088103
1159772040 0.938569 -0.087757
1162735370 0.938292 -0.089584
1165698700 0.933988 -0.090227
1168662030 0.934779 -0.088852
1171625360 0.926782 -0.087345
1174588690 0.919876 -0.08666
1177552020 0.919309 -0.09262
1180515350 0.929272 -0.08827
1183478680 0.931004 -0.093177
1186442010 0.935186 -0.09241
1189405340 0.940255 -0.088913
1192368670 0.938653 -0.094181
1195332000 0.934779 -0.089548
1198295330 0.932419 -0.091414
1201258660 0.925553 -0.09178
1204221990 0.917725 -0.089032
1207185320 0.913869 -0.098231
1210148650 0.921285 -0.097395
1213111980 0.929185 -0.09981
1216075310 0.931744 -0.100225
1219038640 0.935575 -0.100876
1222001970 0.935528 -0.10163
1224965300 0.93198 -0.09774
1227928630 0.930744 -0.097975
1230891960 0.921987 -0.100093
1233855290 0.916718 -0.101523
1236818620 0.91397 -0.099933
1239781950 0.92119 -0.100554
1242745280 0.928163 -0.105357
1245708610 0.930532 -0.10443
1248671940 0.859273 -0.15987
1251635270 0.935389 -0.103671
1254598600 0.934035 -0.103264
1257561930 0.93098 -0.096179
1260525260 0.925361 -0.101544
1263488590 0.916832 -0.097918
1266451920 0.912029 -0.097094
1269415250 0.91953 -0.1003
1272378580 0.922785 -0.101267
1275341910 0.925732 -0.105973
1278305240 0.928847 -0.10783
1281268570 0.928522 -0.108576
1284231900 0.928767 -0.104053
1287195230 0.924773 -0.102315
1290158560 0.920465 -0.105524
1293121890 0.910748 -0.104828
1296085220 0.90625 -0.104275
1299048550 0.913772 -0.102732
1302011880 0.918781 -0.109498
1304975210 0.921336 -0.111637
1307938540 0.926095 -0.113752
1310901870 0.927875 -0.10768
1313865200 0.92736 -0.104971
1316828530 0.923892 -0.101582
1319791860 0.917861 -0.107379
1322755190 0.914524 -0.10117
1325718520 0.904479 -0.097392
1328681850 0.911271 -0.102289
1331645180 0.915125 -0.103478
1334608510 0.920009 -0.106429
1337571840 0.919815 -0.105
1340535170 0.922514 -0.113026
1343498500 0.921253 -0.103149
1346461830 0.920848 -0.103386
1349425160 0.914706 -0.104109
1352388490 0.911882 -0.100282
1355351820 0.929832 -0.061989
1358315150 0.909037 -0.104772
1361278480 0.912331 -0.104665
1364241810 0.919966 -0.110262
1367205140 0.926143 -0.1097
1370168470 0.922517 -0.108952
1373131800 0.923777 -0.103257
1376095130 0.91972 -0.102991
1379058460 0.918628 -0.101962
1382021790 0.914621 -0.095982
1384985120 0.908727 -0.100362
1387948450 0.913974 -0.098684
1390911780 0.921564 -0.105991
1393875110 0.919758 -0.109175
1396838440 0.926533 -0.099105
1399801770 0.923727 -0.106224
1402765100 0.924839 -0.109844
1405728430 0.919181 -0.109615
1408691760 0.917261 -0.107827
1411655090 0.914204 -0.102762
1414618420 0.908464 -0.097719
1417581750 0.910471 -0.101128
1420545080 0.917341 -0.100653
1423508410 0.922536 -0.108161
1426471740 0.926065 -0.104981
1429435070 0.925351 -0.105762
1432398400 0.926222 -0.099923
1435361730 0.922006 -0.103313
1438325060 0.919434 -0.10166
1441288390 0.916591 -0.106431
1444251720 0.909557 -0.099346
1447215050 0.91315 -0.097426
1450178380 0.918324 -0.106332
1453141710 0.924183 -0.105123
1456105040 0.928509 -0.100169
1459068370 0.929804 -0.10265
1462031700 0.930059 -0.099767
1464995030 0.927335 -0.097229
1467958360 0.923392 -0.098364
1470921690 0.917766 -0.092911
1473885020 0.911256 -0.092049
1476848350 0.913003 -0.095742
1479811680 0.918965 -0.094306
1482775010 0.925739 -0.096332
1485738340 0.927269 -0.099622
1488701670 0.929911 -0.093528
1491665000 0.92876 -0.0969
1494628330 0.928081 -0.095485
1497591660 0.926373 -0.094922
1500554990 0.917745 -0.097978
1503518320 0.912683 -0.099749
1506481650 0.911907 -0.097648
1509444980 0.919359 -0.100095
1512408310 0.923016 -0.105357
1515371640 0.928848 -0.103858
1518334970 0.930677 -0.103781
1521298300 0.929723 -0.103501
1524261630 0.928031 -0.102841
1527224960 0.922781 -0.10613
1530188290 0.917446 -0.106856
1533151620 0.910125 -0.109913
1536114950 0.909026 -0.108467
1539078280 0.916589 -0.111547
1542041610 0.923451 -0.110804
1545004940 0.928168 -0.109275
1547968270 0.932037 -0.108198
1550931600 0.930027 -0.110374
1553894930 0.927579 -0.110679
1556858260 0.925045 -0.107994
1559821590 0.919987 -0.104057
1562784920 0.915131 -0.10624
1565748250 0.909471 -0.103169
1568711580 0.915812 -0.108628
1571674910 0.920941 -0.116334
1574638240 0.928553 -0.11235
1577601570 0.929541 -0.109388
1580564900 0.927621 -0.111512
1583528230 0.924426 -0.11114
1586491560 0.923729 -0.112242
1589454890 0.918069 -0.108284
1592418220 0.910832 -0.104634
1595381550 0.905631 -0.109914
1598344880 0.912174 -0.109018
1601308210 0.914751 -0.114694
1604271540 0.92169 -0.115631
1607234870 0.925139 -0.118966
1610198200 0.924403 -0.114216
1613161530 0.921724 -0.113572
1616124860 0.918054 -0.115478
1619088190 0.913999 -0.116071
1622051520 0.907902 -0.1102
1625014850 0.901422 -0.113896
1627978180 0.909678 -0.111323
1630941510 0.915228 -0.113572
1633904840 0.919608 -0.115464
1636868170 0.919654 -0.118086
1639831500 0.920034 -0.115654
1642794830 0.922568 -0.10928
1645758160 0.918687 -0.111438
1648721490 0.911786 -0.112664
1651684820 0.907855 -0.113019
1654648150 0.8978 -0.108687
1657611480 0.906589 -0.106409
1660574810 0.90723 -0.1128
1663538140 0.911926 -0.114547
1666501470 0.91403 -0.116973
1669464800 0.915693 -0.120916
1672428130 0.915608 -0.114575
1675391460 0.9119 -0.115672
1678354790 0.909648 -0.117815
1681318120 0.901425 -0.11694
1684281450 0.893713 -0.116161
1687244780 0.899987 -0.119301
1690208110 0.90613 -0.119087
1693171440 0.909874 -0.118108
1696134770 0.909845 -0.120449
1699098100 0.913474 -0.121702
1702061430 0.913671 -0.123691
1705024760 0.909915 -0.12037
1707988090 0.905771 -0.116864
1710951420 0.90184 -0.117626
1713914750 0.895655 -0.113281
1716878080 0.897287 -0.120362
1719841410 0.906074 -0.119307
1722804740 0.909205 -0.125022
1725768070 0.911638 -0.121653
1728731400 0.916441 -0.121879
1731694730 0.911828 -0.123797
1734658060 0.910648 -0.120314
1737621390 0.909421 -0.117621
1740584720 0.901886 -0.118199
1743548050 0.894435 -0.116859
1746511380 0.898275 -0.11839
1749474710 0.906743 -0.122147
1752438040 0.906892 -0.129571
1755401370 0.911268 -0.122663
1758364700 0.916186 -0.124334
1761328030 0.91221 -0.123005
1764291360 0.910468 -0.129337
1767254690 0.909254 -0.120895
1770218020 0.904977 -0.1164
1773181350 0.894561 -0.120042
1776144680 0.898964 -0.120306
1779108010 0.908163 -0.125192
1782071340 0.912596 -0.125853
1785034670 0.914511 -0.124687
1787998000 0.920703 -0.124302
1790961330 0.916469 -0.125619
1793924660 0.916225 -0.121446
1796887990 0.909362 -0.124443
1799851320 0.907076 -0.116775
1802814650 0.897652 -0.117663
1805777980 0.898007 -0.115083
1808741310 0.903801 -0.123377
1811704640 0.912392 -0.114748
1814667970 0.918298 -0.114722
1817631300 0.916321 -0.115303
1820594630 0.916675 -0.114483
1823557960 0.916247 -0.117248
1826521290 0.913986 -0.115692
1829484620 0.911187 -0.111123
1832447950 0.899426 -0.110114
1835411280 0.903692 -0.111509
1838374610 0.905684 -0.117831
1841337940 0.908307 -0.113996
1844301270 0.914427 -0.118355
1847264600 0.918671 -0.112931
1850227930 0.918574 -0.115443
1853191260 0.916794 -0.120167
1856154590 0.912895 -0.114854
1859117920 0.907361 -0.115177
1862081250 0.879166 -0.126028
1865044580 0.897218 -0.120824
1868007910 0.907182 -0.117773
1870971240 0.909788 -0.116996
1873934570 0.917595 -0.121428
1876897900 0.918365 -0.123417
1879861230 0.91698 -0.119753
1882824560 0.91949 -0.114117
1885787890 0.91389 -0.115129
1888751220 0.908046 -0.109762
1891714550 0.899685 -0.113942
1894677880 0.898197 -0.111425
1897641210 0.902505 -0.12097
1900604540 0.907938 -0.116652
1903567870 0.91303 -0.117943
1906531200 0.913516 -0.121766
1909494530 0.915309 -0.11369
1912457860 0.911722 -0.111965
1915421190 0.910465 -0.116842
1918384520 0.90738 -0.112255
1921347850 0.896967 -0.115416
1924311180 0.893257 -0.113984
1927274510 0.902272 -0.120091
1930237840 0.903676 -0.121498
1933201170 0.912128 -0.115421
1936164500 0.915108 -0.115328
1939127830 0.914254 -0.114525
1942091160 0.909573 -0.120526
1945054490 0.90913 -0.11729
1948017820 0.905744 -0.113632
1950981150 0.895522 -0.107737
1953944480 0.896503 -0.103321
1956907810 0.896976 -0.116993
1959871140 0.905238 -0.115281
1962834470 0.90748 -0.118917
1965797800 0.834428 -0.157877
1968761130 0.911739 -0.122624
1971724460 0.908549 -0.123203
1974687790 0.909144 -0.118272
1977651120 0.905981 -0.116683
1980614450 0.899525 -0.115028
1983577780 0.888379 -0.122991
1986541110 0.904001 -0.116504
1989504440 0.908606 -0.123909
1992467770 0.906678 -0.121067
1995431100 0.909308 -0.123916
1998394430 0.908015 -0.125889
2001357760 0.907205 -0.126804
2004321090 0.906886 -0.119884
2007284420 0.907603 -0.116292
2010247750 0.894824 -0.119025
2013211080 0.885369 -0.120535
2016174410 0.89879 -0.110602
2019137740 0.902086 -0.124667
2022101070 0.903167 -0.127535
2025064400 0.906999 -0.117104
2028027730 0.910935 -0.113281
2030991060 0.90676 -0.126568
2033954390 0.908589 -0.118739
2036917720 0.901537 -0.112706
2039881050 0.898706 -0.112469
2042844380 0.892585 -0.108354
2045807710 0.895796 -0.114082
2048771040 0.901871 -0.125052
2051734370 0.905814 -0.118064
2054697700 0.9077 -0.118875
2057661030 0.90518 -0.117864
2060624360 0.901219 -0.122701
2063587690 0.904259 -0.118847
2066551020 0.901996 -0.125559
2069514350 0.896626 -0.114645
2072477680 0.88669 -0.117363
2075441010 0.891219 -0.125474
2078404340 0.904913 -0.119113
2081367670 0.900732 -0.124552
2084331000 0.908128 -0.127298
2087294330 0.90678 -0.13073
2090257660 0.903177 -0.124088
2093220990 0.903446 -0.133903
2096184320 0.899374 -0.134705
2099147650 0.894017 -0.127779
2102110980 0.886911 -0.130132
2105074310 0.88786 -0.137267
2108037640 0.899668 -0.129124
2111000970 0.903749 -0.128822
2113964300 0.907531 -0.130374
2116927630 0.908247 -0.133291
2119890960 0.90672 -0.128496
2122854290 0.90514 -0.123885
2125817620 0.900905 -0.118845
2128780950 0.898792 -0.124105
2131744280 0.891313 -0.123687
2134707610 0.88982 -0.12434
2137670940 0.892006 -0.130893
2140634270 0.902373 -0.129436
2143597600 0.902816 -0.131662
2146560930 0.905887 -0.129269
2149524260 0.904486 -0.128272
2152487590 0.904934 -0.132213
2155450920 0.899911 -0.130596
2158414250 0.894952 -0.129556
2161377580 0.891728 -0.129773
2164340910 0.891476 -0.132424
2167304240 0.896862 -0.131239
2170267570 0.897687 -0.134441
2173230900 0.903508 -0.133375
2176194230 0.906746 -0.128666
2179157560 0.903808 -0.13545
2182120890 0.905196 -0.128444
2185084220 0.900859 -0.129884
2188047550 0.897269 -0.122732
2191010880 0.887108 -0.121015
2193974210 0.894532 -0.12361
2196937540 0.899271 -0.123352
2199900870 0.902124 -0.132546
2202864200 0.903568 -0.131511
2205827530 0.905451 -0.134609
2208790860 0.906754 -0.134733
2211754190 0.903644 -0.128447
2214717520 0.904221 -0.128299
2217680850 0.887885 -0.131053
2220644180 0.88483 -0.130295
2223607510 0.886121 -0.139726
2226570840 0.8923 -0.13347
2229534170 0.895131 -0.134993
2232497500 0.897672 -0.129163
2235460830 0.897191 -0.143586
2238424160 0.903091 -0.139475
2241387490 0.896125 -0.134413
2244350820 0.900024 -0.134844
2247314150 0.895345 -0.137608
2250277480 0.887478 -0.137859
2253240810 0.88369 -0.131838
2256204140 0.886539 -0.136042
2259167470 0.897023 -0.134686
2262130800 0.894786 -0.140308
2265094130 0.902524 -0.136902
2268057460 0.893807 -0.14384
2271020790 0.895108 -0.137335
2273984120 0.896649 -0.130788
2276947450 0.895375 -0.135501
2279910780 0.888017 -0.132046
2282874110 0.886284 -0.137562
2285837440 0.893218 -0.136081
2288800770 0.893993 -0.138368
2291764100 0.901025 -0.138099
2294727430 0.896402 -0.135911
2297690760 0.904901 -0.136369
2300654090 0.90357 -0.130643
2303617420 0.897714 -0.128486
2306580750 0.894913 -0.125885
2309544080 0.8919 -0.126225
2312507410 0.884841 -0.127103
2315470740 0.887044 -0.130633
2318434070 0.896055 -0.1311
2321397400 0.895099 -0.130486
2324360730 0.901941 -0.127107
2327324060 0.893251 -0.134353
2330287390 0.901474 -0.128451
2333250720 0.904579 -0.123876
2336214050 0.892932 -0.132042
2339177380 0.885716 -0.131798
2342140710 0.885167 -0.132084
2345104040 0.894593 -0.12988
2348067370 0.893591 -0.128429
2351030700 0.893093 -0.135829
2353994030 0.899242 -0.132796
2356957360 0.901254 -0.138456
2359920690 0.896383 -0.135263
2362884020 0.89901 -0.127138
2365847350 0.892674 -0.135458
2368810680 0.884562 -0.140896
2371774010 0.876767 -0.13237
2374737340 0.883875 -0.13438
2377700670 0.891913 -0.140541
2380664000 0.896221 -0.133422
2383627330 0.89364 -0.137479
2386590660 0.895244 -0.141365
2389553990 0.901203 -0.130938
2392517320 0.892599 -0.127065
2395480650 0.882246 -0.148973
2398443980 0.883343 -0.145658
2401407310 0.880684 -0.133877
2404370640 0.886615 -0.142201
2407333970 0.888565 -0.136557
2410297300 0.890584 -0.144903
2413260630 0.89358 -0.147652
2416223960 0.894783 -0.148275
2419187290 0.884936 -0.145984
2422150620 0.888732 -0.140325
2425113950 0.887578 -0.14388
2428077280 0.875614 -0.141943
2431040610 0.875609 -0.14328
2434003940 0.875314 -0.148754
2436967270 0.889461 -0.14074
2439930600 0.893218 -0.139523
2442893930 0.895115 -0.14351
2445857260 0.893682 -0.145895
2448820590 0.89697 -0.144842
2451783920 0.893712 -0.151491
2454747250 0.889091 -0.141393
2457710580 0.889267 -0.134432
2460673910 0.881751 -0.147872
2463637240 0.879014 -0.146491
2466600570 0.885124 -0.14766
2469563900 0.896136 -0.158843
2472527230 0.899833 -0.145246
2475490560 0.902113 -0.145281
2478453890 0.894321 -0.136544
2481417220 0.899117 -0.139236
2484380550 0.891106 -0.136303
2487343880 0.886418 -0.141543
2490307210 0.883008 -0.142952
2493270540 0.880538 -0.145791
2496233870 0.885705 -0.13362
2499197200 0.894841 -0.147261
2502160530 0.899299 -0.135572
2505123860 0.897766 -0.133751
2508087190 0.891458 -0.140716
2511050520 0.896484 -0.136647
2514013850 0.888468 -0.126861
2516977180 0.885328 -0.125597
2519940510 0.884516 -0.12591
2522903840 0.876061 -0.131126
2525867170 0.884587 -0.136084
2528830500 0.886044 -0.134189
2531793830 0.894143 -0.130469
2534757160 0.895487 -0.136947
2537720490 0.894866 -0.133802
2540683820 0.894105 -0.140549
2543647150 0.891763 -0.144445
2546610480 0.88764 -0.144341
2549573810 0.877314 -0.144921
2552537140 0.843834 -0.120005
2555500470 0.886985 -0.146952
2558463800 0.891166 -0.149212
2561427130 0.895443 -0.142675
2564390460 0.901957 -0.153166
2567353790 0.891727 -0.145717
2570317120 0.890743 -0.14685
2573280450 0.890808 -0.137059
2576243780 0.882592 -0.145526
2579207110 0.883807 -0.1383
2582170440 0.875129 -0.14294
2585133770 0.880297 -0.144865
2588097100 0.882371 -0.142416
2591060430 0.885598 -0.149821
2594023760 0.884974 -0.149004
2596987090 0.892034 -0.143782
2599950420 0.889735 -0.144824
2602913750 0.884186 -0.137903
2605877080 0.881234 -0.14328
2608840410 0.874521 -0.139728
2611803740 0.871756 -0.141236
2614767070 0.877484 -0.14233
2617730400 0.876644 -0.145826
2620693730 0.886677 -0.142434
2623657060 0.884028 -0.141707
2626620390 0.886391 -0.151912
2629583720 0.876993 -0.150855
2632547050 0.879115 -0.15602
2635510380 0.876776 -0.153607
2638473710 0.865945 -0.160823
2641437040 0.863012 -0.151236
2644400370 0.866074 -0.156829
2647363700 0.887562 -0.154098
2650327030 0.876903 -0.150388
2653290360 0.879277 -0.156173
2656253690 0.879524 -0.153501
2659217020 0.880694 -0.160332
2662180350 0.877301 -0.148048
2665143680 0.872669 -0.154051
2668107010 0.863061 -0.152647
2671070340 0.857324 -0.14944
2674033670 0.867004 -0.15949
2676997000 0.877988 -0.151967
2679960330 0.877179 -0.150595
2682923660 0.880725 -0.158103
2685886990 0.88402 -0.152251
2688850320 0.886381 -0.155853
2691813650 0.881251 -0.159846
2694776980 0.882025 -0.154297
2697740310 0.883017 -0.158607
2700703640 0.865016 -0.15007
2703666970 0.878421 -0.15249
2706630300 0.887363 -0.166218
2709593630 0.882362 -0.15865
2712556960 0.89284 -0.156506
2715520290 0.900237 -0.149363
2718483620 0.888561 -0.155854
2721446950 0.893527 -0.152219
2724410280 0.880488 -0.14734
2727373610 0.880459 -0.147295
2730336940 0.86665 -0.153873
2733300270 0.877795 -0.151803
2736263600 0.883404 -0.142271
2739226930 0.858339 -0.16924
2742190260 0.888708 -0.150902
2745153590 0.882941 -0.152795
2748116920 0.885382 -0.150078
2751080250 0.871756 -0.162164
2754043580 0.875458 -0.151731
2757006910 0.875016 -0.148032
2759970240 0.86366 -0.150781
2762933570 0.866991 -0.15939
2765896900 0.863598 -0.15981
2768860230 0.877694 -0.156155
2771823560 0.874409 -0.16857
2774786890 0.878781 -0.166106
2777750220 0.88212 -0.157236
2780713550 0.87044 -0.171745
2783676880 0.875541 -0.17192
2786640210 0.869576 -0.160483
2789603540 0.859016 -0.159439
2792566870 0.872638 -0.149417
2795530200 0.877452 -0.157167
2798493530 0.870651 -0.186488
2801456860 0.88797 -0.178301
2804420190 0.884994 -0.175499
2807383520 0.878393 -0.179095
2810346850 0.886199 -0.169536
2813310180 0.876849 -0.166025
2816273510 0.875376 -0.164529
2819236840 0.871626 -0.167261
2822200170 0.875337 -0.159997
2825163500 0.879284 -0.170743
2828126830 0.882845 -0.188197
2831090160 0.886247 -0.16706
2834053490 0.887977 -0.176125
2837016820 0.890104 -0.178774
2839980150 0.898529 -0.168231
2842943480 0.894727 -0.16312
2845906810 0.898537 -0.15246
2848870140 0.874668 -0.156333
2851833470 0.883256 -0.159929
2854796800 0.891424 -0.154434
2857760130 0.889232 -0.158012
2860723460 0.890516 -0.1695
2863686790 0.89162 -0.171209
2866650120 0.878239 -0.171376
2869613450 0.885383 -0.158577
2872576780 0.884281 -0.165536
2875540110 0.877684 -0.156198
2878503440 0.874903 -0.168066
2881466770 0.876241 -0.159497
2884430100 0.875529 -0.164166
2887393430 0.88068 -0.166715
2890356760 0.87751 -0.166573
2893320090 0.886538 -0.182272
2896283420 0.879514 -0.165256
2899246750 0.872084 -0.173175
2902210080 0.877604 -0.162799
2905173410 0.872757 -0.168544
2908136740 0.867761 -0.16772
2911100070 0.859033 -0.160473
2914063400 0.87092 -0.163984
2917026730 0.876628 -0.162354
2919990060 0.873647 -0.165257
2922953390 0.88298 -0.171595
2925916720 0.875388 -0.169201
2928880050 0.88284 -0.176665
2931843380 0.878127 -0.16264
2934806710 0.867531 -0.163755
2937770040 0.8667 -0.162646
2940733370 0.855572 -0.147748
2943696700 0.864111 -0.156713
2946660030 0.867711 -0.157154
2949623360 0.876033 -0.153374
2952586690 0.86635 -0.158924
2955550020 0.876118 -0.168816
2958513350 0.867141 -0.167615
2961476680 0.870379 -0.162188
2964440010 0.864591 -0.160654
2967403340 0.857465 -0.162359
2970366670 0.852486 -0.157741
2973330000 0.860155 -0.154054
2976293330 0.862835 -0.157234
2979256660 0.864736 -0.166976
2982219990 0.871576 -0.165171
2985183320 0.870003 -0.164137
2988146650 0.870495 -0.160517
2991109980 0.86735 -0.154665
2994073310 0.863123 -0.158289
2997036640 0.860215 -0.152171
2999999970 0.859346 -0.143623
