# HZ S RI R 50
10000000 0.997836 -0.002534
12963330 1.001715 -0.006924
15926660 1.006792 -0.010024
18889990 1.010581 -0.013999
21853320 1.013793 -0.015711
24816650 1.015848 -0.017221
27779980 1.016398 -0.017381
30743310 1.013806 -0.017256
33706640 1.010229 -0.016674
36669970 1.004936 -0.017079
39633300 0.997599 -0.015667
42596630 1.00227 -0.020883
45559960 1.008923 -0.023057
48523290 1.012535 -0.026353
51486620 1.016427 -0.027521
54449950 1.018437 -0.028963
57413280 1.015425 -0.02811
60376610 1.014055 -0.028179
63339940 1.008543 -0.026558
66303270 1.001726 -0.027326
69266600 0.993679 -0.025492
72229930 0.996878 -0.029943
75193260 1.003112 -0.032283
78156590 1.007895 -0.036107
81119920 1.009198 -0.036592
84083250 1.009429 -0.035276
87046580 1.009727 -0.036924
90009910 1.007213 -0.036098
92973240 1.002845 -0.035984
95936570 0.996549 -0.035328
98899900 0.98858 -0.033869
101863230 0.991214 -0.03909
104826560 0.997381 -0.040006
107789890 0.999805 -0.041821
110753220 1.003 -0.040879
113716550 1.003514 -0.04336
116679880 1.001883 -0.043496
119643210 0.999523 -0.040806
122606540 0.994758 -0.043649
125569870 0.990833 -0.041976
128533200 0.983865 -0.042792
131496530 0.985217 -0.042361
134459860 0.994321 -0.043884
137423190 0.984943 -0.055179
140386520 0.9885 -0.054499
143349850 0.990753 -0.054026
146313180 0.992302 -0.052068
149276510 0.991588 -0.050755
152239840 0.988933 -0.049509
155203170 0.984813 -0.048831
158166500 0.978098 -0.04742
161129830 0.979487 -0.046652
164093160 0.985174 -0.048482
167056490 0.987377 -0.049441
170019820 0.990794 -0.050027
172983150 0.991554 -0.049915
175946480 0.992329 -0.048859
178909810 0.989541 -0.048194
181873140 0.985157 -0.047733
184836470 0.979741 -0.04876
187799800 0.972497 -0.050391
190763130 0.9723 -0.051591
193726460 0.978029 -0.052266
196689790 0.982269 -0.051667
199653120 0.986256 -0.052185
202616450 0.987444 -0.051627
205579780 0.986082 -0.050841
208543110 0.985069 -0.051403
211506440 0.981517 -0.050695
214469770 0.97766 -0.050542
217433100 0.969306 -0.054477
220396430 0.967414 -0.054711
223359760 0.973796 -0.055128
226323090 0.979277 -0.054634
229286420 0.981735 -0.055133
232249750 0.984632 -0.053487
235213080 0.984371 -0.053723
238176410 0.982349 -0.05407
241139740 0.978023 -0.054185
244103070 0.973246 -0.053871
247066400 0.964975 -0.05586
250029730 0.961808 -0.057149
252993060 0.968751 -0.059147
255956390 0.976178 -0.058128
258919720 0.979625 -0.056779
261883050 0.981733 -0.057876
264846380 0.981695 -0.057287
267809710 0.979697 -0.056832
270773040 0.97651 -0.056832
273736370 0.970293 -0.057573
276699700 0.962688 -0.058061
279663030 0.956355 -0.05842
282626360 0.966541 -0.061895
285589690 0.969618 -0.058229
288553020 0.975498 -0.061246
291516350 0.977274 -0.059268
294479680 0.978414 -0.059978
297443010 0.976934 -0.056542
300406340 0.972904 -0.057975
303369670 0.966112 -0.057454
306333000 0.958373 -0.058423
309296330 0.950175 -0.060184
312259660 0.959249 -0.062967
315222990 0.96576 -0.065411
318186320 0.970267 -0.062392
321149650 0.972997 -0.063481
324112980 0.97433 -0.062681
327076310 0.973171 -0.064154
330039640 0.969353 -0.063278
333002970 0.964706 -0.062549
335966300 0.957219 -0.061275
338929630 0.949163 -0.061995
341892960 0.95646 -0.065839
344856290 0.961757 -0.067608
347819620 0.96923 -0.06677
350782950 0.970055 -0.066678
353746280 0.970718 -0.067355
356709610 0.968651 -0.066186
359672940 0.969507 -0.065533
362636270 0.961608 -0.062686
365599600 1.06095 -0.001254
368562930 0.947962 -0.049252
371526260 0.951091 -0.066776
374489590 0.961744 -0.051723
377452920 0.962706 -0.0692
380416250 0.961734 -0.087528
383379580 0.967288 -0.071334
386342910 0.965865 -0.068639
389306240 0.96248 -0.068308
392269570 0.959443 -0.065745
395232900 0.952146 -0.068058
398196230 0.94357 -0.066371
401159560 0.948325 -0.069074
404122890 0.954896 -0.069673
407086220 0.958154 -0.071772
410049550 0.962517 -0.071948
413012880 0.962992 -0.071066
415976210 0.96276 -0.068614
418939540 0.960446 -0.069041
421902870 0.955382 -0.069497
424866200 0.950154 -0.068069
427829530 0.941118 -0.065813
430792860 0.946294 -0.068039
433756190 0.950687 -0.068425
436719520 0.954291 -0.069251
439682850 0.958202 -0.070652
442646180 0.959858 -0.069973
445609510 0.958267 -0.06968
448572840 0.956265 -0.069169
451536170 0.951073 -0.066195
454499500 0.944777 -0.068373
457462830 0.938923 -0.066384
460426160 0.940486 -0.06742
463389490 0.946099 -0.067982
466352820 0.949481 -0.071103
469316150 0.95279 -0.070791
472279480 0.953954 -0.069892
475242810 0.953733 -0.06966
478206140 0.951207 -0.069002
481169470 0.946568 -0.070268
484132800 0.94197 -0.069698
487096130 0.935027 -0.068006
490059460 0.934492 -0.071174
493022790 0.941916 -0.070615
495986120 0.947479 -0.069921
498949450 0.951727 -0.071902
501912780 0.953585 -0.069972
504876110 0.953831 -0.070401
507839440 0.95285 -0.066104
510802770 0.948306 -0.068594
513766100 0.942441 -0.06741
516729430 0.934399 -0.066814
519692760 0.936633 -0.064842
522656090 0.94331 -0.067128
525619420 0.949064 -0.068802
528582750 0.951235 -0.07069
531546080 0.954712 -0.070154
534509410 0.95348 -0.070424
537472740 0.951824 -0.06784
540436070 0.947683 -0.067641
543399400 0.942588 -0.066651
546362730 0.934319 -0.069278
549326060 0.93387 -0.067091
552289390 0.939588 -0.072505
555252720 0.943964 -0.071072
558216050 0.950194 -0.069441
561179380 0.953373 -0.070987
564142710 0.953376 -0.070141
567106040 0.952798 -0.067929
570069370 0.948434 -0.067703
573032700 0.94348 -0.067771
575996030 0.949388 -0.056267
578959360 0.932872 -0.06803
581922690 0.942406 -0.070862
584886020 0.944348 -0.069684
587849350 0.949999 -0.070641
590812680 0.952883 -0.070529
593776010 0.953941 -0.069279
596739340 0.952135 -0.068349
599702670 0.947944 -0.06795
602666000 0.942333 -0.0684
605629330 0.93535 -0.069383
608592660 0.929839 -0.070775
611555990 0.937984 -0.069948
614519320 0.944943 -0.073464
617482650 0.950576 -0.0752
620445980 0.95351 -0.073718
623409310 0.954396 -0.067488
626372640 0.950934 -0.071495
629335970 0.948151 -0.071852
632299300 0.944808 -0.067576
635262630 0.935598 -0.070385
638225960 0.93092 -0.06684
641189290 0.936927 -0.071337
644152620 0.944891 -0.073842
647115950 0.949945 -0.075006
650079280 0.951348 -0.073648
653042610 0.952852 -0.073027
656005940 0.950512 -0.07129
658969270 0.948536 -0.070825
661932600 0.943715 -0.069246
664895930 0.936423 -0.067804
667859260 0.926368 -0.071305
670822590 0.936898 -0.072708
673785920 0.941933 -0.075764
676749250 0.945764 -0.074273
679712580 0.949437 -0.075775
682675910 0.95151 -0.071711
685639240 0.949761 -0.072945
688602570 0.946857 -0.071097
691565900 0.943556 -0.071249
694529230 0.936907 -0.072264
697492560 0.928197 -0.066668
700455890 0.933768 -0.068006
703419220 0.939666 -0.073535
706382550 0.943835 -0.074484
709345880 0.95107 -0.074543
712309210 0.946531 -0.0751
715272540 0.947984 -0.072079
718235870 0.947464 -0.071114
721199200 0.940792 -0.070464
724162530 0.934616 -0.071096
727125860 0.926026 -0.074326
730089190 0.932114 -0.071938
733052520 0.938526 -0.073879
736015850 0.94227 -0.075274
738979180 0.944198 -0.075227
741942510 0.947356 -0.075727
744905840 0.943535 -0.073935
747869170 0.941414 -0.073185
750832500 0.939093 -0.069074
753795830 0.933002 -0.072271
756759160 0.925694 -0.070455
759722490 0.928476 -0.071023
762685820 0.934221 -0.074873
765649150 0.939191 -0.073398
768612480 0.9417 -0.072653
771575810 0.943828 -0.075922
774539140 0.942662 -0.075111
777502470 0.940543 -0.071531
780465800 0.937523 -0.072516
783429130 0.931004 -0.072988
786392460 0.924756 -0.070488
789355790 0.927551 -0.072602
792319120 0.934476 -0.070617
795282450 0.938274 -0.072792
798245780 0.939701 -0.075515
801209110 0.941841 -0.074519
804172440 0.941879 -0.074397
807135770 0.939869 -0.074042
810099100 0.935982 -0.071806
813062430 0.931512 -0.073163
816025760 0.922688 -0.07552
818989090 0.92471 -0.074166
821952420 0.9314 -0.073802
824915750 0.93555 -0.078813
827879080 0.938514 -0.081474
830842410 0.939428 -0.079006
833805740 0.939542 -0.076144
836769070 0.937408 -0.078447
839732400 0.934896 -0.076558
842695730 0.928337 -0.077853
845659060 0.92063 -0.079598
848622390 0.920288 -0.078249
851585720 0.928025 -0.078769
854549050 0.931879 -0.080239
857512380 0.938927 -0.082698
860475710 0.9377 -0.086823
863439040 0.939552 -0.084822
866402370 0.936749 -0.080515
869365700 0.933183 -0.079913
872329030 0.92791 -0.084959
875292360 0.92091 -0.085749
878255690 0.9189 -0.081883
881219020 0.927304 -0.084174
884182350 0.932844 -0.087789
887145680 0.936668 -0.090524
890109010 0.93928 -0.087798
893072340 0.9382 -0.08835
896035670 0.942452 -0.085165
898999000 0.936228 -0.08758
901962330 0.930412 -0.084606
904925660 0.92382 -0.080077
907888990 0.919722 -0.083734
910852320 0.925426 -0.083639
913815650 0.934111 -0.083093
916778980 0.934963 -0.088849
919742310 0.940258 -0.085509
922705640 0.937409 -0.088506
925668970 0.937266 -0.082299
928632300 0.933981 -0.087429
931595630 0.930174 -0.078315
934558960 0.922724 -0.079507
937522290 0.915827 -0.081057
940485620 0.923168 -0.080775
943448950 0.928392 -0.082264
946412280 0.933363 -0.084324
949375610 0.934804 -0.087582
952338940 0.935537 -0.085109
955302270 0.9352 -0.082671
958265600 0.931881 -0.083761
961228930 0.931143 -0.076214
964192260 0.921927 -0.084972
967155590 0.915 -0.082775
970118920 0.921621 -0.082672
973082250 0.928583 -0.086214
976045580 0.932541 -0.088921
979008910 0.935417 -0.09121
981972240 0.936427 -0.085008
984935570 0.935632 -0.08605
987898900 0.932587 -0.085619
990862230 0.927222 -0.083592
993825560 0.922399 -0.084995
996788890 0.913923 -0.080855
999752220 0.920076 -0.084124
1002715550 0.928101 -0.083868
1005678880 0.930781 -0.084842
1008642210 0.933644 -0.086578
1011605540 0.933544 -0.086608
1014568870 0.933839 -0.085609
1017532200 0.930874 -0.082456
1020495530 0.928556 -0.079608
1023458860 0.921353 -0.077944
1026422190 0.914233 -0.081472
1029385520 0.922133 -0.084759
1032348850 0.92535 -0.080814
1035312180 0.931131 -0.085789
1038275510 0.931241 -0.082955
1041238840 0.935303 -0.084965
1044202170 0.934909 -0.080031
1047165500 0.931432 -0.084365
1050128830 0.929758 -0.081397
1053092160 0.924615 -0.08067
1056055490 0.919934 -0.077945
1059018820 0.9243 -0.078539
1061982150 0.929106 -0.080684
1064945480 1.027416 -0.015906
1067908810 0.934448 -0.083351
1070872140 0.935231 -0.08125
1073835470 0.937627 -0.082142
1076798800 0.93313 -0.079603
1079762130 0.932773 -0.078653
1082725460 0.924986 -0.081078
1085688790 0.918825 -0.078441
1088652120 0.922924 -0.080445
1091615450 0.92739 -0.083538
1094578780 0.931734 -0.081097
1097542110 0.93538 -0.077648
1100505440 0.937798 -0.07877
1103468770 0.936155 -0.077733
1106432100 0.931837 -0.082251
1109395430 0.930659 -0.081437
1112358760 0.925704 -0.0802
1115322090 0.918343 -0.076856
1118285420 0.919626 -0.079462
1121248750 0.924143 -0.078532
1124212080 0.928245 -0.084331
1127175410 0.933092 -0.086107
1130138740 0.934153 -0.084082
1133102070 0.932666 -0.087527
1136065400 0.934072 -0.086993
1139028730 0.92837 -0.087001
1141992060 0.92468 -0.088976
1144955390 0.913325 -0.088625
1147918720 0.919123 -0.086343
1150882050 0.922644 -0.097345
1153845380 0.929349 -0.090237
1156808710 0.93261 -0.09086
1159772040 0.936261 -0.092675
1162735370 0.936535 -0.092063
1165698700 0.934087 -0.090928
1168662030 0.930283 -0.087876
1171625360 0.925081 -0.093527
1174588690 0.916236 -0.089684
1177552020 0.914909 -0.091814
1180515350 0.923973 -0.09274
1183478680 0.93326 -0.087947
1186442010 0.934721 -0.093671
1189405340 0.937271 -0.091575
1192368670 0.935474 -0.091342
1195332000 0.93461 -0.0893
1198295330 0.927279 -0.091894
1201258660 0.922992 -0.091572
1204221990 0.91676 -0.090996
1207185320 0.914471 -0.097441
1210148650 0.921549 -0.097609
1213111980 0.928154 -0.094689
1216075310 0.929889 -0.099256
1219038640 0.931595 -0.102521
1222001970 0.93251 -0.098844
1224965300 0.930326 -0.103268
1227928630 0.925714 -0.103638
1230891960 0.924457 -0.098063
1233855290 0.912401 -0.103514
1236818620 0.911958 -0.096887
1239781950 0.917994 -0.105348
1242745280 0.926161 -0.102958
1245708610 0.928554 -0.105998
1248671940 0.932005 -0.104105
1251635270 0.932886 -0.102786
1254598600 0.932838 -0.101072
1257561930 0.924745 -0.10062
1260525260 0.921339 -0.098743
1263488590 0.913908 -0.098736
1266451920 0.911107 -0.100117
1269415250 0.915659 -0.103433
1272378580 0.920768 -0.104635
1275341910 0.926647 -0.106239
1278305240 0.92554 -0.107952
1281268570 0.926885 -0.107353
1284231900 0.927661 -0.10552
1287195230 0.92239 -0.104124
1290158560 0.917174 -0.105856
1293121890 0.909463 -0.102472
1296085220 0.902894 -0.102252
1299048550 0.91127 -0.104103
1302011880 0.915514 -0.104644
1304975210 0.920815 -0.109327
1307938540 0.922739 -0.104784
1310901870 0.926356 -0.104303
1313865200 0.92185 -0.104162
1316828530 0.920225 -0.110124
1319791860 0.915615 -0.102364
1322755190 0.910221 -0.10059
1325718520 0.902678 -0.10284
1328681850 0.912979 -0.103791
1331645180 0.915142 -0.110942
1334608510 0.917345 -0.105
1337571840 0.920743 -0.108519
1340535170 0.919968 -0.10763
1343498500 0.918528 -0.106089
1346461830 0.915705 -0.104322
1349425160 0.912679 -0.110094
1352388490 0.908076 -0.100424
1355351820 0.900941 -0.099411
1358315150 0.907557 -0.103765
1361278480 0.912924 -0.105176
1364241810 0.917191 -0.102825
1367205140 0.920955 -0.105031
1370168470 0.921818 -0.111268
1373131800 0.920491 -0.104841
1376095130 0.920372 -0.107793
1379058460 0.918026 -0.10217
1382021790 0.911794 -0.098224
1384985120 0.90664 -0.103138
1387948450 0.909621 -0.100605
1390911780 0.919886 -0.100025
1393875110 0.919556 -0.105161
1396838440 0.923311 -0.100966
1399801770 0.921495 -0.106793
1402765100 0.919598 -0.110903
1405728430 0.918021 -0.105664
1408691760 0.913728 -0.10097
1411655090 0.914996 -0.09987
1414618420 0.909433 -0.103449
1417581750 0.910134 -0.105578
1420545080 0.918361 -0.101151
1423508410 0.921398 -0.099229
1426471740 0.922067 -0.098946
1429435070 0.923847 -0.109901
1432398400 0.922114 -0.10369
1435361730 0.919088 -0.103109
1438325060 0.917948 -0.102808
1441288390 0.916403 -0.102667
1444251720 0.910256 -0.103638
1447215050 0.908801 -0.10599
1450178380 0.917309 -0.104153
1453141710 0.919787 -0.109358
1456105040 0.925537 -0.103502
1459068370 0.923057 -0.101422
1462031700 0.926989 -0.096691
1464995030 0.9267 -0.094264
1467958360 0.921522 -0.093593
1470921690 0.915071 -0.093882
1473885020 0.907425 -0.094315
1476848350 0.9114 -0.093521
1479811680 0.915497 -0.098697
1482775010 0.92211 -0.099218
1485738340 0.924003 -0.101689
1488701670 0.925069 -0.09987
1491665000 0.926284 -0.098852
1494628330 0.925002 -0.100061
1497591660 0.922952 -0.095748
1500554990 0.916862 -0.096168
1503518320 0.909315 -0.095861
1506481650 0.907751 -0.104527
1509444980 0.915942 -0.103326
1512408310 0.921615 -0.103261
1515371640 0.927641 -0.101595
1518334970 0.928 -0.104352
1521298300 0.927443 -0.101646
1524261630 0.925825 -0.10234
1527224960 0.920984 -0.102592
1530188290 0.916104 -0.103417
1533151620 0.907217 -0.109809
1536114950 0.905282 -0.112694
1539078280 0.914703 -0.10903
1542041610 0.919498 -0.108579
1545004940 0.926762 -0.110216
1547968270 0.929178 -0.112259
1550931600 0.929034 -0.112523
1553894930 0.932936 -0.093334
1556858260 0.929695 -0.099079
1559821590 0.923497 -0.095266
1562784920 0.91041 -0.094613
1565748250 0.912527 -0.095356
1568711580 0.919096 -0.096604
1571674910 0.927331 -0.09626
1574638240 0.932107 -0.096585
1577601570 0.932607 -0.096607
1580564900 0.933812 -0.094597
1583528230 0.928693 -0.094514
1586491560 0.927585 -0.094383
1589454890 0.922024 -0.09472
1592418220 0.911742 -0.091661
1595381550 0.909051 -0.087969
1598344880 0.914947 -0.093446
1601308210 0.918476 -0.098156
1604271540 0.92103 -0.108902
1607234870 0.925477 -0.11532
1610198200 0.9195 -0.117532
1613161530 0.919863 -0.118774
1616124860 0.914793 -0.116578
1619088190 0.914534 -0.110258
1622051520 0.905614 -0.110277
1625014850 0.896646 -0.118454
1627978180 0.906439 -0.112363
1630941510 0.91237 -0.117683
1633904840 0.917026 -0.124505
1636868170 0.918462 -0.120475
1639831500 0.923025 -0.114957
1642794830 0.917921 -0.10865
1645758160 0.915002 -0.115728
1648721490 0.910835 -0.108121
1651684820 0.903004 -0.103639
1654648150 0.894858 -0.104055
1657611480 0.902414 -0.113706
1660574810 0.906707 -0.112464
1663538140 0.909316 -0.114809
1666501470 0.91267 -0.121553
1669464800 0.914739 -0.116211
1672428130 0.912088 -0.118273
1675391460 0.909089 -0.115144
1678354790 0.903581 -0.122425
1681318120 0.900126 -0.11115
1684281450 0.889641 -0.117325
1687244780 0.896666 -0.115605
1690208110 0.902572 -0.1182
1693171440 0.908239 -0.124417
1696134770 0.910257 -0.122247
1699098100 0.910637 -0.121758
1702061430 0.911365 -0.120239
1705024760 0.908574 -0.11536
1707988090 0.903757 -0.120176
1710951420 0.90208 -0.116255
1713914750 0.893763 -0.115283
1716878080 0.897702 -0.122359
1719841410 0.904821 -0.122736
1722804740 0.906575 -0.119648
1725768070 0.909114 -0.122367
1728731400 0.911465 -0.120779
1731694730 0.910498 -0.11773
1734658060 0.906075 -0.118216
1737621390 0.907974 -0.122694
1740584720 0.900597 -0.119908
1743548050 0.894126 -0.117433
1746511380 0.896838 -0.119013
1749474710 0.903192 -0.124897
1752438040 0.904589 -0.12968
1755401370 0.912758 -0.119803
1758364700 0.912468 -0.121986
1761328030 0.906442 -0.127527
1764291360 0.911176 -0.119039
1767254690 0.906957 -0.116803
1770218020 0.898605 -0.11807
1773181350 0.894074 -0.121331
1776144680 0.89674 -0.121691
1779108010 0.900687 -0.124011
1782071340 0.909417 -0.121301
1785034670 0.910712 -0.124621
1787998000 0.917045 -0.121174
1790961330 0.914381 -0.120586
1793924660 0.912298 -0.121491
1796887990 0.909409 -0.116271
1799851320 0.901708 -0.118244
1802814650 0.894491 -0.118697
1805777980 0.895573 -0.113656
1808741310 0.900463 -0.122326
1811704640 0.909916 -0.116308
1814667970 0.913776 -0.12039
1817631300 0.920604 -0.116033
1820594630 0.915697 -0.116097
1823557960 0.912813 -0.117148
1826521290 0.911803 -0.118979
1829484620 0.905994 -0.11223
1832447950 0.897852 -0.114937
1835411280 0.900263 -0.112407
1838374610 0.903777 -0.114091
1841337940 0.909599 -0.115741
1844301270 0.913987 -0.119898
1847264600 0.910894 -0.114492
1850227930 0.915569 -0.124511
1853191260 0.909949 -0.121222
1856154590 0.907581 -0.118048
1859117920 0.9057 -0.10979
1862081250 0.893773 -0.12822
1865044580 0.894422 -0.121509
1868007910 0.903625 -0.121251
1870971240 0.906927 -0.122234
1873934570 0.914694 -0.120613
1876897900 0.915404 -0.121205
1879861230 0.914003 -0.120631
1882824560 0.913189 -0.124036
1885787890 0.914884 -0.112846
1888751220 0.905302 -0.116527
1891714550 0.900301 -0.108035
1894677880 0.896073 -0.113057
1897641210 0.897148 -0.122696
1900604540 0.905628 -0.117275
1903567870 0.907814 -0.118563
1906531200 0.910371 -0.12048
1909494530 0.915871 -0.115171
1912457860 0.909869 -0.117231
1915421190 0.909151 -0.113177
1918384520 0.901288 -0.117498
1921347850 0.897006 -0.109778
1924311180 0.892773 -0.114675
1927274510 0.9003 -0.109952
1930237840 0.902782 -0.11893
1933201170 0.908646 -0.120119
1936164500 0.907947 -0.119368
1939127830 0.910799 -0.117089
1942091160 0.907442 -0.118868
1945054490 0.907339 -0.113759
1948017820 0.901516 -0.11081
1950981150 0.895653 -0.107799
1953944480 0.889978 -0.109678
1956907810 0.898093 -0.111946
1959871140 0.89875 -0.122241
1962834470 0.908957 -0.113678
1965797800 0.915988 -0.10481
1968761130 0.909732 -0.115718
1971724460 0.90602 -0.122697
1974687790 0.907392 -0.122477
1977651120 0.903192 -0.118528
1980614450 0.897769 -0.110222
1983577780 0.892539 -0.106758
1986541110 0.901445 -0.114056
1989504440 0.901342 -0.117066
1992467770 0.906282 -0.115017
1995431100 0.903937 -0.129339
1998394430 0.906455 -0.123268
2001357760 0.905776 -0.118536
2004321090 0.903425 -0.125527
2007284420 0.898389 -0.11492
2010247750 0.8947 -0.117214
2013211080 0.885458 -0.120356
2016174410 0.894119 -0.115494
2019137740 0.90082 -0.123694
2022101070 0.901389 -0.117157
2025064400 0.905663 -0.123632
2028027730 0.90682 -0.117124
2030991060 0.901858 -0.125697
2033954390 0.90533 -0.112164
2036917720 0.904516 -0.113039
2039881050 0.896647 -0.111517
2042844380 0.89129 -0.111163
2045807710 0.893513 -0.11517
2048771040 0.897927 -0.125024
2051734370 0.901597 -0.120599
2054697700 0.905744 -0.122487
2057661030 0.905386 -0.129374
2060624360 0.906293 -0.110562
2063587690 0.902773 -0.117406
2066551020 0.901065 -0.124294
2069514350 0.891485 -0.118291
2072477680 0.885005 -0.129539
2075441010 0.890287 -0.126715
2078404340 0.884995 -0.12898
2081367670 0.900769 -0.128713
2084331000 0.902663 -0.123819
2087294330 0.905821 -0.124956
2090257660 0.904289 -0.123238
2093220990 0.902026 -0.125708
2096184320 0.897291 -0.134361
2099147650 0.891947 -0.12565
2102110980 0.883572 -0.131804
2105074310 0.887652 -0.12613
2108037640 0.894901 -0.132856
2111000970 0.897431 -0.126833
2113964300 0.904881 -0.131397
2116927630 0.90783 -0.121407
2119890960 0.905998 -0.123468
2122854290 0.901921 -0.12176
2125817620 0.901249 -0.125276
2128780950 0.892464 -0.118531
2131744280 0.882693 -0.122169
2134707610 0.88687 -0.11908
2137670940 0.893271 -0.123948
2140634270 0.898145 -0.128888
2143597600 0.904336 -0.130418
2146560930 0.902612 -0.128408
2149524260 0.903793 -0.137565
2152487590 0.898842 -0.140665
2155450920 0.897955 -0.124413
2158414250 0.893989 -0.122987
2161377580 0.887209 -0.131054
2164340910 0.885091 -0.127384
2167304240 0.893214 -0.134225
2170267570 0.895869 -0.135011
2173230900 0.906425 -0.124281
2176194230 0.902144 -0.130852
2179157560 0.903072 -0.130218
2182120890 0.901791 -0.127583
2185084220 0.899497 -0.127079
2188047550 0.896341 -0.123184
2191010880 0.8878 -0.127232
2193974210 0.8845 -0.126549
2196937540 0.889885 -0.127483
2199900870 0.894744 -0.128283
2202864200 0.896472 -0.127886
2205827530 0.892887 -0.132832
2208790860 0.904848 -0.131489
2211754190 0.901136 -0.132096
2214717520 0.896296 -0.136581
2217680850 0.898078 -0.126505
2220644180 0.882535 -0.127623
2223607510 0.881829 -0.12903
2226570840 0.885554 -0.139872
2229534170 0.890701 -0.138542
2232497500 0.896409 -0.133103
2235460830 0.895136 -0.139524
2238424160 0.899536 -0.138309
2241387490 0.899669 -0.128476
2244350820 0.893805 -0.141085
2247314150 0.893663 -0.135256
2250277480 0.882715 -0.128901
2253240810 0.879034 -0.133702
2256204140 0.891125 -0.132193
2259167470 0.902714 -0.085041
2262130800 0.894977 -0.135466
2265094130 0.894817 -0.136507
2268057460 0.901251 -0.136005
2271020790 0.898656 -0.135144
2273984120 0.900374 -0.131708
2276947450 0.891048 -0.130946
2279910780 0.89086 -0.133007
2282874110 0.885024 -0.132215
2285837440 0.892345 -0.129446
2288800770 0.892764 -0.136436
2291764100 0.891312 -0.140801
2294727430 0.901982 -0.132737
2297690760 0.905083 -0.128369
2300654090 0.898839 -0.133418
2303617420 0.897837 -0.120578
2306580750 0.889292 -0.132796
2309544080 0.889004 -0.124322
2312507410 0.883485 -0.127483
2315470740 0.89465 -0.126898
2318434070 0.894132 -0.126642
2321397400 0.894442 -0.130593
2324360730 0.896742 -0.133772
2327324060 0.89968 -0.132943
2330287390 0.888456 -0.142359
2333250720 0.891211 -0.130472
2336214050 0.88607 -0.129606
2339177380 0.872251 -0.15037
2342140710 0.885983 -0.132052
2345104040 0.893855 -0.128456
2348067370 0.892774 -0.132179
2351030700 0.887334 -0.141327
2353994030 0.897201 -0.132274
2356957360 0.894195 -0.135001
2359920690 0.901275 -0.121438
2362884020 0.891988 -0.138949
2365847350 0.885735 -0.133557
2368810680 0.878644 -0.139688
2371774010 0.878972 -0.135679
2374737340 0.884368 -0.12918
2377700670 0.885027 -0.129016
2380664000 0.889003 -0.137343
2383627330 0.897265 -0.134523
2386590660 0.894513 -0.132715
2389553990 0.894884 -0.134179
2392517320 0.88971 -0.132741
2395480650 0.89478 -0.130249
2398443980 0.884291 -0.136932
2401407310 0.874272 -0.135891
2404370640 0.875638 -0.141181
2407333970 0.890783 -0.128008
2410297300 0.890278 -0.135808
2413260630 0.888292 -0.142524
2416223960 0.894589 -0.137654
2419187290 0.890908 -0.134157
2422150620 0.890856 -0.138251
2425113950 0.884264 -0.138834
2428077280 0.878211 -0.141354
2431040610 0.875653 -0.135804
2434003940 0.884093 -0.134054
2436967270 0.88029 -0.152571
2439930600 0.90576 -0.137148
2442893930 0.883728 -0.145606
2445857260 0.887645 -0.150574
2448820590 0.900559 -0.140371
2451783920 0.887111 -0.139719
2454747250 0.88862 -0.14559
2457710580 0.882494 -0.145694
2460673910 0.875211 -0.139931
2463637240 0.884015 -0.142315
2466600570 0.892261 -0.143633
2469563900 0.89092 -0.158202
2472527230 0.895901 -0.144249
2475490560 0.894525 -0.14336
2478453890 0.892062 -0.14078
2481417220 0.897976 -0.142347
2484380550 0.891069 -0.146265
2487343880 0.884487 -0.137867
2490307210 0.875006 -0.131539
2493270540 0.872685 -0.133192
2496233870 0.885617 -0.155568
2499197200 0.891585 -0.136366
2502160530 0.891805 -0.1416
2505123860 0.896885 -0.132918
2508087190 0.900639 -0.134796
2511050520 0.898215 -0.142925
2514013850 0.882403 -0.126586
2516977180 0.883703 -0.127283
2519940510 0.875201 -0.131207
2522903840 0.874137 -0.129986
2525867170 0.882381 -0.128043
2528830500 0.886075 -0.136012
2531793830 0.887026 -0.140507
2534757160 0.893762 -0.141424
2537720490 0.886747 -0.139706
2540683820 0.891996 -0.136924
2543647150 0.8857 -0.146536
2546610480 0.880256 -0.141306
2549573810 0.878087 -0.140635
2552537140 0.87394 -0.140471
2555500470 0.881477 -0.141179
2558463800 0.889633 -0.14259
2561427130 0.889974 -0.142539
2564390460 0.892457 -0.142673
2567353790 0.892702 -0.1448
2570317120 0.889554 -0.14342
2573280450 0.885459 -0.147037
2576243780 0.885829 -0.139011
2579207110 0.876271 -0.135358
2582170440 0.872565 -0.145077
2585133770 0.877798 -0.148965
2588097100 0.888613 -0.143857
2591060430 0.887307 -0.141955
2594023760 0.888131 -0.141965
2596987090 0.883319 -0.147864
2599950420 0.888359 -0.143555
2602913750 0.882297 -0.147442
2605877080 0.876484 -0.143888
2608840410 0.874674 -0.138342
2611803740 0.868666 -0.140102
2614767070 0.874146 -0.142662
2617730400 0.874585 -0.149099
2620693730 0.878054 -0.149968
2623657060 0.881013 -0.148774
2626620390 0.878911 -0.154218
2629583720 0.87123 -0.155621
2632547050 0.876164 -0.147336
2635510380 0.874074 -0.153311
2638473710 0.866381 -0.150995
2641437040 0.859452 -0.156456
2644400370 0.867987 -0.150885
2647363700 0.873171 -0.15799
2650327030 0.87342 -0.15755
2653290360 0.875963 -0.15658
2656253690 0.881399 -0.152189
2659217020 0.875935 -0.154131
2662180350 0.875079 -0.154693
2665143680 0.868236 -0.150167
2668107010 0.869449 -0.147159
2671070340 0.86411 -0.14906
2674033670 0.861922 -0.150552
2676997000 0.872519 -0.156388
2679960330 0.871952 -0.15287
2682923660 0.883459 -0.154374
2685886990 0.870911 -0.15853
2688850320 0.882663 -0.157837
2691813650 0.879589 -0.152522
2694776980 0.878913 -0.148749
2697740310 0.873407 -0.15451
2700703640 0.873683 -0.155263
2703666970 0.870723 -0.155955
2706630300 0.869413 -0.163075
2709593630 0.885775 -0.151072
2712556960 0.888499 -0.152533
2715520290 0.887708 -0.149671
2718483620 0.897002 -0.149993
2721446950 0.894383 -0.140573
2724410280 0.877873 -0.142934
2727373610 0.867366 -0.157651
2730336940 0.872469 -0.153159
2733300270 0.872947 -0.154584
2736263600 0.888079 -0.149551
2739226930 0.880072 -0.149395
2742190260 0.883466 -0.147339
2745153590 0.898081 -0.126137
2748116920 0.891876 -0.129646
2751080250 0.882481 -0.138061
2754043580 0.886925 -0.12335
2757006910 0.883228 -0.135113
2759970240 0.869659 -0.139404
2762933570 0.878624 -0.138031
2765896900 0.877367 -0.137604
2768860230 0.883028 -0.147472
2771823560 0.883443 -0.144062
2774786890 0.893361 -0.139415
2777750220 0.903264 -0.124799
2780713550 0.873111 -0.163529
2783676880 0.876505 -0.163164
2786640210 0.869864 -0.160027
2789603540 0.861983 -0.16817
2792566870 0.870495 -0.157818
2795530200 0.874093 -0.166187
2798493530 0.873911 -0.178262
2801456860 0.885927 -0.158657
2804420190 0.881745 -0.168745
2807383520 0.88379 -0.166845
2810346850 0.877342 -0.177482
2813310180 0.878471 -0.155557
2816273510 0.868404 -0.17066
2819236840 0.855187 -0.165336
2822200170 0.866417 -0.174985
2825163500 0.871202 -0.170755
2828126830 0.883151 -0.174463
2831090160 0.879622 -0.163199
2834053490 0.889256 -0.175368
2837016820 0.889207 -0.171186
2839980150 0.896088 -0.167501
2842943480 0.885834 -0.177402
2845906810 0.89615 -0.155453
2848870140 0.876095 -0.153155
2851833470 0.873445 -0.156879
2854796800 0.88945 -0.148042
2857760130 0.886109 -0.156776
2860723460 0.886353 -0.164649
2863686790 0.889991 -0.159982
2866650120 0.882752 -0.162116
2869613450 0.871486 -0.170672
2872576780 0.893595 -0.168832
2875540110 0.877523 -0.157873
2878503440 0.869895 -0.157049
2881466770 0.873808 -0.176539
2884430100 0.879096 -0.166785
2887393430 0.872611 -0.164105
2890356760 0.885325 -0.179982
2893320090 0.882903 -0.171775
2896283420 0.873955 -0.17357
2899246750 0.87601 -0.166415
2902210080 0.873268 -0.162029
2905173410 0.870123 -0.170988
2908136740 0.865837 -0.176884
2911100070 0.855281 -0.163837
2914063400 0.866229 -0.157952
2917026730 0.866088 -0.165078
2919990060 0.867227 -0.16151
2922953390 0.879244 -0.171024
2925916720 0.870715 -0.161745
2928880050 0.87301 -0.168127
2931843380 0.861561 -0.169556
2934806710 0.868285 -0.150165
2937770040 0.859667 -0.160622
2940733370 0.853561 -0.160883
2943696700 0.864417 -0.14985
2946660030 0.866065 -0.162625
2949623360 0.863861 -0.166144
2952586690 0.864809 -0.163163
2955550020 0.870253 -0.162027
2958513350 0.872421 -0.159886
2961476680 0.866379 -0.159067
2964440010 0.85787 -0.160387
2967403340 0.856008 -0.158979
2970366670 0.849509 -0.152037
2973330000 0.856938 -0.151433
2976293330 0.85976 -0.163501
2979256660 0.868416 -0.156323
2982219990 0.863311 -0.170447
2985183320 0.866784 -0.160682
2988146650 0.869126 -0.158593
2991109980 0.867353 -0.154636
2994073310 0.865085 -0.153524
2997036640 0.859531 -0.150476
2999999970 0.8521 -0.146254
