# HZ S RI R 50
10000000 0.996544 -0.002914
12963330 1.000165 -0.006038
15926660 1.005285 -0.010261
18889990 1.010755 -0.013075
21853320 1.012855 -0.016144
24816650 1.015264 -0.018234
27779980 1.014745 -0.017933
30743310 1.013812 -0.017588
33706640 1.009719 -0.016864
36669970 1.004256 -0.017467
39633300 0.996335 -0.017148
42596630 1.002722 -0.019879
45559960 1.008938 -0.023401
48523290 1.013667 -0.026197
51486620 1.016668 -0.026952
54449950 1.018218 -0.027709
57413280 1.016257 -0.028288
60376610 1.014389 -0.027866
63339940 1.008612 -0.026673
66303270 1.002035 -0.026492
69266600 0.993547 -0.025549
72229930 0.99789 -0.029486
75193260 1.004018 -0.03248
78156590 0.999883 -0.069148
81119920 1.010725 -0.035653
84083250 1.011148 -0.036866
87046580 1.009959 -0.038228
90009910 1.008689 -0.036708
92973240 1.003932 -0.036026
95936570 0.996851 -0.036235
98899900 0.988973 -0.034495
101863230 0.993909 -0.020195
104826560 0.999503 -0.021974
107789890 1.002523 -0.023573
110753220 1.003956 -0.021758
113716550 1.00458 -0.024179
116679880 1.004604 -0.022495
119643210 1.002127 -0.023369
122606540 0.998401 -0.023685
125569870 0.990757 -0.040593
128533200 0.983919 -0.042156
131496530 0.98581 -0.042484
134459860 0.994716 -0.044941
137423190 0.985514 -0.056338
140386520 0.988377 -0.054754
143349850 0.992464 -0.054659
146313180 0.992079 -0.053151
149276510 0.992707 -0.051807
152239840 0.988541 -0.050238
155203170 0.985264 -0.049825
158166500 0.978817 -0.04789
161129830 0.979184 -0.046899
164093160 0.984752 -0.049511
167056490 0.988159 -0.050431
170019820 0.99144 -0.049708
172983150 0.992578 -0.048979
175946480 0.98815 -0.068723
178909810 0.988913 -0.049403
181873140 0.986275 -0.049349
184836470 0.980762 -0.049617
187799800 0.973369 -0.051325
190763130 0.973388 -0.051839
193726460 0.978784 -0.051862
196689790 0.982767 -0.052342
199653120 0.985349 -0.052549
202616450 0.988112 -0.052924
205579780 0.98749 -0.051286
208543110 0.985926 -0.051851
211506440 0.981534 -0.052595
214469770 0.976729 -0.052505
217433100 0.970119 -0.053472
220396430 0.966817 -0.053976
223359760 0.97375 -0.054133
226323090 0.981256 -0.055459
229286420 0.982482 -0.055236
232249750 0.984795 -0.05418
235213080 0.984505 -0.053895
238176410 0.981937 -0.054964
241139740 0.979286 -0.05366
244103070 0.971811 -0.054482
247066400 0.965845 -0.05629
250029730 0.962616 -0.057753
252993060 0.970068 -0.058542
255956390 0.976079 -0.058278
258919720 0.980387 -0.058638
261883050 0.981222 -0.058945
264846380 0.981731 -0.0575
267809710 0.980325 -0.057952
270773040 0.97717 -0.056188
273736370 0.970738 -0.056757
276699700 0.963199 -0.058997
279663030 0.957541 -0.060684
282626360 0.964653 -0.061494
285589690 0.971895 -0.059025
288553020 0.976305 -0.062058
291516350 0.978644 -0.059942
294479680 0.977267 -0.059862
297443010 0.974669 -0.060944
300406340 0.971541 -0.059559
303369670 0.965416 -0.058566
306333000 0.957806 -0.057977
309296330 0.949241 -0.061479
312259660 0.959624 -0.063318
315222990 0.96588 -0.065071
318186320 0.97082 -0.063281
321149650 0.97261 -0.067431
324112980 0.974364 -0.063553
327076310 0.97389 -0.064347
330039640 0.969608 -0.062961
333002970 0.963698 -0.062576
335966300 0.957014 -0.061745
338929630 0.948055 -0.063551
341892960 0.95468 -0.066494
344856290 0.963069 -0.066489
347819620 0.967053 -0.069776
350782950 0.969458 -0.069578
353746280 0.970736 -0.066817
356709610 0.970857 -0.066865
359672940 0.966468 -0.066789
362636270 0.961501 -0.066701
365599600 0.952635 -0.065875
368562930 0.94438 -0.064371
371526260 0.95024 -0.068592
374489590 0.958427 -0.071233
377452920 0.962702 -0.070743
380416250 0.965972 -0.07104
383379580 0.966692 -0.069432
386342910 0.964669 -0.069925
389306240 0.963453 -0.069318
392269570 0.958922 -0.068197
395232900 0.950368 -0.067771
398196230 0.94374 -0.06649
401159560 0.947174 -0.071942
404122890 0.954191 -0.069893
407086220 0.960666 -0.071211
410049550 0.961889 -0.073307
413012880 0.963883 -0.071658
415976210 0.961945 -0.071042
418939540 0.960574 -0.068799
421902870 0.955886 -0.067915
424866200 0.94882 -0.065974
427829530 0.942007 -0.06583
430792860 0.943609 -0.067089
433756190 0.950973 -0.068645
436719520 0.954206 -0.0741
439682850 0.957267 -0.070462
442646180 0.958533 -0.071699
445609510 0.959394 -0.071144
448572840 0.954343 -0.070083
451536170 0.952739 -0.066453
454499500 0.948158 -0.067609
457462830 0.939019 -0.066617
460426160 0.939921 -0.068876
463389490 0.94574 -0.068997
466352820 0.950492 -0.070512
469316150 0.952163 -0.070533
472279480 0.953168 -0.072042
475242810 0.954374 -0.070877
478206140 0.950049 -0.071283
481169470 0.945737 -0.070092
484132800 0.94109 -0.068232
487096130 0.933263 -0.070994
490059460 0.935275 -0.070631
493022790 0.941476 -0.069229
495986120 0.945702 -0.073922
498949450 0.950365 -0.072075
501912780 0.952297 -0.071446
504876110 0.953001 -0.070378
507839440 0.950069 -0.069701
510802770 0.947983 -0.068576
513766100 0.944393 -0.067023
516729430 0.937528 -0.067041
519692760 0.935738 -0.068855
522656090 0.942126 -0.070006
525619420 0.947744 -0.0681
528582750 0.951443 -0.07073
531546080 0.953271 -0.069807
534509410 0.953247 -0.068797
537472740 0.950915 -0.068862
540436070 0.948017 -0.068757
543399400 0.943706 -0.068329
546362730 0.936962 -0.068451
549326060 0.932914 -0.070714
552289390 0.940691 -0.074613
555252720 0.9474 -0.073283
558216050 0.951823 -0.071298
561179380 0.951825 -0.072549
564142710 0.952391 -0.070706
567106040 0.95202 -0.0683
570069370 0.948485 -0.067432
573032700 0.942406 -0.069132
575996030 0.945755 -0.055588
578959360 0.932233 -0.06894
581922690 0.938971 -0.074323
584886020 0.945044 -0.071787
587849350 0.950168 -0.072852
590812680 0.951973 -0.072095
593776010 0.951788 -0.07107
596739340 0.952123 -0.069473
599702670 0.948374 -0.069369
602666000 0.942011 -0.070632
605629330 0.935021 -0.069742
608592660 0.92897 -0.073025
611555990 0.937453 -0.071867
614519320 0.944721 -0.073166
617482650 0.947108 -0.073357
620445980 0.951476 -0.074077
623409310 0.952179 -0.072931
626372640 0.951173 -0.073761
629335970 0.946665 -0.073275
632299300 0.942258 -0.071365
635262630 0.936206 -0.069869
638225960 0.926912 -0.070446
641189290 0.937055 -0.072803
644152620 0.941967 -0.076677
647115950 0.947114 -0.07327
650079280 0.949633 -0.076401
653042610 0.952234 -0.075121
656005940 0.950248 -0.072523
658969270 0.948312 -0.068469
661932600 0.941441 -0.071678
664895930 0.934421 -0.070355
667859260 0.928333 -0.068572
670822590 0.934093 -0.070738
673785920 0.941586 -0.075588
676749250 0.946922 -0.074342
679712580 0.948682 -0.076105
682675910 0.949276 -0.077698
685639240 0.948468 -0.071817
688602570 0.947051 -0.070732
691565900 0.94127 -0.072386
694529230 0.935343 -0.069786
697492560 0.928315 -0.068016
700455890 0.932105 -0.071153
703419220 0.938607 -0.075571
706382550 0.945151 -0.074467
709345880 0.944635 -0.074089
712309210 0.947948 -0.07808
715272540 0.946383 -0.077783
718235870 0.943839 -0.074099
721199200 0.940002 -0.073177
724162530 0.932995 -0.072734
727125860 0.926412 -0.072087
730089190 0.930019 -0.073917
733052520 0.935986 -0.071349
736015850 0.940303 -0.075975
738979180 0.943295 -0.076721
741942510 0.946185 -0.07418
744905840 0.94476 -0.07413
747869170 0.940307 -0.074312
750832500 0.937862 -0.069008
753795830 0.93138 -0.071953
756759160 0.924034 -0.067611
759722490 0.927457 -0.073193
762685820 0.935164 -0.075518
765649150 0.936928 -0.075982
768612480 0.922412 -0.11805
771575810 0.94433 -0.072685
774539140 0.944133 -0.073324
777502470 0.940464 -0.070574
780465800 0.937609 -0.070761
783429130 0.931123 -0.071808
786392460 0.924032 -0.071933
789355790 0.925914 -0.073686
792319120 0.932555 -0.07411
795282450 0.937963 -0.075881
798245780 0.93961 -0.076986
801209110 0.941573 -0.076709
804172440 0.940209 -0.07548
807135770 0.939276 -0.072273
810099100 0.937 -0.073201
813062430 0.93204 -0.074119
816025760 0.922554 -0.074868
818989090 0.924098 -0.074811
821952420 0.928754 -0.07736
824915750 0.935017 -0.078043
827879080 0.938089 -0.079671
830842410 0.939408 -0.080147
833805740 0.937974 -0.07933
836769070 0.936544 -0.078591
839732400 0.93363 -0.078778
842695730 0.925758 -0.078057
845659060 0.919271 -0.077518
848622390 0.919757 -0.078497
851585720 0.92698 -0.078955
854549050 0.933654 -0.081343
857512380 0.935043 -0.083923
860475710 0.936181 -0.086695
863439040 0.937736 -0.080943
866402370 0.935976 -0.083399
869365700 0.932659 -0.083885
872329030 0.926736 -0.084499
875292360 0.91952 -0.081624
878255690 0.919353 -0.082783
881219020 0.926892 -0.087178
884182350 0.931062 -0.087761
887145680 0.935415 -0.086353
890109010 0.937983 -0.087731
893072340 0.939162 -0.088591
896035670 0.936666 -0.085364
898999000 0.935037 -0.084942
901962330 0.930137 -0.085098
904925660 0.921018 -0.083468
907888990 0.916912 -0.082828
910852320 0.926371 -0.087454
913815650 0.931051 -0.084137
916778980 0.934596 -0.089188
919742310 0.936714 -0.08668
922705640 0.938407 -0.087216
925668970 0.938537 -0.085055
928632300 0.932147 -0.084339
931595630 0.928745 -0.082604
934558960 0.921468 -0.080124
937522290 0.917068 -0.081274
940485620 0.920301 -0.081901
943448950 0.928611 -0.083653
946412280 0.932618 -0.083353
949375610 0.932278 -0.088573
952338940 1.003576 -0.017147
955302270 0.933714 -0.088074
958265600 0.933385 -0.083142
961228930 0.926774 -0.08121
964192260 0.920856 -0.084546
967155590 0.913326 -0.080208
970118920 0.920164 -0.084135
973082250 0.926948 -0.083466
976045580 0.930671 -0.090167
979008910 0.933464 -0.089642
981972240 0.933004 -0.088231
984935570 0.932458 -0.085975
987898900 0.930883 -0.088004
990862230 0.927285 -0.085421
993825560 0.92123 -0.08544
996788890 0.914974 -0.07926
999752220 0.922334 -0.084228
1002715550 0.924959 -0.082511
1005678880 0.930323 -0.084618
1008642210 0.930886 -0.084769
1011605540 0.932421 -0.084023
1014568870 0.931833 -0.08807
1017532200 0.929866 -0.082892
1020495530 0.925362 -0.078656
1023458860 0.918289 -0.083466
1026422190 0.913485 -0.081249
1029385520 0.919301 -0.08327
1032348850 0.923964 -0.085008
1035312180 0.928772 -0.082986
1038275510 0.931378 -0.084001
1041238840 0.933349 -0.082085
1044202170 0.933054 -0.081746
1047165500 0.931204 -0.08636
1050128830 0.926786 -0.083388
1053092160 0.923717 -0.081609
1056055490 0.916828 -0.08236
1059018820 0.886174 -0.130681
1061982150 0.925961 -0.086412
1064945480 0.929388 -0.086707
1067908810 0.933667 -0.081475
1070872140 0.933709 -0.084951
1073835470 0.935152 -0.083321
1076798800 0.932691 -0.084363
1079762130 0.928632 -0.081048
1082725460 0.926083 -0.078943
1085688790 0.916943 -0.07907
1088652120 0.922071 -0.080133
1091615450 0.929143 -0.080705
1094578780 0.932425 -0.081686
1097542110 0.93494 -0.0779
1100505440 0.935271 -0.081865
1103468770 0.934395 -0.078425
1106432100 0.932411 -0.077023
1109395430 0.927689 -0.076895
1112358760 0.923863 -0.078084
1115322090 0.916094 -0.081071
1118285420 0.918567 -0.080122
1121248750 0.922885 -0.082779
1124212080 0.930581 -0.081911
1127175410 0.931689 -0.084676
1130138740 0.933676 -0.086699
1133102070 0.931971 -0.083892
1136065400 0.927953 -0.081287
1139028730 0.927563 -0.087262
1141992060 0.923109 -0.085868
1144955390 0.916417 -0.088166
1147918720 0.916961 -0.09058
1150882050 0.925607 -0.087317
1153845380 0.929862 -0.087975
1156808710 0.934362 -0.091362
1159772040 0.935046 -0.094524
1162735370 0.934526 -0.090366
1165698700 0.932313 -0.09353
1168662030 0.92792 -0.088939
1171625360 0.923381 -0.086078
1174588690 0.914746 -0.091539
1177552020 0.915618 -0.092809
1180515350 0.922137 -0.089712
1183478680 0.929051 -0.089601
1186442010 0.937261 -0.092037
1189405340 0.935352 -0.095039
1192368670 0.935655 -0.091054
1195332000 0.932692 -0.092913
1198295330 0.928498 -0.091863
1201258660 0.920187 -0.090931
1204221990 0.915081 -0.090036
1207185320 0.911581 -0.089572
1210148650 0.920761 -0.102086
1213111980 0.92703 -0.097653
1216075310 0.927939 -0.101247
1219038640 0.929001 -0.102424
1222001970 0.934123 -0.100425
1224965300 0.927755 -0.101701
1227928630 0.926865 -0.095875
1230891960 0.920082 -0.100816
1233855290 0.913919 -0.102602
1236818620 0.909837 -0.096925
1239781950 0.917968 -0.107299
1242745280 0.923478 -0.10604
1245708610 0.928289 -0.103173
1248671940 0.931908 -0.100882
1251635270 0.929344 -0.104188
1254598600 0.929096 -0.100631
1257561930 0.92721 -0.100541
1260525260 0.919637 -0.095731
1263488590 0.912097 -0.099187
1266451920 0.90905 -0.096718
1269415250 0.914869 -0.102484
1272378580 0.921255 -0.102652
1275341910 0.922502 -0.10514
1278305240 0.925382 -0.107323
1281268570 0.926614 -0.106746
1284231900 0.924857 -0.105252
1287195230 0.920506 -0.10565
1290158560 0.916563 -0.103304
1293121890 0.910262 -0.104234
1296085220 0.902005 -0.105085
1299048550 0.910846 -0.107853
1302011880 0.914471 -0.103236
1304975210 0.92056 -0.104551
1307938540 0.922066 -0.112423
1310901870 0.921579 -0.110148
1313865200 0.923554 -0.109523
1316828530 0.917002 -0.110308
1319791860 0.914734 -0.104949
1322755190 0.909361 -0.099828
1325718520 0.90226 -0.101002
1328681850 0.908858 -0.107063
1331645180 0.915885 -0.108861
1334608510 0.915979 -0.112606
1337571840 0.915649 -0.114402
1340535170 0.920738 -0.105875
1343498500 0.919168 -0.108629
1346461830 0.916255 -0.106258
1349425160 0.911641 -0.106466
1352388490 0.907349 -0.103856
1355351820 0.899539 -0.102639
1358315150 0.905666 -0.104305
1361278480 0.911412 -0.107688
1364241810 0.91483 -0.110501
1367205140 0.919585 -0.104805
1370168470 0.921737 -0.107571
1373131800 0.919899 -0.10409
1376095130 0.919003 -0.103925
1379058460 0.918516 -0.101599
1382021790 0.910679 -0.099169
1384985120 0.901245 -0.106856
1387948450 0.911519 -0.097903
1390911780 0.912395 -0.108067
1393875110 0.918665 -0.101341
1396838440 0.919995 -0.107723
1399801770 0.922587 -0.105349
1402765100 0.918822 -0.109085
1405728430 0.921933 -0.103247
1408691760 0.913515 -0.107798
1411655090 0.909747 -0.09891
1414618420 0.905387 -0.10296
1417581750 0.908515 -0.100388
1420545080 0.914511 -0.108088
1423508410 0.920528 -0.111414
1426471740 0.921815 -0.102316
1429435070 0.926179 -0.104831
1432398400 0.921661 -0.105483
1435361730 0.918906 -0.100753
1438325060 0.91781 -0.105621
1441288390 0.913783 -0.102323
1444251720 0.905856 -0.110678
1447215050 0.909015 -0.103647
1450178380 0.914899 -0.105979
1453141710 0.920287 -0.105122
1456105040 0.926041 -0.099505
1459068370 0.92543 -0.097988
1462031700 0.926467 -0.098879
1464995030 0.921356 -0.104873
1467958360 0.919059 -0.096506
1470921690 0.91452 -0.09623
1473885020 0.907325 -0.095324
1476848350 0.909188 -0.094789
1479811680 0.914688 -0.098486
1482775010 0.920936 -0.097366
1485738340 0.924104 -0.098278
1488701670 0.927399 -0.092845
1491665000 0.92763 -0.097463
1494628330 0.924702 -0.098474
1497591660 0.92027 -0.09818
1500554990 0.915608 -0.09797
1503518320 0.907213 -0.097617
1506481650 0.905877 -0.101881
1509444980 0.916568 -0.099144
1512408310 0.921637 -0.105131
1515371640 0.925251 -0.100325
1518334970 0.925532 -0.105076
1521298300 0.926147 -0.105947
1524261630 0.925946 -0.105872
1527224960 0.921854 -0.0998
1530188290 0.914653 -0.105723
1533151620 0.906679 -0.10708
1536114950 0.906797 -0.107785
1539078280 0.914346 -0.111989
1542041610 0.917043 -0.117928
1545004940 0.924459 -0.112836
1547968270 0.92773 -0.10652
1550931600 0.930828 -0.127525
1553894930 0.921895 -0.10651
1556858260 0.923205 -0.106103
1559821590 0.917042 -0.10626
1562784920 0.906679 -0.115295
1565748250 0.902955 -0.105018
1568711580 0.91171 -0.112469
1571674910 0.920519 -0.108695
1574638240 0.923373 -0.116185
1577601570 0.925498 -0.111758
1580564900 0.926164 -0.113491
1583528230 0.923485 -0.111949
1586491560 0.917472 -0.10957
1589454890 0.914193 -0.103971
1592418220 0.904866 -0.106286
1595381550 0.898448 -0.114044
1598344880 0.906071 -0.107704
1601308210 0.915643 -0.115141
1604271540 0.919385 -0.115989
1607234870 0.924356 -0.112897
1610198200 0.919475 -0.121972
1613161530 0.917683 -0.118142
1616124860 0.917865 -0.109985
1619088190 0.910992 -0.116288
1622051520 0.906031 -0.111787
1625014850 0.89844 -0.110566
1627978180 0.90431 -0.11664
1630941510 0.909593 -0.118543
1633904840 0.916346 -0.11902
1636868170 0.917483 -0.117566
1639831500 0.916929 -0.118495
1642794830 0.918198 -0.112696
1645758160 0.913213 -0.115581
1648721490 0.911652 -0.103879
1651684820 0.901676 -0.107481
1654648150 0.896655 -0.110974
1657611480 0.908177 -0.101412
1660574810 0.906494 -0.111231
1663538140 0.907537 -0.10927
1666501470 0.912114 -0.113993
1669464800 0.913613 -0.117
1672428130 0.912025 -0.118426
1675391460 0.908706 -0.112574
1678354790 0.904298 -0.114293
1681318120 0.899108 -0.111419
1684281450 0.89172 -0.109155
1687244780 0.8987 -0.116842
1690208110 0.902416 -0.119524
1693171440 0.904402 -0.123582
1696134770 0.90874 -0.122336
1699098100 0.909108 -0.122823
1702061430 0.911029 -0.115763
1705024760 0.90719 -0.118589
1707988090 0.905345 -0.110413
1710951420 0.898977 -0.116336
1713914750 0.890068 -0.116245
1716878080 0.895063 -0.115076
1719841410 0.900844 -0.122778
1722804740 0.903935 -0.125753
1725768070 0.911316 -0.125906
1728731400 0.910749 -0.121393
1731694730 0.911001 -0.123354
1734658060 0.9039 -0.12105
1737621390 0.905096 -0.118797
1740584720 0.898306 -0.125616
1743548050 0.891354 -0.117006
1746511380 0.896853 -0.119099
1749474710 0.901465 -0.120503
1752438040 0.904707 -0.122942
1755401370 0.906387 -0.123902
1758364700 0.910912 -0.127793
1761328030 0.911064 -0.117186
1764291360 0.910579 -0.123574
1767254690 0.907551 -0.122908
1770218020 0.898692 -0.123415
1773181350 0.894357 -0.11919
1776144680 0.894672 -0.123087
1779108010 0.904601 -0.123372
1782071340 0.911674 -0.121994
1785034670 0.910593 -0.119378
1787998000 0.914681 -0.120522
1790961330 0.914923 -0.1201
1793924660 0.914159 -0.118713
1796887990 0.911287 -0.122021
1799851320 0.903598 -0.115506
1802814650 0.891595 -0.120631
1805777980 0.897738 -0.115153
1808741310 0.906109 -0.118278
1811704640 0.908924 -0.115832
1814667970 0.911405 -0.113935
1817631300 0.909362 -0.126259
1820594630 0.915455 -0.114032
1823557960 0.908562 -0.119884
1826521290 0.908656 -0.116177
1829484620 0.902395 -0.112107
1832447950 0.894778 -0.108706
1835411280 0.89754 -0.113017
1838374610 0.904854 -0.116062
1841337940 0.905583 -0.118422
1844301270 0.912481 -0.120491
1847264600 0.916814 -0.118172
1850227930 0.912075 -0.115412
1853191260 0.91489 -0.112526
1856154590 0.905346 -0.118318
1859117920 0.903146 -0.12174
1862081250 0.897424 -0.114444
1865044580 0.893542 -0.118401
1868007910 0.900759 -0.11903
1870971240 0.907217 -0.122273
1873934570 0.912411 -0.118907
1876897900 0.913611 -0.119371
1879861230 0.915276 -0.116242
1882824560 0.911455 -0.119434
1885787890 0.908532 -0.115885
1888751220 0.904277 -0.113555
1891714550 0.897294 -0.112554
1894677880 0.894659 -0.114117
1897641210 0.901491 -0.113186
1900604540 0.906838 -0.114418
1903567870 0.909111 -0.121133
1906531200 0.912011 -0.118511
1909494530 0.911478 -0.115065
1912457860 0.909941 -0.118966
1915421190 0.906138 -0.114455
1918384520 0.900146 -0.118473
1921347850 0.893989 -0.114845
1924311180 0.888725 -0.115886
1927274510 0.896504 -0.116584
1930237840 0.901772 -0.122316
1933201170 0.910593 -0.1216
1936164500 0.905792 -0.120947
1939127830 0.909559 -0.112159
1942091160 0.911232 -0.109184
1945054490 0.904543 -0.115562
1948017820 0.901555 -0.11135
1950981150 0.895289 -0.107448
1953944480 0.887663 -0.111901
1956907810 0.895548 -0.109891
1959871140 0.901667 -0.113402
1962834470 0.902574 -0.114922
1965797800 0.908293 -0.122717
1968761130 0.908047 -0.10937
1971724460 0.908154 -0.11527
1974687790 0.903313 -0.118804
1977651120 0.900431 -0.115176
1980614450 0.897907 -0.106939
1983577780 0.886689 -0.12731
1986541110 0.898166 -0.122178
1989504440 0.899291 -0.117827
1992467770 0.909036 -0.117773
1995431100 0.905332 -0.122199
1998394430 0.907655 -0.119173
2001357760 0.90314 -0.122371
2004321090 0.904689 -0.120201
2007284420 0.905006 -0.119606
2010247750 0.891491 -0.119635
2013211080 0.885664 -0.118662
2016174410 0.893452 -0.121535
2019137740 0.896917 -0.122639
2022101070 0.900021 -0.124606
2025064400 0.904327 -0.120704
2028027730 0.903168 -0.122235
2030991060 0.908794 -0.117722
2033954390 0.905935 -0.124548
2036917720 0.902118 -0.108358
2039881050 0.894473 -0.113634
2042844380 0.886095 -0.117461
2045807710 0.8919 -0.109184
2048771040 0.896612 -0.122414
2051734370 0.904056 -0.11907
2054697700 0.901501 -0.121551
2057661030 0.902484 -0.120635
2060624360 0.904617 -0.11902
2063587690 0.900841 -0.129225
2066551020 0.896392 -0.131199
2069514350 0.893952 -0.123342
2072477680 0.886144 -0.120823
2075441010 0.888307 -0.129974
2078404340 0.885547 -0.11825
2081367670 0.897877 -0.121817
2084331000 0.902901 -0.130761
2087294330 0.903919 -0.127488
2090257660 0.902617 -0.125701
2093220990 0.901555 -0.128705
2096184320 0.896694 -0.130726
2099147650 0.88902 -0.131035
2102110980 0.884469 -0.131412
2105074310 0.88899 -0.127579
2108037640 0.89173 -0.12992
2111000970 0.896949 -0.130426
2113964300 0.904238 -0.125681
2116927630 0.906749 -0.129324
2119890960 0.902493 -0.12424
2122854290 0.902757 -0.124712
2125817620 0.898719 -0.12386
2128780950 0.88988 -0.132379
2131744280 0.885126 -0.120495
2134707610 0.887266 -0.120698
2137670940 0.892343 -0.122965
2140634270 0.896916 -0.127229
2143597600 1.002563 -0.229748
2146560930 0.902994 -0.130456
2149524260 0.901253 -0.1268
2152487590 0.901749 -0.128824
2155450920 0.897402 -0.129478
2158414250 0.891766 -0.130561
2161377580 0.884412 -0.124414
2164340910 0.887565 -0.130987
2167304240 0.891181 -0.132646
2170267570 0.897196 -0.12955
2173230900 0.900893 -0.129107
2176194230 0.902727 -0.133742
2179157560 0.906372 -0.126669
2182120890 0.898251 -0.12689
2185084220 0.89864 -0.127759
2188047550 0.896043 -0.12144
2191010880 0.886648 -0.122809
2193974210 0.888462 -0.126146
2196937540 0.891292 -0.12839
2199900870 0.897134 -0.126669
2202864200 0.898197 -0.130531
2205827530 0.904893 -0.131761
2208790860 0.904639 -0.132787
2211754190 0.90052 -0.131344
2214717520 0.897512 -0.135529
2217680850 0.890564 -0.144794
2220644180 0.887002 -0.130886
2223607510 0.884288 -0.129304
2226570840 0.887973 -0.134616
2229534170 0.896696 -0.139215
2232497500 0.896325 -0.135611
2235460830 0.89599 -0.1455
2238424160 0.897248 -0.134843
2241387490 0.894296 -0.139691
2244350820 0.893428 -0.139767
2247314150 0.886884 -0.126772
2250277480 0.865312 -0.160021
2253240810 0.880314 -0.129018
2256204140 0.886738 -0.135605
2259167470 0.886116 -0.132023
2262130800 0.8938 -0.13798
2265094130 0.889788 -0.139182
2268057460 0.891678 -0.145015
2271020790 0.895115 -0.141613
2273984120 0.890708 -0.138812
2276947450 0.887091 -0.134837
2279910780 0.882242 -0.135929
2282874110 0.884474 -0.137645
2285837440 0.886235 -0.133056
2288800770 0.892188 -0.135433
2291764100 0.891982 -0.141139
2294727430 0.893605 -0.143538
2297690760 0.898113 -0.130326
2300654090 0.899597 -0.131205
2303617420 0.896557 -0.13442
2306580750 0.892577 -0.127607
2309544080 0.886629 -0.121926
2312507410 0.882845 -0.126497
2315470740 0.885797 -0.130798
2318434070 0.893068 -0.125378
2321397400 0.892426 -0.134793
2324360730 0.901329 -0.130425
2327324060 0.8976 -0.140569
2330287390 0.893447 -0.13715
2333250720 0.896107 -0.132494
2336214050 0.890544 -0.125276
2339177380 0.88647 -0.130804
2342140710 0.878548 -0.136319
2345104040 0.884884 -0.128522
2348067370 0.886064 -0.138863
2351030700 0.890589 -0.138213
2353994030 0.890583 -0.137029
2356957360 0.891357 -0.132531
2359920690 0.890267 -0.134483
2362884020 0.895285 -0.132412
2365847350 0.890745 -0.133867
2368810680 0.881933 -0.135544
2371774010 0.870995 -0.140578
2374737340 0.874601 -0.135913
2377700670 0.887444 -0.133671
2380664000 0.88767 -0.133972
2383627330 0.893527 -0.133194
2386590660 0.893383 -0.139684
2389553990 0.893618 -0.143778
2392517320 0.890688 -0.139131
2395480650 0.883291 -0.139828
2398443980 0.880112 -0.137056
2401407310 0.878993 -0.13837
2404370640 0.878209 -0.137242
2407333970 0.883116 -0.14615
2410297300 0.893505 -0.135396
2413260630 0.891835 -0.12942
2416223960 0.889382 -0.148842
2419187290 0.890573 -0.144889
2422150620 0.890897 -0.130491
2425113950 0.88453 -0.146395
2428077280 0.875908 -0.142267
2431040610 0.868373 -0.14035
2434003940 0.877962 -0.131416
2436967270 0.882689 -0.149511
2439930600 0.887994 -0.148022
2442893930 0.888526 -0.139438
2445857260 0.891001 -0.151985
2448820590 0.893426 -0.143953
2451783920 0.886907 -0.143827
2454747250 0.885506 -0.144662
2457710580 0.883351 -0.145222
2460673910 0.873679 -0.140535
2463637240 0.87734 -0.141359
2466600570 0.884638 -0.153649
2469563900 0.885896 -0.14462
2472527230 0.893073 -0.143371
2475490560 0.895729 -0.140942
2478453890 0.897114 -0.138638
2481417220 0.894207 -0.147611
2484380550 0.891927 -0.144185
2487343880 0.880746 -0.14333
2490307210 0.875219 -0.133968
2493270540 0.880804 -0.140382
2496233870 0.879314 -0.134835
2499197200 0.887003 -0.137659
2502160530 0.898144 -0.142847
2505123860 0.892211 -0.139989
2508087190 0.891929 -0.143485
2511050520 0.89408 -0.130005
2514013850 0.886658 -0.132276
2516977180 0.881604 -0.130166
2519940510 0.87254 -0.133701
2522903840 0.872241 -0.128524
2525867170 0.881137 -0.12417
2528830500 0.884286 -0.130293
2531793830 0.887401 -0.142711
2534757160 0.890531 -0.14657
2537720490 0.890994 -0.13868
2540683820 0.892506 -0.145019
2543647150 0.889864 -0.141742
2546610480 0.881857 -0.146906
2549573810 0.87841 -0.141646
2552537140 0.874148 -0.143715
2555500470 0.878226 -0.147775
2558463800 0.887841 -0.140054
2561427130 0.89096 -0.143047
2564390460 0.888806 -0.149543
2567353790 0.890177 -0.145253
2570317120 0.892202 -0.150304
2573280450 0.88205 -0.149553
2576243780 0.879678 -0.143145
2579207110 0.876784 -0.144211
2582170440 0.869029 -0.140288
2585133770 0.880167 -0.142674
2588097100 0.885312 -0.148007
2591060430 0.881626 -0.147046
2594023760 0.882891 -0.145553
2596987090 0.88458 -0.144378
2599950420 0.880521 -0.150171
2602913750 0.881204 -0.140881
2605877080 0.875275 -0.144562
2608840410 0.871163 -0.144497
2611803740 0.863381 -0.143579
2614767070 0.874555 -0.141507
2617730400 0.874035 -0.148352
2620693730 0.872954 -0.148348
2623657060 0.883123 -0.153299
2626620390 0.879376 -0.1536
2629583720 0.874077 -0.153096
2632547050 0.876487 -0.150138
2635510380 0.875458 -0.146309
2638473710 0.864614 -0.151456
2641437040 0.861007 -0.147819
2644400370 0.863019 -0.152269
2647363700 0.866574 -0.157002
2650327030 0.869225 -0.152068
2653290360 0.877056 -0.15843
2656253690 0.872522 -0.146702
2659217020 0.880632 -0.150936
2662180350 0.870707 -0.150242
2665143680 0.868405 -0.143933
2668107010 0.864581 -0.149661
2671070340 0.853772 -0.153794
2674033670 0.866805 -0.154872
2676997000 0.872958 -0.147344
2679960330 0.8727 -0.157237
2682923660 0.870714 -0.155927
2685886990 0.877237 -0.155236
2688850320 0.88641 -0.147803
2691813650 0.864169 -0.154527
2694776980 0.874201 -0.154681
2697740310 0.878512 -0.147971
2700703640 0.868493 -0.153882
2703666970 0.874406 -0.156433
2706630300 0.873054 -0.148558
2709593630 0.886085 -0.155561
2712556960 0.890087 -0.152476
2715520290 0.883863 -0.154588
2718483620 0.895355 -0.148489
2721446950 0.8864 -0.151307
2724410280 0.882416 -0.144759
2727373610 0.877668 -0.159003
2730336940 0.86666 -0.155473
2733300270 0.879896 -0.147388
2736263600 0.880617 -0.151786
2739226930 0.880427 -0.145383
2742190260 0.820533 -0.195145
2745153590 0.879848 -0.143468
2748116920 0.879063 -0.149613
2751080250 0.878029 -0.14921
2754043580 0.875917 -0.149672
2757006910 0.869849 -0.150771
2759970240 0.854792 -0.152709
2762933570 0.868673 -0.155683
2765896900 0.865611 -0.153218
2768860230 0.877134 -0.154078
2771823560 0.876986 -0.152808
2774786890 0.871003 -0.164419
2777750220 0.882918 -0.154496
2780713550 0.876736 -0.162414
2783676880 0.872294 -0.164446
2786640210 0.860739 -0.162653
2789603540 0.858454 -0.166908
2792566870 0.872812 -0.157396
2795530200 0.865716 -0.177421
2798493530 0.871597 -0.173188
2801456860 0.879067 -0.173455
2804420190 0.87711 -0.172108
2807383520 0.876932 -0.173736
2810346850 0.88302 -0.159427
2813310180 0.873278 -0.163743
2816273510 0.874218 -0.164046
2819236840 0.871635 -0.153179
2822200170 0.861191 -0.173744
2825163500 0.872863 -0.167115
2828126830 0.872442 -0.198955
2831090160 0.871413 -0.171975
2834053490 0.889356 -0.186333
2837016820 0.900454 -0.170123
2839980150 0.891795 -0.172491
2842943480 0.880613 -0.159833
2845906810 0.885328 -0.154027
2848870140 0.882335 -0.147288
2851833470 0.875671 -0.153109
2854796800 0.885453 -0.167017
2857760130 0.879975 -0.147211
2860723460 0.891662 -0.164115
2863686790 0.893011 -0.17373
2866650120 0.882274 -0.154975
2869613450 0.876229 -0.161657
2872576780 0.890342 -0.156198
2875540110 0.88131 -0.168104
2878503440 0.875043 -0.159914
2881466770 0.863173 -0.168204
2884430100 0.876321 -0.170392
2887393430 0.873512 -0.169352
2890356760 0.885293 -0.178228
2893320090 0.880934 -0.178685
2896283420 0.873284 -0.168812
2899246750 0.877867 -0.166712
2902210080 0.876306 -0.160679
2905173410 0.86757 -0.172989
2908136740 0.866509 -0.172644
2911100070 0.859749 -0.16247
2914063400 0.866992 -0.161444
2917026730 0.866139 -0.162382
2919990060 0.878563 -0.170909
2922953390 0.871859 -0.164917
2925916720 0.873873 -0.16617
2928880050 0.873363 -0.175768
2931843380 0.872927 -0.169631
2934806710 0.866395 -0.171502
2937770040 0.860822 -0.157506
2940733370 0.854902 -0.151896
2943696700 0.860314 -0.161838
2946660030 0.859506 -0.162164
2949623360 0.86762 -0.16267
2952586690 0.86694 -0.160554
2955550020 0.864679 -0.168042
2958513350 0.872622 -0.164307
2961476680 0.862003 -0.167544
2964440010 0.85921 -0.160025
2967403340 0.857442 -0.153277
2970366670 0.849992 -0.159289
2973330000 0.859583 -0.162225
2976293330 0.863467 -0.160651
2979256660 0.8638 -0.161522
2982219990 0.864147 -0.159263
2985183320 0.866195 -0.160034
2988146650 0.866519 -0.16182
2991109980 0.863978 -0.158293
2994073310 0.85951 -0.156679
2997036640 0.856613 -0.148024
2999999970 0.850031 -0.141485
