# HZ S RI R 50
10000000 0.9998196666666666 -0.0008816666666666666
11480931 1.000807 -0.0017036666666666667
12961862 1.0022416666666665 -0.0034766666666666665
14442793 1.004379 -0.004779333333333333
15923724 1.0068973333333333 -0.006216333333333332
17404655 1.0091836666666665 -0.007339
18885586 1.0122756666666666 -0.007757666666666667
20366517 1.0144149999999998 -0.009100666666666667
21847448 1.0153263333333333 -0.009943666666666667
23328379 1.0168373333333331 -0.010026
24809310 1.016667 -0.009635333333333333
26290241 1.0174076666666667 -0.009202
27771172 1.017496 -0.009151333333333334
29252103 1.0167413333333333 -0.008760333333333332
30733034 1.015383 -0.008186666666666665
32213965 1.0193696666666665 0.008669333333333334
33694896 1.0168656666666667 0.009745666666666666
35175827 1.013089 0.03255333333333333
36656758 1.0117066666666665 -0.0006790000000000001
38137689 1.0076886666666667 0.012713333333333333
39618620 1.0029333333333332 0.012895333333333332
41099551 1.0060026666666666 0.021102
42580482 1.010631 0.009375999999999999
44061413 1.0140113333333334 -0.01313033333333333
45542344 1.0159323333333332 0.021302
47023275 1.0191949999999999 0.00702
48504206 1.0204906666666667 0.03703133333333333
49985137 1.0226989999999998 0.017346
51466068 1.0250856666666666 0.005888999999999999
52946999 1.0263033333333333 -0.0035186666666666665
54427930 1.025951 0.005528333333333333
55908861 1.0262879999999999 0.005665666666666668
57389792 1.0293606666666666 0.025079666666666667
58870723 1.021741 -0.031245666666666665
60351654 1.0192776666666667 -0.010135666666666666
61832585 1.0177963333333333 -0.009579999999999998
63313516 1.0147663333333332 -0.011788999999999997
64794447 1.0123829999999998 -0.008035333333333332
66275378 1.0087026666666665 -0.046341999999999994
67756309 1.0048133333333331 -0.057131666666666664
69237240 1.0000153333333333 -0.006817
70718171 1.001086 0.02177
72199102 1.003809 -0.07855933333333333
73680033 1.0075993333333333 -0.009892999999999999
75160964 1.0066006666666667 0.062524
76641895 1.0133686666666666 -0.011568666666666666
78122826 1.0145983333333333 -0.012952666666666664
79603757 1.0141056666666666 0.05796866666666667
81084688 1.0080416666666667 0.12114966666666667
82565619 1.0186476666666666 -0.012494
84046550 1.0196933333333331 -0.012117
85527481 1.0190606666666666 -0.044608666666666665
87008412 1.018934 -0.011964666666666665
88489343 1.0183893333333334 -0.034659666666666665
89970274 1.0177243333333332 -0.029965333333333333
91451205 1.0157043333333333 -0.010962
92932136 1.0142006666666665 -0.019187666666666665
94413067 1.011189 0.005017666666666667
95893998 1.0086279999999999 -0.009791
97374929 1.0050946666666667 -0.004690999999999999
98855860 1.0009956666666666 -0.009717
100336791 1.0012613333333333 -0.009403666666666666
101817722 1.0042006666666667 -0.011170666666666666
103298653 1.0072273333333333 -0.011819
104779584 1.0092193333333332 -0.011821333333333331
106260515 1.0115593333333333 -0.013342333333333333
107741446 1.0132156666666665 -0.013342
109222377 1.0149806666666665 -0.013785
110703308 1.0163796666666665 -0.012989999999999998
112184239 1.017143 -0.013739999999999999
113665170 1.0181536666666666 -0.013282333333333333
115146101 1.0174093333333334 -0.012794666666666666
116627032 1.017712 -0.012310999999999999
118107963 1.0164236666666666 -0.012473333333333333
119588894 1.015879 -0.012351333333333334
121069825 1.014255 -0.011534666666666665
122550756 1.0122799999999998 -0.011171
124031687 1.0095036666666666 -0.011325666666666666
125512618 1.0067993333333334 -0.010904666666666667
126993549 1.0038646666666668 -0.010832999999999999
128474480 1.0007899999999998 -0.011441666666666666
129955411 0.9988313333333334 -0.011394999999999999
131436342 1.003032333333333 -0.010490000000000001
132917273 1.0073993333333333 -0.01110433333333333
134398204 1.0110566666666667 -0.01151
135879135 1.001272 -0.02370766666666666
137360066 1.0039943333333334 -0.024097666666666663
138840997 1.0058603333333331 -0.023202
140321928 1.0085396666666666 -0.023296333333333336
141802859 1.0098233333333333 -0.022495666666666664
143283790 1.0114826666666665 -0.022220999999999998
144764721 1.012163 -0.02066133333333333
146245652 1.0129029999999999 -0.020420333333333332
147726583 1.013053 -0.019296666666666663
149207514 1.0131636666666668 -0.018473666666666666
150688445 1.0121106666666666 -0.017739333333333333
152169376 1.0106083333333333 -0.016889666666666664
153650307 1.0100653333333334 -0.015815666666666665
155131238 1.0071919999999999 -0.014942666666666668
156612169 1.0049456666666665 -0.014217666666666665
158093100 1.0012573333333332 -0.013326
159574031 0.99876 -0.013235333333333332
161054962 1.0024083333333333 -0.014112
162535893 1.00584 -0.013787333333333332
164016824 1.0079926666666665 -0.014044666666666665
165497755 1.0116916666666667 -0.014055666666666664
166978686 1.0135536666666667 -0.01447
168459617 1.0147323333333333 -0.013885999999999999
169940548 1.0161186666666666 -0.013186666666666666
171421479 1.0169030000000001 -0.013599
172902410 1.0175933333333331 -0.014365333333333334
174383341 1.017051333333333 -0.013488
175864272 1.0173619999999999 -0.012684
177345203 1.0157293333333333 -0.012053999999999999
178826134 1.0155626666666666 -0.013028333333333333
180307065 1.0141486666666666 -0.013107999999999998
181787996 1.010593 -0.01948333333333333
183268927 1.0123483333333332 -0.0007853333333333323
184749858 1.0093509999999999 -0.0009260000000000008
186230789 1.0072203333333332 -0.0012713333333333337
187711720 1.0033976666666664 -0.001966666666666666
189192651 0.9998993333333333 -0.002938333333333333
190673582 1.0026859999999997 -0.0020463333333333327
192154513 1.006549 -0.003441999999999998
193635444 1.0419006666666668 0.026214
195116375 1.0130623333333333 -0.0024639999999999996
196597306 1.0152613333333333 -0.0025146666666666672
198078237 1.0173303333333332 -0.0025266666666666666
199559168 1.0188359999999999 -0.0017056666666666665
201040099 1.019978333333333 -0.0022756666666666663
202521030 1.0208986666666666 -0.0014760000000000003
204001961 1.0204459999999997 -0.0016579999999999998
205482892 1.0215613333333333 0.004998333333333334
206963823 1.0235560000000001 0.012037
208444754 1.0170383333333333 -0.007431666666666666
209925685 1.0151733333333333 -0.01344
211406616 1.0141909999999998 -0.0075836666666666665
212887547 1.0102203333333333 -0.020717
214368478 1.0084259999999998 -0.007795333333333332
215849409 1.0047323333333331 -0.020863666666666662
217330340 1.0023893333333334 -0.009191
218811271 0.9974469999999999 -0.022998666666666667
220292202 1.0004836666666668 -0.010583333333333333
221773133 1.0025596666666665 -0.021875333333333333
223254064 1.0080576666666667 -0.010549
224734995 1.0086083333333333 -0.022906666666666665
226215926 1.0143756666666666 -0.009779
227696857 1.0139003333333332 -0.022431999999999997
229177788 1.0184636666666664 -0.009073666666666667
230658719 1.0168583333333334 -0.02149733333333333
232139650 1.0233926666666666 0.0036503333333333353
233620581 1.0174856666666667 -0.027602666666666664
235101512 1.020384 -0.008965666666666665
236582443 1.01697 -0.021765666666666662
238063374 1.0180306666666665 -0.008907
239544305 1.0154856666666665 -0.020694666666666667
241025236 1.0147123333333332 -0.008894333333333332
242506167 1.0108083333333333 -0.022143333333333334
243987098 1.0094119999999998 -0.010063666666666665
245468029 1.004613 -0.02259333333333333
246948960 1.0034596666666666 -0.010752
248429891 0.996432 -0.024642666666666663
249910822 0.999131 -0.013132333333333333
251391753 1.0017613333333333 -0.025669666666666664
252872684 1.0081993333333332 -0.007679333333333334
254353615 1.009849 -0.019463666666666664
255834546 1.0130023333333331 -0.019715
257315477 1.015668 -0.019006666666666665
258796408 1.01809 -0.018889666666666666
260277339 1.0189026666666667 -0.018355333333333335
261758270 1.0205143333333333 -0.018486666666666665
263239201 1.0208343333333332 -0.01713
264720132 1.0205156666666666 -0.018016666666666667
266201063 1.0206973333333331 -0.017967999999999998
267681994 1.019125 -0.01743566666666667
269162925 1.0184220000000002 -0.016951666666666667
270643856 1.0153873333333334 -0.017806999999999996
272124787 1.013192 -0.01804333333333333
273605718 1.011042 -0.01798633333333333
275086649 1.0074539999999998 -0.018649666666666665
276567580 1.002808 -0.019619333333333336
278048511 0.9987333333333333 -0.020583666666666667
279529442 0.9970613333333334 -0.021751333333333334
281010373 1.0022826666666664 -0.021783666666666663
282491304 1.0058880000000001 -0.021191999999999996
283972235 1.010796 -0.021384666666666666
285453166 1.0132439999999998 -0.021705333333333333
286934097 1.016753 -0.021376999999999997
288415028 1.018321 -0.020870666666666666
289895959 1.0196129999999999 -0.02090433333333333
291376890 1.0208329999999999 -0.01993433333333333
292857821 1.0213806666666667 -0.020181333333333332
294338752 1.0213243333333333 -0.019768
295819683 1.0210003333333333 -0.01874633333333333
297300614 1.019888 -0.018647
298781545 1.0179223333333334 -0.018735
300262476 1.016013 -0.019830666666666667
301743407 1.0126926666666667 -0.018798000000000002
303224338 1.010027 -0.019638
304705269 1.0056106666666667 -0.018645333333333333
306186200 1.0017663333333333 -0.020136666666666664
307667131 0.9972840000000001 -0.020586999999999998
309148062 0.993589 -0.022092333333333332
310628993 0.9981076666666666 -0.023389333333333335
312109924 1.0026706666666665 -0.023429333333333333
313590855 1.0061099999999998 -0.024881
315071786 1.0104739999999999 -0.024222333333333332
316552717 1.013495 -0.023862666666666664
318033648 1.016379 -0.026000333333333334
319514579 1.0174436666666666 -0.023968666666666666
320995510 1.019368 -0.025463666666666666
322476441 1.0199306666666665 -0.024577333333333333
323957372 1.0196889999999998 -0.02356633333333333
325438303 1.0191510000000001 -0.024513666666666663
326919234 1.0195826666666665 -0.023627
328400165 1.0171533333333331 -0.023669
329881096 1.0154799999999997 -0.02446333333333333
331362027 1.0141173333333333 -0.022551666666666664
332842958 1.0134006666666666 -0.011534666666666665
334323889 1.0078873333333334 -0.023872666666666667
335804820 1.0042483333333334 -0.02454766666666667
337285751 0.9999093333333333 -0.024161666666666665
338766682 0.9940676666666667 -0.024905666666666666
340247613 0.9987703333333333 -0.038218
341728544 1.0033923333333332 -0.026767333333333337
343209475 1.0055596666666666 -0.033248999999999994
344690406 1.0098536666666666 -0.027978333333333334
346171337 1.0130753333333333 -0.028319999999999998
347652268 1.0156709999999998 -0.029309666666666664
349133199 1.0172833333333333 -0.028862
350614130 1.0184229999999999 -0.027555666666666666
352095061 1.0196533333333333 -0.028255666666666665
353575992 1.0196846666666666 -0.026674666666666666
355056923 1.0200493333333331 -0.02749333333333333
356537854 1.020484333333333 -0.027338
358018785 1.0175913333333333 -0.026993666666666666
359499716 1.0160539999999998 -0.025984666666666663
360980647 1.0135696666666667 -0.025977666666666666
362461578 1.0105743333333332 -0.026237333333333335
363942509 1.006916 -0.026011999999999997
365423440 1.0033733333333332 -0.026397333333333335
366904371 0.9993136666666667 -0.026310666666666666
368385302 0.9947603333333334 -0.028074
369866233 0.996014 -0.028382333333333332
371347164 1.0002393333333333 -0.028596333333333335
372828095 1.0034173333333332 -0.029137333333333328
374309026 1.0084553333333333 -0.030752666666666664
375789957 1.0110586666666666 -0.030894333333333333
377270888 1.0133026666666667 -0.031243333333333335
378751819 1.014767 -0.031
380232750 1.0157566666666666 -0.037470666666666666
381713681 1.0184896666666665 -0.03129966666666667
383194612 1.0175663333333331 -0.03697333333333333
384675543 1.0181086666666666 -0.030699666666666667
386156474 1.0160813333333332 -0.035932
387637405 1.0169956666666666 -0.029183666666666663
389118336 1.014527 -0.035594333333333325
390599267 1.0130846666666666 -0.02926833333333333
392080198 1.009068 -0.034025
393561129 1.0066689999999998 -0.02879333333333333
395042060 1.0017943333333332 -0.03413033333333333
396522991 0.9981783333333333 -0.035526999999999996
398003922 0.9946873333333334 -0.029990000000000003
399484853 0.9941516666666665 -0.03585066666666667
400965784 0.9992916666666667 -0.03172833333333333
402446715 1.002548 -0.037049
403927646 1.0069353333333333 -0.03205466666666666
405408577 1.0082313333333333 -0.039816
406889508 1.0118266666666664 -0.03261133333333333
408370439 1.012606 -0.039353
409851370 1.015035 -0.03258733333333333
411332301 1.0156246666666666 -0.038823333333333335
412813232 1.0163193333333331 -0.031933666666666666
414294163 1.0157169999999998 -0.037780999999999995
415775094 1.0167463333333333 -0.031754
417256025 1.0152843333333332 -0.03774733333333333
418736956 1.014022 -0.029920000000000002
420217887 1.0118843333333332 -0.029325666666666667
421698818 1.0104600000000001 -0.02946033333333333
423179749 1.007714 -0.028721999999999998
424660680 1.0030433333333333 -0.028759333333333335
426141611 0.9997603333333333 -0.027376
427622542 0.9950196666666666 -0.028190333333333335
429103473 0.99363 -0.02900033333333333
430584404 0.9980763333333332 -0.030119
432065335 1.0001863333333332 -0.030507333333333334
433546266 1.0040719999999999 -0.031435
435027197 1.0065153333333332 -0.031494999999999995
436508128 1.0094819999999998 -0.031237999999999995
437989059 1.0102783333333332 -0.03228933333333334
439469990 1.0121596666666666 -0.032299999999999995
440950921 1.0133296666666665 -0.032454333333333335
442431852 1.012746 -0.031806
443912783 1.01466 -0.03259533333333334
445393714 1.0134836666666667 -0.03160433333333333
446874645 1.0123273333333334 -0.03084733333333333
448355576 1.010406 -0.030567999999999998
449836507 1.0096206666666667 -0.030990666666666666
451317438 1.0060403333333334 -0.030376
452798369 1.0055323333333333 -0.02940533333333333
454279300 1.0009466666666667 -0.029371666666666664
455760231 0.9969033333333333 -0.030260666666666665
457241162 0.994548 -0.029804999999999998
458722093 0.9884363333333333 -0.034902999999999997
460203024 0.9923126666666666 -0.03131133333333333
461683955 0.9955103333333334 -0.038845
463164886 0.9994546666666666 -0.031648666666666665
464645817 1.0017466666666666 -0.040689
466126748 1.0035463333333332 -0.039230999999999995
467607679 1.0055889999999998 -0.039667999999999995
469088610 1.0076589999999999 -0.03507233333333333
470569541 1.0082496666666665 -0.039286333333333326
472050472 1.0108736666666664 -0.02757133333333333
473531403 1.0083846666666665 -0.039736666666666656
475012334 1.0091269999999999 -0.033786
476493265 1.0077673333333332 -0.039132
477974196 1.0070456666666665 -0.033287
479455127 1.0045206666666666 -0.033543666666666666
480936058 1.003131 -0.03283966666666667
482416989 0.9999553333333333 -0.03213866666666666
483897920 0.9968383333333334 -0.03221433333333333
485378851 0.9934406666666666 -0.03369
486859782 0.9896503333333333 -0.03382233333333333
488340713 0.9854229999999999 -0.03334266666666666
489821644 1.0270953333333332 -0.009267333333333332
491302575 0.9928986666666667 -0.036185666666666665
492783506 0.997111 -0.034596333333333326
494264437 0.9997729999999999 -0.036692
495745368 1.0020906666666667 -0.03683566666666666
497226299 1.0048533333333332 -0.035221
498707230 1.0072173333333332 -0.03514933333333334
500188161 1.0084493333333333 -0.035463999999999996
501669092 1.0096386666666668 -0.03577933333333333
503150023 1.0090026666666667 -0.033237666666666665
504630954 1.0104606666666667 -0.03335666666666666
506111885 1.0093946666666667 -0.03311066666666666
507592816 1.0080503333333333 -0.031723999999999995
509073747 1.0058726666666664 -0.030919333333333333
510554678 1.005871 -0.03175
512035609 1.0025753333333334 -0.031945
513516540 1.000597 -0.03165
514997471 0.9973479999999999 -0.03125733333333333
516478402 0.993733 -0.03005933333333333
517959333 0.9891806666666666 -0.033179999999999994
519440264 0.9916976666666667 -0.031379
520921195 0.9958906666666666 -0.032256999999999994
522402126 0.999528 -0.033241
523883057 1.0017573333333334 -0.034228999999999996
525363988 1.004098 -0.033888666666666664
526844919 1.0069833333333333 -0.03336666666666667
528325850 1.0083346666666666 -0.034227999999999995
529806781 1.0098639999999999 -0.035055333333333334
531287712 1.0103369999999998 -0.03491966666666667
532768643 1.0103296666666666 -0.03331733333333334
534249574 1.0102949999999997 -0.03338733333333333
535730505 1.0104026666666666 -0.03285866666666666
537211436 1.0088229999999998 -0.032519
538692367 1.0076729999999998 -0.03491366666666666
540173298 1.0059133333333332 -0.031083666666666666
541654229 1.003059 -0.03330133333333333
543135160 0.9995333333333332 -0.033982
544616091 0.9974596666666666 -0.032676333333333335
546097022 0.9938286666666667 -0.035043
547577953 0.9896119999999999 -0.03478933333333333
549058884 0.9905046666666666 -0.03453333333333333
550539815 0.9939966666666666 -0.034527
552020746 0.9982993333333333 -0.03771366666666666
553501677 1.0009263333333331 -0.03693133333333333
554982608 1.0039319999999998 -0.03684433333333333
556463539 1.0068963333333332 -0.03552466666666666
557944470 1.0097826666666667 -0.037328
559425401 1.0096473333333331 -0.036810666666666665
560906332 1.0115076666666667 -0.03625266666666667
562387263 1.0122193333333334 -0.035761999999999995
563868194 1.0126696666666666 -0.03503066666666666
565349125 1.0115243333333332 -0.03439966666666666
566830056 1.0117303333333334 -0.035431
568310987 1.010271 -0.03462166666666667
569791918 1.0072709999999998 -0.03357466666666667
571272849 1.0063983333333333 -0.034536
572753780 1.0024993333333332 -0.03395066666666667
574234711 0.9988376666666665 -0.033715333333333326
575715642 0.9950096666666666 -0.034812333333333334
577196573 0.9915643333333334 -0.035768
578677504 0.9888529999999999 -0.035055666666666666
580158435 0.994633 -0.03565
581639366 0.9974793333333333 -0.036755333333333334
583120297 1.0024123333333332 -0.036858666666666665
584601228 1.0035763333333332 -0.038115333333333334
586082159 1.007772 -0.037238999999999994
587563090 1.009831333333333 -0.03737
589044021 1.0120073333333333 -0.03772333333333333
590524952 1.0122929999999999 -0.03653033333333333
592005883 1.013211 -0.036999333333333335
593486814 1.0124153333333332 -0.03794866666666666
594967745 1.0118053333333332 -0.036844666666666664
596448676 1.0116856666666667 -0.03579033333333333
597929607 1.0108639999999998 -0.03736299999999999
599410538 1.0080796666666667 -0.035198999999999994
600891469 1.005672 -0.037676999999999995
602372400 1.0019273333333332 -0.037106
603853331 0.9984359999999999 -0.03594633333333333
605334262 0.9944853333333334 -0.03471733333333333
606815193 0.9899123333333333 -0.036505666666666665
608296124 0.986243 -0.03794499999999999
609777055 0.991694 -0.038174
611257986 0.9964043333333332 -0.038748
612738917 0.9985593333333332 -0.040212
614219848 1.0040926666666667 -0.039194999999999994
615700779 1.0055576666666666 -0.04007066666666667
617181710 1.0073793333333332 -0.03980266666666667
618662641 1.0108106666666665 -0.04033866666666666
620143572 1.0113063333333332 -0.03902933333333333
621624503 1.0121153333333333 -0.04058766666666666
623105434 1.0122043333333333 -0.038521
624586365 1.0118006666666668 -0.039161
626067296 1.0113896666666666 -0.038614333333333334
627548227 1.0111336666666668 -0.03830499999999999
629029158 0.9639773333333334 -0.05040766666666666
630510089 1.0050956666666666 -0.037488999999999995
631991020 1.0028289999999997 -0.036082666666666666
633471951 0.9996836666666666 -0.035898
634952882 0.9953786666666666 -0.03613833333333333
636433813 0.9923353333333332 -0.03555766666666666
637914744 0.9872943333333334 -0.03671333333333333
639395675 0.9907803333333334 -0.03724966666666667
640876606 0.9955396666666667 -0.037698666666666665
642357537 0.9989753333333333 -0.038371666666666665
643838468 1.002144333333333 -0.04022066666666667
645319399 1.0050576666666666 -0.041375333333333326
646800330 1.0074299999999998 -0.040193
648281261 1.010012333333333 -0.04021333333333333
649762192 1.0107923333333333 -0.03959866666666666
651243123 1.0116396666666665 -0.040903666666666665
652724054 1.01256 -0.039734
654204985 1.0123836666666666 -0.038843666666666665
655685916 1.0112766666666666 -0.03905033333333333
657166847 1.0107063333333333 -0.038620999999999996
658647778 1.0086826666666666 -0.038425666666666664
660128709 1.0064436666666667 -0.039176666666666665
661609640 1.0036116666666666 -0.037094999999999996
663090571 0.9994143333333334 -0.03851233333333333
664571502 0.9964729999999999 -0.036155999999999994
666052433 0.9920386666666667 -0.035764
667533364 0.9881759999999999 -0.03724566666666666
669014295 0.9910036666666666 -0.03953166666666666
670495226 0.9953766666666667 -0.039737999999999996
671976157 0.9976333333333334 -0.039577333333333325
673457088 1.0012886666666667 -0.04077833333333333
674938019 1.0037556666666667 -0.041886999999999994
676418950 1.005558 -0.04213399999999999
677899881 1.0094863333333333 -0.04182366666666666
679380812 1.0101149999999999 -0.041014
680861743 1.0109996666666667 -0.042703
682342674 1.0104229999999998 -0.042312666666666665
683823605 1.012049 -0.042288
685304536 1.0103106666666666 -0.040944666666666664
686785467 1.010608 -0.040140999999999996
688266398 1.0087256666666666 -0.04035066666666666
689747329 1.0060446666666665 -0.04004866666666666
691228260 1.0036539999999998 -0.037808999999999995
692709191 1.0005626666666665 -0.03935966666666667
694190122 0.9974 -0.038488666666666664
695671053 0.9930589999999999 -0.03934966666666666
697151984 0.9884279999999999 -0.037080666666666665
698632915 0.9883906666666666 -0.03868666666666666
700113846 0.9931299999999998 -0.041099
701594777 0.9959896666666667 -0.041972999999999996
703075708 0.9999353333333333 -0.041750999999999996
704556639 1.0022456666666666 -0.040917999999999996
706037570 1.0058399999999998 -0.04017133333333334
707518501 1.006309 -0.04225366666666667
708999432 1.0057643333333333 -0.04413366666666666
710480363 1.0086829999999998 -0.041916666666666665
711961294 1.010114 -0.044220333333333334
713442225 1.0092576666666666 -0.04075933333333333
714923156 1.0075233333333333 -0.04327333333333334
716404087 1.0077099999999999 -0.03999
717885018 1.0061383333333334 -0.04203166666666666
719365949 1.005326 -0.03997866666666666
720846880 1.0005536666666663 -0.042596999999999996
722327811 0.9989586666666668 -0.039635333333333335
723808742 0.9959103333333333 -0.04064266666666667
725289673 0.9919859999999999 -0.03991733333333333
726770604 0.9874999999999999 -0.03842466666666666
728251535 0.9873136666666666 -0.03971999999999999
729732466 0.9907096666666667 -0.040567
731213397 0.9941946666666667 -0.041957333333333326
732694328 0.996931 -0.041001666666666665
734175259 0.99996 -0.042757666666666666
735656190 1.0022843333333333 -0.04221799999999999
737137121 1.0045746666666666 -0.04262733333333333
738618052 1.0040446666666667 -0.04257166666666666
740098983 1.0062426666666666 -0.043007
741579914 1.0064343333333332 -0.04256633333333333
743060845 1.0072196666666666 -0.04100833333333333
744541776 1.0081493333333333 -0.04009433333333333
746022707 1.0056023333333333 -0.043214333333333334
747503638 1.0043053333333332 -0.040427
748984569 1.0019719999999999 -0.04108266666666667
750465500 1.0009443333333332 -0.03996933333333333
751946431 0.9966463333333333 -0.040557333333333334
753427362 0.994718 -0.03878966666666667
754908293 0.9903586666666666 -0.041157
756389224 0.9861429999999999 -0.038984000000000005
757870155 0.9840386666666667 -0.03965433333333333
759351086 0.988048 -0.04000366666666666
760832017 0.9912319999999999 -0.041911333333333335
762312948 0.9954363333333333 -0.039228
763793879 0.9978063333333334 -0.04056099999999999
765274810 1.0002146666666665 -0.041658999999999995
766755741 1.0008659999999998 -0.04154033333333333
768236672 1.0035099999999997 -0.040787000000000004
769717603 1.0045586666666666 -0.043012999999999996
771198534 1.005944 -0.04122766666666666
772679465 1.005414 -0.039829
774160396 1.0059203333333333 -0.04079833333333333
775641327 1.0058576666666665 -0.03716799999999999
777122258 1.003998333333333 -0.03887866666666667
778603189 0.9974246666666665 -0.048117
780084120 1.0001713333333333 -0.03591899999999999
781565051 0.9974766666666667 -0.038314
783045982 0.9943223333333333 -0.03815733333333333
784526913 0.9917776666666667 -0.030586000000000002
786007844 0.9884073333333332 -0.03149233333333333
787488775 0.9863719999999999 -0.030906999999999997
788969706 0.9899079999999999 -0.03129333333333333
790450637 0.992444 -0.0334
791931568 0.9958866666666666 -0.033422999999999994
793412499 0.998836 -0.03355166666666666
794893430 1.0015176666666665 -0.03429233333333333
796374361 1.0035729999999998 -0.03294366666666666
797855292 1.0036143333333332 -0.034983
799336223 1.0048373333333331 -0.034568333333333326
800817154 1.0045476666666666 -0.034957333333333326
802298085 1.00936 -0.022756
803779016 1.0053109999999998 -0.035115999999999994
805259947 1.0035883333333333 -0.03561433333333333
806740878 1.001796 -0.044419333333333325
808221809 1.0026203333333332 -0.03343866666666666
809702740 0.9972420000000001 -0.04555033333333334
811183671 0.9967686666666667 -0.03431766666666666
812664602 0.992459 -0.04661
814145533 0.9910666666666665 -0.034382333333333334
815626464 0.9846333333333332 -0.047079333333333334
817107395 0.9820880000000001 -0.03633366666666666
818588326 0.9818556666666667 -0.04819866666666667
820069257 0.9892063333333333 -0.037592
821550188 0.9906459999999999 -0.05011233333333333
823031119 0.9965096666666666 -0.038881
824512050 0.9966869999999999 -0.047988666666666666
825992981 1.00149 -0.037034333333333336
827473912 0.9998856666666667 -0.049568666666666664
828954843 1.0055749999999999 -0.031898333333333334
830435774 1.0020003333333334 -0.047034
831916705 1.0033446666666666 -0.045673
833397636 1.0025746666666668 -0.04453066666666666
834878567 1.0031906666666668 -0.04479266666666666
836359498 1.001882 -0.04388
837840429 1.0003083333333331 -0.042888333333333334
839321360 0.9975856666666667 -0.044146
840802291 0.9955033333333333 -0.042941999999999994
842283222 0.9913266666666667 -0.04235800000000001
843764153 0.9886773333333334 -0.044503666666666664
845245084 0.9843716666666666 -0.043125000000000004
846726015 0.9800093333333333 -0.046410999999999994
848206946 0.9828296666666666 -0.04518133333333333
849687877 0.9870226666666666 -0.04743900000000001
851168808 0.989979 -0.04878533333333333
852649739 0.99308 -0.04806833333333333
854130670 0.9962579999999999 -0.04790066666666666
855611601 0.9984593333333334 -0.04950833333333333
857092532 1.0010876666666666 -0.04856466666666667
858573463 1.0019096666666667 -0.04998866666666666
860054394 1.003086 -0.05006333333333333
861535325 1.0043663333333335 -0.049051
863016256 1.0028723333333334 -0.048440333333333335
864497187 1.0034906666666665 -0.04921199999999999
865978118 1.002337 -0.04807666666666666
867459049 1.000813 -0.04862033333333333
868939980 0.9989349999999999 -0.048877666666666666
870420911 0.9960559999999999 -0.04998933333333333
871901842 0.9933656666666666 -0.048163333333333336
873382773 0.9893713333333333 -0.04913833333333334
874863704 0.9856893333333333 -0.047140666666666664
876344635 0.9815213333333334 -0.049557
877825566 0.9809056666666667 -0.04925366666666667
879306497 0.9857469999999999 -0.05066966666666667
880787428 0.9893236666666666 -0.051358666666666664
882268359 0.9935843333333333 -0.05317266666666666
883749290 0.9964529999999999 -0.053906333333333334
885230221 0.9980140000000001 -0.05485466666666666
886711152 1.0007916666666665 -0.053907666666666666
888192083 1.0031986666666666 -0.05484366666666666
889673014 1.0048839999999999 -0.05529133333333333
891153945 1.005826 -0.05404833333333332
892634876 1.0053833333333333 -0.052030333333333324
894115807 1.0059366666666665 -0.05432033333333333
895596738 1.0048673333333333 -0.053353
897077669 1.0032393333333331 -0.053827999999999994
898558600 1.0002606666666667 -0.052911
900039531 0.9987736666666667 -0.05269166666666667
901520462 0.9957766666666666 -0.05050133333333333
903001393 0.9926233333333334 -0.051192666666666664
904482324 0.9889436666666667 -0.052414999999999996
905963255 0.9839689999999999 -0.049859
907444186 0.9814716666666667 -0.053561
908925117 0.9861786666666666 -0.05216366666666667
910406048 0.989938 -0.054647666666666664
911886979 0.9941356666666668 -0.05486466666666667
913367910 0.994267 -0.05657666666666667
914848841 0.9991783333333333 -0.056468
916329772 1.001502 -0.05519266666666667
917810703 1.0029896666666667 -0.05307766666666667
919291634 1.004816 -0.05608933333333333
920772565 1.0049453333333331 -0.05301633333333333
922253496 1.0047123333333332 -0.054339
923734427 1.0038906666666665 -0.051739999999999994
925215358 1.0036006666666666 -0.05022066666666666
926696289 1.0028013333333332 -0.051408999999999996
928177220 0.9865726666666667 -0.07017366666666666
929658151 0.9979299999999999 -0.050041
931139082 0.9939666666666667 -0.049111666666666665
932620013 0.9903663333333333 -0.04752000000000001
934100944 0.9867203333333332 -0.04506866666666666
935581875 0.9815276666666667 -0.04591733333333334
937062806 0.9773283333333334 -0.046222
938543737 0.9813433333333333 -0.04862133333333333
940024668 0.9892399999999999 -0.03852766666666667
941505599 0.9935743333333333 -0.039857333333333335
942986530 0.9948796666666666 -0.04312466666666666
944467461 0.9978776666666667 -0.043532666666666664
945948392 0.999218 -0.041752333333333336
947429323 1.0010766666666666 -0.044087666666666664
948910254 1.0039326666666666 -0.03960266666666666
950391185 1.0035676666666666 -0.04371033333333333
951872116 1.0039083333333332 -0.043412000000000006
953353047 1.0042036666666665 -0.04518833333333333
954833978 1.006823 -0.03739733333333333
956314909 1.0087896666666665 -0.03294066666666666
957795840 1.0009083333333333 -0.041779333333333335
959276771 0.998875 -0.03969
960757702 0.9961376666666666 -0.03999166666666666
962238633 0.9940086666666668 -0.03915433333333333
963719564 0.987316 -0.04810433333333333
965200495 0.9830063333333332 -0.04923366666666666
966681426 0.978008 -0.048576666666666664
968162357 0.981636 -0.05348666666666666
969643288 0.9858646666666667 -0.05198133333333333
971124219 0.9896356666666667 -0.05252833333333333
972605150 0.9909869999999998 -0.056599666666666666
974086081 0.9927793333333332 -0.05745633333333333
975567012 0.996033 -0.056699
977047943 0.9987163333333333 -0.05621099999999999
978528874 0.999526 -0.05644866666666666
980009805 0.999977 -0.058434
981490736 0.9999229999999999 -0.058067999999999995
982971667 0.9990789999999998 -0.059151999999999996
984452598 1.0002486666666668 -0.055954666666666666
985933529 0.9996063333333332 -0.058295333333333324
987414460 0.9975896666666666 -0.055076333333333324
988895391 0.9952000000000001 -0.053925
990376322 0.9936766666666667 -0.05446666666666667
991857253 0.990469 -0.0557
993338184 0.9890206666666665 -0.053094666666666665
994819115 0.9844173333333333 -0.053047333333333335
996300046 0.981147 -0.053180000000000005
997780977 0.9823233333333332 -0.051631666666666666
999261908 0.9842556666666666 -0.05327666666666667
1000742839 0.9901706666666668 -0.05394666666666666
1002223770 0.9917873333333334 -0.05461066666666667
1003704701 0.9932843333333332 -0.057308666666666674
1005185632 0.9950683333333332 -0.05434999999999999
1006666563 0.9974636666666666 -0.054766333333333334
1008147494 0.9976343333333333 -0.05489366666666666
1009628425 0.9979099999999999 -0.05727766666666667
1011109356 0.9988926666666667 -0.056120666666666666
1012590287 0.9991083333333333 -0.05570066666666666
1014071218 0.9982916666666666 -0.05634499999999999
1015552149 0.9976179999999999 -0.053235333333333336
1017033080 0.9949849999999999 -0.057254
1018514011 0.9932706666666666 -0.052238999999999994
1019994942 0.9916103333333333 -0.04839466666666667
1021475873 0.9897396666666666 -0.051991333333333334
1022956804 0.9861706666666665 -0.05126533333333333
1024437735 0.9840653333333332 -0.04931066666666667
1025918666 0.978932 -0.04787866666666666
1027399597 0.9793966666666667 -0.05166099999999999
1028880528 0.9832046666666667 -0.05257666666666666
1030361459 0.9858503333333332 -0.052728
1031842390 0.9888213333333333 -0.05336833333333333
1033323321 0.9910003333333333 -0.054795666666666666
1034804252 0.992962 -0.05262499999999999
1036285183 0.9936326666666666 -0.055961
1037766114 0.9955766666666666 -0.05590333333333333
1039247045 0.9973879999999999 -0.05371666666666667
1040727976 0.9982196666666666 -0.05522366666666666
1042208907 0.9985786666666666 -0.04787366666666666
1043689838 0.9991016666666668 -0.054123333333333336
1045170769 0.9972233333333334 -0.05404333333333333
1046651700 0.9971796666666666 -0.05170799999999999
1048132631 0.9949856666666667 -0.05270066666666666
1049613562 0.9939153333333333 -0.05082899999999999
1051094493 0.9905539999999999 -0.052334
1052575424 0.9881503333333332 -0.04949033333333334
1054056355 0.985123 -0.050937333333333334
1055537286 0.9815563333333334 -0.05099766666666666
1057018217 0.9798163333333332 -0.05089233333333333
1058499148 0.9838526666666666 -0.04993633333333333
1059980079 0.9872266666666666 -0.05060233333333334
1061461010 0.9898136666666666 -0.051161
1062941941 0.9931516666666667 -0.05370033333333333
1064422872 0.9945106666666668 -0.05545066666666666
1065903803 0.9964736666666667 -0.05165733333333333
1067384734 0.9954673333333333 -0.055441
1068865665 0.9997193333333333 -0.053492333333333336
1070346596 0.9997150000000001 -0.04901233333333333
1071827527 0.9985346666666667 -0.05048933333333333
1073308458 0.9988606666666666 -0.05328733333333333
1074789389 0.9975523333333333 -0.050862
1076270320 0.9969416666666666 -0.053122
1077751251 1.0358006666666668 -0.025897333333333335
1079232182 0.9929886666666665 -0.04849133333333333
1080713113 0.9906843333333333 -0.04928233333333333
1082194044 0.9873016666666667 -0.04652799999999999
1083674975 0.9862306666666667 -0.04917566666666666
1085155906 0.9824630000000001 -0.050251
1086636837 0.9784629999999999 -0.04831266666666667
1088117768 0.9831166666666666 -0.05122466666666667
1089598699 0.9863596666666666 -0.050413
1091079630 0.9884493333333333 -0.050575666666666665
1092560561 0.9918089999999999 -0.05014033333333333
1094041492 0.9946129999999999 -0.05124466666666667
1095522423 0.9966593333333332 -0.05051833333333333
1097003354 0.9976563333333333 -0.049131666666666664
1098484285 0.9984799999999999 -0.04956033333333333
1099965216 0.9986793333333333 -0.05154466666666666
1101446147 1.0001223333333331 -0.04788799999999999
1102927078 1.0002499999999999 -0.048301333333333335
1104408009 0.9994896666666666 -0.04682833333333333
1105888940 0.9964179999999999 -0.049798666666666665
1107369871 0.9958396666666666 -0.04535
1108850802 0.9940616666666666 -0.045129333333333334
1110331733 0.9900623333333334 -0.049444999999999996
1111812664 0.9884773333333332 -0.04509366666666667
1113293595 0.9840483333333332 -0.04703966666666666
1114774526 0.9816946666666666 -0.04738766666666666
1116255457 0.9774946666666665 -0.046842999999999996
1117736388 0.981109 -0.04615533333333333
1119217319 0.9842776666666666 -0.04918466666666667
1120698250 0.9863436666666666 -0.05161866666666666
1122179181 0.988578 -0.05192566666666666
1123660112 0.9933363333333333 -0.050248666666666664
1125141043 0.9945389999999998 -0.04921233333333333
1126621974 0.9966073333333332 -0.05112699999999999
1128102905 0.9975823333333333 -0.05267033333333333
1129583836 0.9979336666666666 -0.051261
1131064767 0.9960836666666666 -0.05604133333333333
1132545698 0.9982103333333333 -0.04925033333333334
1134026629 0.9969753333333333 -0.05333633333333333
1135507560 0.9966626666666667 -0.05187666666666666
1136988491 0.9940536666666666 -0.05328466666666666
1138469422 0.9928336666666665 -0.050762
1139950353 0.9908523333333333 -0.05227066666666667
1141431284 0.9880566666666667 -0.05071199999999999
1142912215 0.9836713333333332 -0.055615
1144393146 0.9809953333333332 -0.05639133333333333
1145874077 0.9759433333333334 -0.056981333333333335
1147355008 0.9793046666666667 -0.05794766666666666
1148835939 0.9814849999999999 -0.05810833333333333
1150316870 0.9858359999999999 -0.05642133333333333
1151797801 0.991714 -0.05877966666666666
1153278732 0.9937326666666666 -0.05700366666666666
1154759663 0.9948716666666666 -0.05538833333333333
1156240594 0.9975373333333334 -0.05863133333333333
1157721525 0.9990146666666666 -0.05909299999999999
1159202456 1.0002773333333332 -0.05678333333333333
1160683387 1.0000746666666667 -0.05578466666666666
1162164318 0.9986456666666667 -0.060151333333333334
1163645249 0.999581 -0.056407
1165126180 0.9983123333333332 -0.056052
1166607111 0.9997306666666668 -0.05390166666666666
1168088042 0.995833 -0.055102
1169568973 0.9919636666666666 -0.055837000000000005
1171049904 0.9897573333333334 -0.05685566666666667
1172530835 0.988823 -0.055433333333333334
1174011766 0.9819706666666665 -0.05898199999999999
1175492697 0.9783076666666666 -0.05666466666666667
1176973628 0.9813133333333335 -0.05521966666666667
1178454559 0.9842533333333333 -0.057013666666666664
1179935490 0.9877143333333334 -0.05896766666666667
1181416421 0.9915306666666666 -0.06350766666666666
1182897352 0.9949650000000001 -0.058463666666666664
1184378283 0.9979799999999999 -0.056778333333333326
1185859214 0.9995133333333334 -0.06044266666666666
1187340145 1.0012483333333333 -0.057071
1188821076 1.002862 -0.062267666666666666
1190302007 1.0023703333333334 -0.05819966666666666
1191782938 1.002530333333333 -0.058769
1193263869 1.0005723333333334 -0.05827866666666666
1194744800 0.9999033333333333 -0.05846766666666667
1196225731 0.9986256666666666 -0.05683433333333333
1197706662 0.9968333333333332 -0.056230333333333334
1199187593 0.993578 -0.05722266666666666
1200668524 0.9907923333333333 -0.05784433333333333
1202149455 0.9884693333333333 -0.05531766666666667
1203630386 0.985004 -0.05878533333333333
1205111317 0.979332 -0.055925333333333334
1206592248 0.9769813333333334 -0.060933666666666664
1208073179 0.9824630000000001 -0.05970399999999999
1209554110 0.9855786666666666 -0.060087666666666664
1211035041 0.9883376666666666 -0.061857999999999996
1212515972 0.9940133333333333 -0.06124333333333333
1213996903 0.9951466666666666 -0.06328633333333333
1215477834 0.9973246666666666 -0.06451799999999999
1216958765 0.999668 -0.062842
1218439696 1.0017846666666665 -0.06351499999999999
1219920627 1.001532333333333 -0.06343933333333333
1221401558 1.000025 -0.06542899999999999
1222882489 1.0012459999999999 -0.06161266666666666
1224363420 0.999224 -0.06373566666666666
1225844351 0.9986459999999999 -0.063243
1227325282 0.9964529999999999 -0.061235
1228806213 0.994233 -0.06411266666666667
1230287144 0.9908380000000001 -0.06245766666666666
1231768075 0.9874283333333334 -0.061894000000000005
1233249006 0.982699 -0.06391733333333333
1234729937 0.9786306666666666 -0.06284333333333333
1236210868 0.9751853333333333 -0.061473
1237691799 0.9835799999999999 -0.06811933333333332
1239172730 0.9857836666666666 -0.06665266666666667
1240653661 0.9897079999999999 -0.064757
1242134592 0.9919753333333332 -0.065401
1243615523 0.9944183333333334 -0.06885466666666666
1245096454 0.997343 -0.07098433333333333
1246577385 0.9986793333333333 -0.068004
1248058316 1.0007433333333333 -0.06702066666666666
1249539247 1.0008759999999999 -0.068191
1251020178 1.0019606666666667 -0.06569799999999999
1252501109 1.00139 -0.06782166666666666
1253982040 1.0018153333333333 -0.064839
1255462971 0.9986776666666666 -0.06675233333333333
1256943902 0.9978879999999999 -0.06491366666666666
1258424833 0.9944866666666666 -0.06381599999999998
1259905764 0.9922043333333335 -0.063658
1261386695 0.9886889999999999 -0.06035466666666667
1262867626 0.9861506666666667 -0.059752
1264348557 0.9809883333333334 -0.058971333333333334
1265829488 0.975774 -0.05950699999999999
1267310419 0.9788676666666666 -0.06411133333333333
1268791350 0.9827496666666666 -0.065895
1270272281 0.985147 -0.06523833333333331
1271753212 0.9900119999999999 -0.06631266666666666
1273234143 0.9918646666666666 -0.06682333333333332
1274715074 0.9935473333333333 -0.06741466666666666
1276196005 0.9971009999999999 -0.06526733333333333
1277676936 0.9983323333333334 -0.06709633333333333
1279157867 0.9972146666666666 -0.07095666666666667
1280638798 0.9983303333333332 -0.06937433333333333
1282119729 0.9977573333333332 -0.066897
1283600660 0.9962726666666667 -0.06799333333333332
1285081591 0.9949353333333333 -0.07200266666666666
1286562522 0.9940463333333334 -0.06646833333333332
1288043453 0.9906029999999999 -0.06667233333333333
1289524384 0.989331 -0.066289
1291005315 0.9865499999999999 -0.063172
1292486246 0.9822416666666666 -0.0659
1293967177 0.9769639999999999 -0.06654499999999999
1295448108 0.9721953333333333 -0.063882
1296929039 0.9752959999999999 -0.06519799999999999
1298409970 0.979063 -0.06777899999999999
1299890901 0.9826053333333333 -0.07006799999999999
1301371832 0.9853616666666666 -0.06656
1302852763 0.9878046666666667 -0.07137266666666665
1304333694 0.9919566666666666 -0.07214666666666666
1305814625 0.9912813333333332 -0.07068833333333333
1307295556 0.9927703333333332 -0.07122999999999999
1308776487 0.9944006666666666 -0.07072966666666666
1310257418 0.9939886666666666 -0.07262433333333332
1311738349 0.9941693333333333 -0.06937233333333333
1313219280 0.9940593333333332 -0.07233366666666666
1314700211 0.9919063333333332 -0.06791833333333333
1316181142 0.991335 -0.06975466666666666
1317662073 0.9897246666666666 -0.065974
1319143004 0.9859519999999999 -0.06654733333333333
1320623935 0.9840706666666668 -0.06250666666666667
1322104866 0.9814606666666666 -0.067702
1323585797 0.9771866666666666 -0.06541899999999998
1325066728 0.9728239999999999 -0.062046
1326547659 0.971754 -0.06518499999999999
1328028590 0.976761 -0.06174833333333333
1329509521 0.9802709999999999 -0.06756266666666667
1330990452 0.9827786666666667 -0.06653433333333333
1332471383 0.9863173333333333 -0.071778
1333952314 0.9866983333333332 -0.06909833333333333
1335433245 0.9883463333333333 -0.06956333333333332
1336914176 0.9887609999999999 -0.07075066666666666
1338395107 0.9916643333333333 -0.06705699999999999
1339876038 0.9888726666666666 -0.07030166666666667
1341356969 0.9884273333333333 -0.07074166666666666
1342837900 0.988389 -0.07483333333333334
1344318831 0.9887623333333333 -0.069353
1345799762 0.9897693333333333 -0.071736
1347280693 0.9862233333333333 -0.06851233333333333
1348761624 0.9849379999999999 -0.064747
1350242555 0.9826233333333333 -0.06695699999999999
1351723486 0.9801696666666666 -0.06856933333333333
1353204417 0.9749286666666667 -0.06387733333333331
1354685348 0.9708833333333333 -0.06366166666666666
1356166279 0.9712813333333333 -0.06637733333333332
1357647210 0.9756843333333333 -0.06350833333333333
1359128141 0.9764149999999999 -0.07355333333333333
1360609072 0.981426 -0.06427466666666666
1362090003 0.9827393333333332 -0.07926666666666665
1363570934 0.9899609999999999 -0.063419
1365051865 0.986364 -0.07314333333333334
1366532796 0.9892883333333332 -0.06439233333333333
1368013727 1.0078703333333332 -0.08281266666666666
1369494658 0.9927400000000001 -0.061005666666666666
1370975589 0.989681 -0.07720099999999999
1372456520 0.9922523333333333 -0.062929
1373937451 0.9719 -0.09393966666666667
1375418382 0.9875283333333333 -0.071959
1376899313 0.9841326666666667 -0.07383466666666667
1378380244 0.9852946666666667 -0.07069233333333333
1379861175 0.9833086666666666 -0.07090199999999999
1381342106 0.9813773333333333 -0.07059633333333333
1382823037 0.9798136666666666 -0.055316333333333335
1384303968 0.9748486666666666 -0.06309066666666666
1385784899 0.97441 -0.06555733333333333
1387265830 0.9758649999999999 -0.06291533333333332
1388746761 0.9793379999999999 -0.065361
1390227692 0.9831300000000001 -0.064785
1391708623 0.9843896666666666 -0.06717433333333334
1393189554 0.9858179999999999 -0.068412
1394670485 0.9878790000000001 -0.067774
1396151416 0.9901173333333333 -0.068008
1397632347 0.9896473333333333 -0.06303466666666666
1399113278 0.9907553333333334 -0.064508
1400594209 0.991262 -0.066318
1402075140 0.9920153333333334 -0.06682199999999999
1403556071 0.9898613333333334 -0.06729433333333332
1405037002 0.989842 -0.06622566666666665
1406517933 0.987419 -0.06127966666666666
1407998864 0.9854816666666666 -0.06372366666666665
1409479795 0.9822649999999999 -0.06419766666666665
1410960726 0.9833609999999999 -0.062443
1412441657 0.9784353333333333 -0.06435633333333332
1413922588 0.9754656666666667 -0.066243
1415403519 0.9689463333333332 -0.06693299999999999
1416884450 0.9767526666666666 -0.066253
1418365381 0.9816796666666667 -0.06995433333333331
1419846312 0.9839866666666666 -0.06819166666666666
1421327243 0.9842096666666666 -0.06532133333333333
1422808174 0.9881756666666666 -0.070634
1424289105 0.9895533333333333 -0.067026
1425770036 0.9916953333333334 -0.065824
1427250967 0.991425 -0.07332066666666666
1428731898 0.9931706666666666 -0.06716133333333332
1430212829 0.9895006666666666 -0.06725266666666667
1431693760 0.9910896666666666 -0.06702966666666665
1433174691 0.9948103333333332 -0.06734399999999999
1434655622 0.9924079999999998 -0.064507
1436136553 0.988568 -0.06446766666666666
1437617484 0.9894393333333333 -0.06695366666666666
1439098415 0.9842793333333333 -0.06740966666666666
1440579346 0.9815099999999999 -0.072274
1442060277 0.979201 -0.06740933333333332
1443541208 0.975853 -0.07063066666666665
1445022139 0.9715593333333334 -0.06987833333333332
1446503070 0.9748216666666667 -0.070535
1447984001 0.979006 -0.072382
1449464932 0.981048 -0.07191033333333333
1450945863 0.9846673333333333 -0.069357
1452426794 0.9882066666666667 -0.066311
1453907725 0.9903963333333332 -0.068269
1455388656 0.9926993333333334 -0.06770799999999999
1456869587 0.993887 -0.06701366666666665
1458350518 0.993323 -0.06427866666666665
1459831449 0.9942533333333332 -0.06344733333333333
1461312380 0.9929906666666666 -0.06512933333333333
1462793311 0.994205 -0.062456333333333336
1464274242 0.9920386666666667 -0.06034099999999999
1465755173 0.9915713333333334 -0.05847666666666666
1467236104 0.9883383333333333 -0.06287666666666666
1468717035 0.9866816666666667 -0.05925866666666666
1470197966 0.9840903333333333 -0.060009999999999994
1471678897 0.9791496666666666 -0.060811000000000004
1473159828 0.9762206666666666 -0.06027366666666667
1474640759 0.9720773333333332 -0.06154866666666667
1476121690 0.9744486666666666 -0.05899633333333333
1477602621 0.9782829999999999 -0.06054933333333333
1479083552 0.980657 -0.06278166666666667
1480564483 0.9837359999999999 -0.06390633333333332
1482045414 0.9877073333333334 -0.060486333333333336
1483526345 0.9896559999999999 -0.06078299999999999
1485007276 0.9914386666666666 -0.061621999999999996
1486488207 0.9926983333333333 -0.062149333333333334
1487969138 0.9945856666666666 -0.06001599999999999
1489450069 0.9947623333333333 -0.06038366666666667
1490931000 0.9942963333333333 -0.059872666666666664
1492411931 0.9932483333333333 -0.060394
1493892862 0.9922316666666667 -0.060899999999999996
1495373793 0.9902016666666666 -0.06229266666666666
1496854724 0.9890399999999999 -0.05966966666666666
1498335655 0.9864453333333333 -0.06187033333333333
1499816586 0.9840956666666667 -0.06152766666666666
1501297517 0.9802706666666667 -0.062108
1502778448 0.9758803333333332 -0.063536
1504259379 0.9730113333333332 -0.06434666666666666
1505740310 0.9726513333333333 -0.06514
1507221241 0.9767836666666666 -0.06583699999999999
1508702172 0.9820073333333333 -0.06576766666666667
1510183103 0.9853473333333334 -0.06876066666666666
1511664034 0.9875196666666666 -0.06669199999999999
1513144965 0.9909716666666666 -0.06806933333333333
1514625896 0.99227 -0.06847299999999999
1516106827 0.9955573333333333 -0.065784
1517587758 0.9952093333333334 -0.06569799999999999
1519068689 0.9954489999999999 -0.067468
1520549620 0.995695 -0.06787633333333333
1522030551 0.9951886666666666 -0.06884533333333333
1523511482 0.9928323333333333 -0.069725
1524992413 1.0160656666666665 -0.047052
1526473344 0.9916046666666666 -0.06781066666666666
1527954275 0.987563 -0.06921866666666666
1529435206 0.985877 -0.06585933333333333
1530916137 0.9812523333333334 -0.06729433333333332
1532397068 0.9781733333333333 -0.06885033333333332
1533877999 0.9726343333333333 -0.070998
1535358930 0.9703839999999999 -0.07475733333333334
1536839861 0.9765609999999999 -0.07236033333333333
1538320792 0.9812270000000001 -0.07195733333333333
1539801723 0.984248 -0.077468
1541282654 0.9886863333333333 -0.07284366666666667
1542763585 0.9921156666666665 -0.07462366666666666
1544244516 0.994294 -0.07545366666666667
1545725447 0.9963093333333333 -0.07317133333333332
1547206378 0.9979259999999999 -0.07421699999999999
1548687309 0.99787 -0.07263833333333333
1550168240 0.9988996666666666 -0.07350699999999999
1551649171 0.9990296666666666 -0.07626566666666666
1553130102 0.9955973333333334 -0.07285366666666666
1554611033 0.9963689999999998 -0.06914899999999999
1556091964 0.9931000000000001 -0.07034033333333334
1557572895 0.9898493333333334 -0.071125
1559053826 0.9876526666666666 -0.069212
1560534757 0.9827566666666666 -0.07053899999999999
1562015688 0.9784569999999999 -0.07189966666666667
1563496619 0.9735036666666668 -0.07260533333333333
1564977550 0.9700283333333333 -0.07436633333333333
1566458481 0.975227 -0.072458
1567939412 0.9788683333333333 -0.07809133333333333
1569420343 0.9828616666666666 -0.07656766666666666
1570901274 0.986902 -0.074761
1572382205 0.990205 -0.07589566666666665
1573863136 0.9923913333333334 -0.07804233333333332
1575344067 0.9936689999999999 -0.08011466666666665
1576824998 0.9946279999999998 -0.07747899999999999
1578305929 0.992873 -0.08940233333333332
1579786860 0.9975773333333333 -0.07108666666666666
1581267791 0.9958799999999999 -0.07905766666666666
1582748722 0.9946136666666666 -0.07435833333333332
1584229653 0.9938763333333333 -0.07284133333333333
1585710584 0.9913569999999999 -0.07346699999999999
1587191515 0.988707 -0.07347066666666667
1588672446 0.9868526666666666 -0.06992833333333333
1590153377 0.980803 -0.07403099999999999
1591634308 0.9778896666666667 -0.07169533333333333
1593115239 0.9719366666666667 -0.073625
1594596170 0.9655423333333332 -0.07691033333333333
1596077101 0.9705826666666667 -0.07533266666666666
1597558032 0.9752266666666666 -0.07423999999999999
1599038963 0.9803120000000001 -0.07611433333333333
1600519894 0.981608 -0.08127233333333334
1602000825 0.9851186666666667 -0.08205133333333332
1603481756 0.9883083333333333 -0.07970266666666666
1604962687 0.9894913333333332 -0.07888433333333333
1606443618 0.9884006666666667 -0.08472933333333334
1607924549 0.9923203333333334 -0.08138633333333334
1609405480 0.991923 -0.08229666666666666
1610886411 0.991387 -0.07744633333333333
1612367342 0.9913893333333333 -0.07940266666666665
1613848273 0.9894179999999999 -0.08081066666666666
1615329204 0.9896316666666666 -0.08138033333333333
1616810135 0.9849733333333333 -0.07866833333333334
1618291066 0.9829399999999999 -0.08128366666666666
1619771997 0.9794756666666666 -0.07769100000000001
1621252928 0.9768363333333334 -0.077692
1622733859 0.9739266666666666 -0.07497133333333333
1624214790 0.9683303333333333 -0.07955033333333333
1625695721 0.9704076666666666 -0.07674466666666666
1627176652 0.9748293333333332 -0.080129
1628657583 0.9785309999999999 -0.08272499999999999
1630138514 0.9798163333333332 -0.08060633333333334
1631619445 0.984053 -0.07912033333333332
1633100376 0.984988 -0.08394666666666667
1634581307 0.9871163333333334 -0.08099066666666666
1636062238 0.9889673333333333 -0.08015766666666665
1637543169 0.9873969999999999 -0.08663366666666666
1639024100 0.9908979999999998 -0.08100366666666665
1640505031 0.9897239999999999 -0.08371666666666666
1641985962 0.9907433333333333 -0.07951266666666666
1643466893 0.9875686666666665 -0.08757300000000001
1644947824 0.9867673333333333 -0.079356
1646428755 0.9841686666666667 -0.081078
1647909686 0.9816843333333334 -0.07291099999999999
1649390617 0.9790846666666666 -0.07604333333333332
1650871548 0.974967 -0.07181333333333331
1652352479 0.9697936666666666 -0.076287
1653833410 0.9668083333333334 -0.07024133333333334
1655314341 0.9660946666666665 -0.06817799999999999
1656795272 0.9701489999999999 -0.07586166666666666
1658276203 0.9722023333333333 -0.07668833333333333
1659757134 0.9768843333333332 -0.07558166666666666
1661238065 0.9783459999999999 -0.079016
1662718996 0.9797183333333332 -0.07897033333333334
1664199927 0.9830496666666666 -0.079271
1665680858 0.983225 -0.078358
1667161789 0.9838923333333334 -0.07987
1668642720 0.9844143333333333 -0.082145
1670123651 0.9844339999999999 -0.08195966666666667
1671604582 0.9844173333333333 -0.080592
1673085513 0.9818916666666666 -0.08323399999999999
1674566444 0.9832519999999999 -0.07650066666666666
1676047375 0.981557 -0.08145433333333332
1677528306 0.9788093333333334 -0.07765299999999999
1679009237 0.975491 -0.08116299999999999
1680490168 0.9710389999999999 -0.080903
1681971099 0.9687426666666666 -0.07838066666666667
1683452030 0.9656149999999999 -0.073877
1684932961 0.9634156666666667 -0.08279366666666665
1686413892 0.9686963333333334 -0.08179666666666666
1687894823 0.9734499999999999 -0.07943099999999999
1689375754 0.974112 -0.084785
1690856685 0.9769186666666667 -0.08151733333333333
1692337616 0.9787279999999999 -0.08607266666666666
1693818547 0.9809173333333332 -0.08628033333333332
1695299478 0.979768 -0.08335633333333332
1696780409 0.9816476666666666 -0.08683433333333335
1698261340 0.9839283333333333 -0.08175199999999999
1699742271 0.9847596666666667 -0.08323566666666667
1701223202 0.9825336666666666 -0.08418066666666665
1702704133 0.9824613333333334 -0.08349633333333331
1704185064 0.9812053333333333 -0.08687733333333332
1705665995 0.9801643333333333 -0.08360133333333333
1707146926 0.9773149999999999 -0.08391
1708627857 0.975215 -0.08246266666666666
1710108788 0.9718013333333332 -0.080071
1711589719 0.9689966666666666 -0.08368066666666665
1713070650 0.965805 -0.078985
1714551581 0.9636076666666666 -0.081048
1716032512 0.9669026666666666 -0.08084666666666665
1717513443 0.969728 -0.07975066666666666
1718994374 0.9734553333333333 -0.08448266666666666
1720475305 0.9756943333333333 -0.08584233333333333
1721956236 0.9769266666666666 -0.08769866666666666
1723437167 0.9807966666666666 -0.086725
1724918098 0.9809913333333334 -0.086325
1726399029 0.9807416666666666 -0.08734399999999999
1727879960 0.9822163333333332 -0.08525366666666667
1729360891 0.9831923333333333 -0.08576633333333333
1730841822 0.9843949999999999 -0.08552066666666665
1732322753 0.9821876666666667 -0.08774866666666666
1733803684 0.9823196666666667 -0.08591299999999999
1735284615 0.9810153333333332 -0.088368
1736765546 0.9776173333333333 -0.0842
1738246477 0.9748899999999999 -0.08543866666666666
1739727408 0.9739633333333333 -0.08278033333333333
1741208339 0.9705186666666666 -0.08408933333333332
1742689270 0.9680079999999999 -0.08498833333333333
1744170201 0.9601623333333333 -0.08535566666666666
1745651132 0.9667876666666666 -0.08207333333333333
1747132063 0.9688979999999999 -0.08602333333333334
1748612994 0.974738 -0.08452866666666665
1750093925 0.9768486666666667 -0.09059299999999999
1751574856 0.9779416666666667 -0.08677733333333333
1753055787 0.980261 -0.087309
1754536718 0.9822986666666665 -0.08908233333333333
1756017649 0.9830826666666665 -0.08958433333333334
1757498580 0.9850563333333333 -0.08832833333333331
1758979511 0.9838923333333334 -0.08910866666666667
1760460442 0.9865463333333333 -0.08771799999999999
1761941373 0.9844136666666665 -0.08755099999999999
1763422304 0.9846156666666667 -0.08920166666666665
1764903235 0.984159 -0.08699233333333334
1766384166 0.981137 -0.08767366666666666
1767865097 0.9755459999999998 -0.086475
1769346028 0.9765383333333333 -0.08621533333333334
1770826959 0.9719656666666667 -0.08648366666666665
1772307890 0.9696763333333333 -0.08548566666666668
1773788821 0.9632889999999998 -0.088056
1775269752 0.9651190000000001 -0.08478166666666666
1776750683 0.9711853333333332 -0.08720333333333333
1778231614 0.9739296666666666 -0.08507566666666666
1779712545 0.9766286666666666 -0.08770566666666665
1781193476 0.9799616666666666 -0.08998966666666666
1782674407 0.9828899999999999 -0.08693366666666666
1784155338 0.9837826666666666 -0.08483999999999998
1785636269 0.9849559999999999 -0.08945166666666667
1787117200 0.987545 -0.08819099999999999
1788598131 0.9859386666666667 -0.08534499999999998
1790079062 0.986904 -0.08741466666666665
1791559993 0.9862306666666667 -0.08592833333333333
1793040924 0.9858206666666665 -0.08711799999999999
1794521855 0.98391 -0.08257700000000001
1796002786 0.9833466666666666 -0.08303733333333332
1797483717 0.9792433333333334 -0.08590733333333334
1798964648 0.9784336666666666 -0.08093966666666666
1800445579 0.9753633333333332 -0.082159
1801926510 0.9677516666666667 -0.08406733333333333
1803407441 0.9645409999999999 -0.08322433333333333
1804888372 0.965722 -0.08458099999999999
1806369303 0.968032 -0.080047
1807850234 0.9752983333333332 -0.084148
1809331165 0.9776926666666667 -0.08516366666666665
1810812096 0.9791466666666666 -0.08465033333333334
1812293027 0.986274 -0.078786
1813773958 0.9857373333333334 -0.08306133333333332
1815254889 0.9824263333333333 -0.08709033333333333
1816735820 0.9857383333333332 -0.082396
1818216751 0.9887476666666666 -0.08837233333333333
1819697682 0.987494 -0.08234966666666665
1821178613 0.9884786666666666 -0.083071
1822659544 0.9863373333333333 -0.08332200000000001
1824140475 0.9666949999999999 -0.074296
1825621406 0.9834143333333333 -0.077147
1827102337 0.9763283333333332 -0.08625666666666666
1828583268 0.9768983333333333 -0.08013166666666666
1830064199 0.972943 -0.08059833333333333
1831545130 0.9698713333333333 -0.077609
1833026061 0.9590953333333332 -0.088431
1834506992 0.9676999999999999 -0.07373766666666666
1835987923 0.9628463333333332 -0.08581633333333333
1837468854 0.9712379999999998 -0.08361666666666667
1838949785 0.9711526666666668 -0.08621466666666666
1840430716 0.980368 -0.07918333333333333
1841911647 0.978165 -0.08769333333333332
1843392578 0.9842876666666666 -0.08798066666666667
1844873509 0.9796743333333333 -0.089204
1846354440 0.9894746666666667 -0.075069
1847835371 0.983275 -0.08806966666666667
1849316302 0.984321 -0.08285833333333333
1850797233 0.9808713333333332 -0.08879233333333332
1852278164 0.9896093333333333 -0.08025499999999999
1853759095 0.9843463333333333 -0.083561
1855240026 0.983637 -0.08593100000000001
1856720957 0.9811543333333332 -0.08073566666666666
1858201888 0.9754546666666666 -0.08407433333333332
1859682819 0.973481 -0.08342766666666665
1861163750 0.9701743333333332 -0.08271066666666667
1862644681 0.9645156666666665 -0.085976
1864125612 0.9651653333333333 -0.08216999999999999
1865606543 0.9676713333333332 -0.08454333333333333
1867087474 0.9711493333333332 -0.08664033333333333
1868568405 0.9765226666666666 -0.08732966666666667
1870049336 0.9774223333333333 -0.08841066666666667
1871530267 0.9784403333333334 -0.09043366666666666
1873011198 0.9856563333333332 -0.08607466666666666
1874492129 0.9861686666666666 -0.08922
1875973060 0.98532 -0.08949133333333333
1877453991 1.02884 -0.06913866666666665
1878934922 0.9881506666666665 -0.08603433333333332
1880415853 0.9870526666666667 -0.08741499999999999
1881896784 0.98574 -0.08830299999999999
1883377715 0.9829619999999999 -0.08664566666666665
1884858646 0.9840446666666667 -0.08289866666666668
1886339577 0.9826476666666666 -0.08119833333333333
1887820508 0.977244 -0.084258
1889301439 0.9741433333333333 -0.08423266666666665
1890782370 0.9712146666666666 -0.082495
1892263301 0.9676830000000001 -0.07886533333333333
1893744232 0.9621596666666666 -0.080468
1895225163 0.9651483333333333 -0.083291
1896706094 0.9688323333333333 -0.08556766666666667
1898187025 0.9731013333333333 -0.08514566666666668
1899667956 0.976459 -0.08504833333333331
1901148887 0.9790116666666666 -0.083178
1902629818 0.9787843333333333 -0.08620566666666665
1904110749 0.9800106666666666 -0.08656900000000001
1905591680 0.984911 -0.084428
1907072611 0.9820023333333334 -0.08537
1908553542 0.981632 -0.09057699999999999
1910034473 0.981317 -0.08778466666666665
1911515404 0.981757 -0.08710266666666666
1912996335 0.9816606666666667 -0.086626
1914477266 0.9773166666666666 -0.08585233333333334
1915958197 0.9777456666666666 -0.08648333333333333
1917439128 0.9730563333333333 -0.08574133333333334
1918920059 0.9706233333333333 -0.08671366666666666
1920400990 0.9652903333333334 -0.09070199999999998
1921881921 0.9635246666666666 -0.08628733333333334
1923362852 0.9590343333333333 -0.08395366666666666
1924843783 0.9604703333333333 -0.08885933333333332
1926324714 0.9658416666666666 -0.08971199999999999
1927805645 0.9683229999999999 -0.08500366666666666
1929286576 0.9742416666666667 -0.08484933333333333
1930767507 0.9735293333333332 -0.09065000000000001
1932248438 0.9764133333333334 -0.09181099999999999
1933729369 0.977924 -0.088424
1935210300 0.98039 -0.088607
1936691231 0.9794543333333332 -0.09265233333333334
1938172162 0.9800436666666666 -0.09210233333333331
1939653093 0.9808 -0.08623966666666667
1941134024 0.9783563333333333 -0.08816966666666666
1942614955 0.9800696666666666 -0.08622599999999998
1944095886 0.9787713333333332 -0.08359799999999998
1945576817 0.9746933333333333 -0.08367066666666667
1947057748 0.9754016666666666 -0.07960266666666667
1948538679 0.9690553333333334 -0.08491499999999999
1950019610 0.9653266666666667 -0.08104833333333333
1951500541 0.9605866666666666 -0.08204433333333333
1952981472 0.9567669999999999 -0.08189933333333332
1954462403 0.9603933333333333 -0.08695066666666668
1955943334 0.9643966666666667 -0.08211066666666667
1957424265 0.9674326666666666 -0.08471433333333334
1958905196 0.970286 -0.08392766666666665
1960386127 0.9716739999999999 -0.09038966666666666
1961867058 0.974952 -0.08765466666666666
1963347989 0.9777129999999998 -0.08925966666666665
1964828920 0.9791306666666666 -0.08739366666666666
1966309851 0.9775213333333334 -0.09169466666666666
1967790782 0.9797333333333333 -0.085974
1969271713 0.9808486666666667 -0.09314533333333333
1970752644 0.9778536666666666 -0.09161566666666666
1972233575 0.9820146666666667 -0.08848366666666665
1973714506 0.9814286666666666 -0.082711
1975195437 0.9762103333333334 -0.08711066666666667
1976676368 0.9719043333333334 -0.09405333333333334
1978157299 0.9724103333333334 -0.08548
1979638230 0.9710389999999999 -0.08494966666666666
1981119161 0.9670776666666666 -0.087771
1982600092 0.9607943333333333 -0.08906199999999999
1984081023 0.9602046666666666 -0.087808
1985561954 0.9648159999999999 -0.09126566666666666
1987042885 0.9675063333333332 -0.09507933333333332
1988523816 0.972332 -0.09444433333333332
1990004747 0.9741633333333333 -0.091865
1991485678 0.9742243333333334 -0.096481
1992966609 0.9766396666666666 -0.09659799999999999
1994447540 0.9791270000000001 -0.09157666666666667
1995928471 0.9772379999999999 -0.09662866666666665
1997409402 0.9795646666666666 -0.09421566666666666
1998890333 0.9793053333333332 -0.09819499999999999
2000371264 0.9785913333333333 -0.09322599999999999
2001852195 0.9754073333333333 -0.09756866666666666
2003333126 0.9739776666666666 -0.097549
2004814057 0.9744683333333333 -0.093385
2006294988 0.9745746666666666 -0.092662
2007775919 0.9707883333333333 -0.093335
2009256850 0.9674443333333334 -0.09647533333333333
2010737781 0.9619886666666666 -0.094947
2012218712 0.9599659999999999 -0.09364266666666667
2013699643 0.9563073333333333 -0.09272399999999999
2015180574 0.9614156666666667 -0.095591
2016661505 0.9666683333333334 -0.09658566666666665
2018142436 0.9661896666666667 -0.09283566666666666
2019623367 0.97185 -0.095468
2021104298 0.9733373333333333 -0.09615733333333333
2022585229 0.9781036666666667 -0.09168266666666666
2024066160 0.9739093333333333 -0.09895933333333332
2025547091 0.9868703333333333 -0.09299500000000001
2027028022 0.977976 -0.09785633333333332
2028508953 0.9763623333333333 -0.09229066666666666
2029989884 0.980066 -0.09216833333333332
2031470815 0.97579 -0.09665266666666666
2032951746 0.9767213333333333 -0.09080866666666666
2034432677 0.9749033333333333 -0.08823933333333334
2035913608 0.9706163333333333 -0.09453666666666666
2037394539 0.9706146666666666 -0.09038133333333333
2038875470 0.967367 -0.09382399999999999
2040356401 0.9640816666666666 -0.088024
2041837332 0.9600093333333333 -0.08650766666666666
2043318263 0.9553583333333333 -0.08875833333333333
2044799194 0.9624333333333334 -0.08897866666666666
2046280125 0.9656469999999999 -0.09094433333333332
2047761056 0.9671263333333334 -0.09444
2049241987 0.9695633333333333 -0.08786533333333332
2050722918 0.9728359999999998 -0.09607866666666666
2052203849 0.9720966666666666 -0.09737399999999999
2053684780 0.9746730000000001 -0.09305466666666665
2055165711 0.9775646666666665 -0.090641
2056646642 0.9777146666666666 -0.09542166666666665
2058127573 0.9773833333333333 -0.09603566666666666
2059608504 0.9753116666666666 -0.09839799999999999
2061089435 0.9756546666666666 -0.09408633333333333
2062570366 0.9741176666666667 -0.09600733333333333
2064051297 0.9725203333333333 -0.09288366666666666
2065532228 0.9715673333333333 -0.092103
2067013159 0.9693536666666667 -0.09153199999999997
2068494090 0.9672709999999999 -0.09541566666666668
2069975021 0.9656596666666666 -0.09198466666666667
2071455952 0.959867 -0.09111666666666665
2072936883 0.9581916666666667 -0.09327366666666666
2074417814 0.9617939999999999 -0.09787633333333334
2075898745 0.9632086666666666 -0.10104533333333333
2077379676 0.9648620000000001 -0.10035133333333332
2078860607 0.967434 -0.09797999999999998
2080341538 0.9687009999999999 -0.10222366666666667
2081822469 0.9727256666666666 -0.10217799999999999
2083303400 0.9729389999999999 -0.10128166666666667
2084784331 0.9771000000000001 -0.102464
2086265262 0.9729516666666665 -0.10063366666666665
2087746193 0.9756 -0.10246633333333333
2089227124 0.9777053333333333 -0.095064
2090708055 0.9764013333333332 -0.10065933333333332
2092188986 0.9757166666666666 -0.09885833333333334
2093669917 0.9744996666666667 -0.09484499999999998
2095150848 0.9708483333333333 -0.09793833333333335
2096631779 0.9697346666666666 -0.09812799999999999
2098112710 0.9650556666666665 -0.09770166666666666
2099593641 0.9634666666666667 -0.097167
2101074572 0.9594926666666668 -0.09992699999999999
2102555503 0.9561296666666667 -0.099813
2104036434 0.9582086666666667 -0.09567566666666666
2105517365 0.9620666666666666 -0.095394
2106998296 0.9656486666666667 -0.09816
2108479227 0.968456 -0.100116
2109960158 0.9720043333333332 -0.09812033333333332
2111441089 0.9726246666666666 -0.10244199999999999
2112922020 0.9758076666666666 -0.098311
2114402951 0.9777549999999999 -0.10008099999999999
2115883882 0.9802973333333332 -0.09748466666666666
2117364813 0.9782753333333334 -0.100466
2118845744 0.9795926666666667 -0.10017866666666667
2120326675 0.9777813333333333 -0.09763366666666665
2121807606 0.9778943333333334 -0.09520799999999999
2123288537 0.9810239999999999 -0.078163
2124769468 0.971106 -0.08923933333333334
2126250399 0.974131 -0.09211633333333331
2127731330 0.9678959999999999 -0.09279933333333334
2129212261 0.9659293333333334 -0.08958099999999998
2130693192 0.9641703333333332 -0.07818333333333333
2132174123 0.9582193333333333 -0.087497
2133655054 0.9577976666666667 -0.09237533333333332
2135135985 0.9598103333333332 -0.09194633333333331
2136616916 0.9666959999999999 -0.09287033333333333
2138097847 0.9684793333333334 -0.09605033333333332
2139578778 0.9712603333333334 -0.09257066666666666
2141059709 0.9717296666666666 -0.09562999999999999
2142540640 0.9749236666666665 -0.09531233333333333
2144021571 0.9760949999999999 -0.09807833333333334
2145502502 0.9764436666666666 -0.09922233333333333
2146983433 0.978312 -0.09865166666666665
2148464364 0.9776506666666666 -0.09820533333333333
2149945295 0.9781236666666666 -0.09845899999999999
2151426226 0.9761596666666665 -0.09529466666666667
2152907157 0.9761526666666667 -0.09796966666666665
2154388088 0.9743426666666666 -0.09758866666666666
2155869019 0.9723470000000001 -0.09640366666666667
2157349950 0.9688049999999999 -0.09657433333333333
2158830881 0.9670126666666665 -0.09672633333333333
2160311812 0.965352 -0.09495466666666666
2161792743 0.9588293333333333 -0.09513366666666667
2163273674 0.957579 -0.09417199999999999
2164754605 0.9612983333333334 -0.09707966666666668
2166235536 0.9679586666666666 -0.09877833333333333
2167716467 0.969394 -0.09528999999999999
2169197398 0.974367 -0.097142
2170678329 0.9776446666666666 -0.09773033333333334
2172159260 0.9794046666666666 -0.09483766666666667
2173640191 0.9810659999999999 -0.09879066666666665
2175121122 0.9809886666666667 -0.09912633333333333
2176602053 1.00995 -0.078591
2178082984 0.9827206666666666 -0.090442
2179563915 0.9817649999999999 -0.09335
2181044846 0.9808309999999999 -0.08943599999999999
2182525777 0.9638089999999999 -0.10602233333333333
2184006708 0.9800516666666665 -0.09400266666666665
2185487639 0.978036 -0.09081666666666666
2186968570 0.9759456666666667 -0.09096466666666665
2188449501 0.970693 -0.08786166666666667
2189930432 0.967085 -0.08855433333333332
2191411363 0.9620096666666667 -0.09119066666666667
2192892294 0.9600956666666667 -0.09086666666666667
2194373225 0.9635906666666667 -0.09113266666666667
2195854156 0.967152 -0.09310333333333334
2197335087 0.970554 -0.09411833333333332
2198816018 0.9750016666666667 -0.09746966666666665
2200296949 0.9737359999999999 -0.09715700000000001
2201777880 0.9778806666666666 -0.09407466666666667
2203258811 0.9801943333333334 -0.09281166666666665
2204739742 0.9823576666666667 -0.09575866666666667
2206220673 0.9824756666666667 -0.09584699999999999
2207701604 0.9822026666666668 -0.09392533333333333
2209182535 0.9774496666666666 -0.09529666666666665
2210663466 0.9794813333333332 -0.09747333333333333
2212144397 0.9809123333333334 -0.09445300000000001
2213625328 0.9785483333333334 -0.09609766666666666
2215106259 0.9748996666666666 -0.09816833333333333
2216587190 0.96828 -0.095797
2218068121 0.9715589999999998 -0.09009466666666666
2219549052 0.9661673333333332 -0.09788066666666664
2221029983 0.9599316666666666 -0.091586
2222510914 0.95647 -0.09615366666666667
2223991845 0.9613786666666666 -0.098618
2225472776 0.9603406666666667 -0.09824333333333332
2226953707 0.9651479999999999 -0.09855933333333333
2228434638 0.9665823333333333 -0.10594533333333334
2229915569 0.9682233333333332 -0.103518
2231396500 0.9738919999999999 -0.10204066666666667
2232877431 0.9731509999999999 -0.10056933333333332
2234358362 0.973093 -0.10282133333333333
2235839293 0.975414 -0.104736
2237320224 0.9765446666666666 -0.10288233333333333
2238801155 0.974639 -0.104168
2240282086 0.974825 -0.10196133333333332
2241763017 0.9741313333333333 -0.104827
2243243948 0.9747109999999999 -0.09825533333333332
2244724879 0.970594 -0.09779133333333334
2246205810 0.9674806666666667 -0.09659733333333333
2247686741 0.9686853333333333 -0.099398
2249167672 0.960742 -0.09829933333333332
2250648603 0.9587213333333333 -0.09247699999999999
2252129534 0.9534063333333332 -0.09513533333333335
2253610465 0.9577266666666666 -0.09453533333333333
2255091396 0.9589776666666667 -0.09538433333333332
2256572327 0.9632733333333334 -0.09889366666666666
2258053258 0.964744 -0.09914866666666666
2259534189 0.9665793333333333 -0.09887633333333332
2261015120 0.9669559999999999 -0.10188866666666666
2262496051 0.974865 -0.09727133333333333
2263976982 0.9735319999999998 -0.099006
2265457913 0.9718683333333333 -0.10114166666666666
2266938844 0.9745826666666667 -0.10486466666666668
2268419775 0.9734446666666666 -0.10302133333333333
2269900706 0.977763 -0.09851033333333332
2271381637 0.970145 -0.100529
2272862568 0.973652 -0.09597666666666667
2274343499 0.9698193333333333 -0.10097033333333333
2275824430 0.9690656666666666 -0.093245
2277305361 0.966251 -0.09883333333333333
2278786292 0.9653293333333333 -0.09452566666666665
2280267223 0.9621833333333332 -0.09851966666666667
2281748154 0.956768 -0.09861233333333333
2283229085 0.9607666666666665 -0.093248
2284710016 0.9619439999999999 -0.09382666666666667
2286190947 0.9626993333333334 -0.095356
2287671878 0.9669636666666666 -0.095848
2289152809 0.9661369999999999 -0.10233133333333333
2290633740 0.9732266666666667 -0.10074566666666668
2292114671 0.9722003333333333 -0.09650733333333333
2293595602 0.9771919999999998 -0.10315633333333332
2295076533 0.9767076666666666 -0.09614466666666666
2296557464 0.9761873333333333 -0.09809033333333331
2298038395 0.973806 -0.099162
2299519326 0.9767846666666666 -0.09727599999999999
2301000257 0.9755316666666666 -0.09307
2302481188 0.9732703333333333 -0.09117733333333333
2303962119 0.9758299999999999 -0.09334666666666666
2305443050 0.9721193333333332 -0.092217
2306923981 0.9666356666666666 -0.09244599999999999
2308404912 0.9615833333333332 -0.09846266666666666
2309885843 0.9630933333333332 -0.08877333333333333
2311366774 0.9585133333333333 -0.08936766666666665
2312847705 0.9575043333333333 -0.087951
2314328636 0.9589019999999999 -0.09206199999999999
2315809567 0.963271 -0.09154199999999998
2317290498 0.9644276666666667 -0.08921433333333331
2318771429 0.9683843333333333 -0.094713
2320252360 0.963346 -0.09867866666666666
2321733291 0.9701106666666666 -0.09392133333333333
2323214222 0.9700563333333334 -0.096273
2324695153 0.9782263333333333 -0.10222866666666666
2326176084 0.9720986666666667 -0.09929533333333332
2327657015 0.9725843333333333 -0.09552466666666666
2329137946 0.9667453333333331 -0.10040333333333332
2330618877 0.9709673333333334 -0.09302633333333334
2332099808 0.9673493333333334 -0.09928499999999998
2333580739 0.9673816666666666 -0.09331066666666665
2335061670 0.9703569999999999 -0.08869933333333332
2336542601 0.9666416666666666 -0.09563166666666667
2338023532 0.960839 -0.09578533333333333
2339504463 0.9606109999999999 -0.097161
2340985394 0.9584006666666666 -0.08945066666666665
2342466325 0.9592973333333333 -0.09337966666666665
2343947256 0.9553353333333333 -0.100475
2345428187 0.9571343333333333 -0.09887866666666667
2346909118 0.9667556666666666 -0.09087166666666666
2348390049 0.966863 -0.09752566666666665
2349870980 0.9696173333333333 -0.09808299999999999
2351351911 0.9702346666666666 -0.094757
2352832842 0.9726819999999999 -0.09611666666666666
2354313773 0.9666486666666666 -0.09967833333333333
2355794704 0.969864 -0.100736
2357275635 0.9745066666666666 -0.09259833333333334
2358756566 0.9649543333333332 -0.10629766666666665
2360237497 0.9707533333333334 -0.09239966666666666
2361718428 0.9643573333333333 -0.10004566666666666
2363199359 0.9645796666666666 -0.10227733333333333
2364680290 0.9650559999999999 -0.09696966666666665
2366161221 0.9638559999999999 -0.09348633333333334
2367642152 0.9616833333333332 -0.09640233333333333
2369123083 0.9567189999999999 -0.08915333333333333
2370604014 0.9535766666666665 -0.09303133333333333
2372084945 0.948121 -0.09699566666666666
2373565876 0.9548926666666666 -0.09294533333333334
2375046807 0.9533246666666667 -0.10268933333333333
2376527738 0.958437 -0.100684
2378008669 0.9571206666666666 -0.103253
2379489600 0.9621906666666666 -0.10399266666666665
2380970531 0.9658026666666666 -0.10254066666666667
2382451462 0.9645893333333332 -0.10179966666666665
2383932393 0.9646036666666666 -0.10246166666666667
2385413324 0.9672736666666666 -0.10127599999999999
2386894255 0.9663563333333333 -0.10112066666666666
2388375186 0.9658530000000001 -0.100853
2389856117 0.9680593333333333 -0.09882966666666666
2391337048 0.9638359999999999 -0.102004
2392817979 0.9624793333333335 -0.09714266666666665
2394298910 0.9619516666666668 -0.10546666666666667
2395779841 0.9580996666666666 -0.10724433333333333
2397260772 0.9594563333333334 -0.09781633333333334
2398741703 0.9582166666666666 -0.09908466666666667
2400222634 0.9565996666666666 -0.09925033333333333
2401703565 0.9471946666666666 -0.103037
2403184496 0.9522286666666666 -0.09866466666666665
2404665427 0.9522683333333333 -0.10552666666666666
2406146358 0.955053 -0.110372
2407627289 0.9590056666666666 -0.10442133333333332
2409108220 0.959206 -0.10865333333333334
2410589151 0.963733 -0.10698433333333332
2412070082 0.9643763333333333 -0.10161333333333333
2413551013 0.9666583333333333 -0.10639533333333334
2415031944 0.9685493333333333 -0.10552066666666667
2416512875 0.9667106666666667 -0.10567033333333332
2417993806 0.964229 -0.10708633333333334
2419474737 0.9644593333333333 -0.09978366666666666
2420955668 0.9650146666666666 -0.099398
2422436599 0.963453 -0.10413399999999998
2423917530 0.9626486666666666 -0.099858
2425398461 0.9579156666666666 -0.10876233333333332
2426879392 0.9512886666666667 -0.11731799999999999
2428360323 0.962332 -0.10033466666666666
2429841254 0.9499256666666667 -0.10497466666666666
2431322185 0.9449206666666666 -0.10357299999999998
2432803116 0.9505936666666666 -0.10367633333333333
2434284047 0.951886 -0.10887399999999998
2435764978 0.955047 -0.11297066666666666
2437245909 0.9596586666666667 -0.10604999999999999
2438726840 0.9610369999999999 -0.10876833333333333
2440207771 0.9621476666666666 -0.11338300000000001
2441688702 0.9647016666666667 -0.10681233333333331
2443169633 0.9640686666666666 -0.11194899999999999
2444650564 0.968152 -0.11411099999999999
2446131495 0.96557 -0.11159033333333332
2447612426 0.9711626666666666 -0.10282433333333332
2449093357 0.9694146666666665 -0.111774
2450574288 0.9641153333333332 -0.11297866666666667
2452055219 0.965527 -0.10571399999999999
2453536150 0.9663723333333333 -0.11263333333333334
2455017081 0.9640693333333333 -0.10764599999999998
2456498012 0.9607876666666666 -0.10612166666666667
2457978943 0.952219 -0.105625
2459459874 0.957298 -0.10853633333333332
2460940805 0.9533803333333333 -0.11459333333333332
2462421736 0.9523809999999999 -0.10918166666666665
2463902667 0.9567763333333335 -0.11012133333333332
2465383598 0.9568469999999999 -0.10353366666666666
2466864529 0.964818 -0.105517
2468345460 0.9634623333333333 -0.109957
2469826391 0.9673939999999999 -0.10684199999999999
2471307322 0.968981 -0.11053233333333332
2472788253 0.9710329999999999 -0.11157366666666665
2474269184 0.9745623333333333 -0.10769933333333333
2475750115 0.9762126666666667 -0.108567
2477231046 0.9729099999999999 -0.11284699999999999
2478711977 0.9719963333333334 -0.107859
2480192908 0.97788 -0.10339633333333333
2481673839 0.9715306666666665 -0.11157999999999998
2483154770 0.9732416666666667 -0.10047666666666667
2484635701 0.9673039999999999 -0.10110866666666665
2486116632 0.9645579999999999 -0.09969166666666665
2487597563 0.9608486666666667 -0.09720066666666667
2489078494 0.957687 -0.10445733333333332
2490559425 0.9585986666666667 -0.10243533333333334
2492040356 0.9562903333333332 -0.10437533333333333
2493521287 0.9605409999999999 -0.10313333333333333
2495002218 0.9669706666666666 -0.11103333333333333
2496483149 0.961712 -0.10196699999999999
2497964080 0.971892 -0.10039333333333333
2499445011 0.9697556666666666 -0.10780566666666665
2500925942 0.9703689999999999 -0.10261433333333332
2502406873 0.9755133333333332 -0.10334466666666665
2503887804 0.9744876666666666 -0.09670266666666666
2505368735 0.9759746666666667 -0.10783299999999998
2506849666 0.9741703333333334 -0.09582433333333332
2508330597 0.9754263333333333 -0.10212366666666667
2509811528 0.971835 -0.09712933333333332
2511292459 0.9754216666666666 -0.10138733333333333
2512773390 0.969862 -0.09391466666666666
2514254321 0.9694216666666666 -0.10045066666666666
2515735252 0.964568 -0.08976566666666666
2517216183 0.9639046666666666 -0.09423
2518697114 0.9565093333333332 -0.09202933333333332
2520178045 0.9521053333333331 -0.09515833333333332
2521658976 0.9477599999999999 -0.093692
2523139907 0.9499586666666666 -0.09544166666666666
2524620838 0.955279 -0.09836666666666667
2526101769 0.9609573333333332 -0.09414933333333333
2527582700 0.9613999999999999 -0.10179633333333334
2529063631 0.9648953333333333 -0.09521799999999998
2530544562 0.9652526666666665 -0.106014
2532025493 0.9671940000000001 -0.10504433333333332
2533506424 0.9671453333333333 -0.10913099999999999
2534987355 0.9693259999999999 -0.10562866666666666
2536468286 0.9712543333333334 -0.10898966666666667
2537949217 0.9700053333333334 -0.10914399999999999
2539430148 0.9720966666666666 -0.108282
2540911079 0.9704523333333334 -0.10991566666666666
2542392010 0.965419 -0.110809
2543872941 0.96515 -0.111861
2545353872 0.9653079999999999 -0.104735
2546834803 0.956523 -0.10718166666666665
2548315734 0.95748 -0.11391233333333331
2549796665 0.9563269999999999 -0.11440966666666666
2551277596 0.951005 -0.107892
2552758527 0.9562153333333333 -0.11089333333333332
2554239458 0.9599426666666666 -0.11163799999999999
2555720389 0.9600556666666665 -0.11222399999999999
2557201320 0.9620513333333333 -0.11263466666666666
2558682251 0.9647066666666666 -0.11229166666666668
2560163182 0.967043 -0.11406533333333332
2561644113 0.9649966666666666 -0.11572333333333332
2563125044 0.970612 -0.11133066666666666
2564605975 0.9688206666666666 -0.11527
2566086906 0.9689019999999999 -0.112342
2567567837 0.966234 -0.11063233333333333
2569048768 0.9693856666666667 -0.11149066666666665
2570529699 0.9682353333333333 -0.11525333333333333
2572010630 0.9659953333333333 -0.112745
2573491561 0.9642136666666665 -0.107531
2574972492 0.9618336666666667 -0.10898833333333333
2576453423 0.957015 -0.10641400000000001
2577934354 0.9570086666666666 -0.10393133333333333
2579415285 0.9529163333333333 -0.10517333333333331
2580896216 0.9482113333333333 -0.10655099999999998
2582377147 0.9459893333333333 -0.10913866666666666
2583858078 0.9528053333333333 -0.11412999999999998
2585339009 0.9570026666666666 -0.11457799999999999
2586819940 0.9587289999999999 -0.10895866666666666
2588300871 0.9605819999999998 -0.11696033333333333
2589781802 0.9578703333333333 -0.11716599999999999
2591262733 0.9603629999999999 -0.116871
2592743664 0.9643666666666666 -0.11098166666666666
2594224595 0.9621223333333333 -0.11597166666666665
2595705526 0.9640756666666667 -0.11262166666666665
2597186457 0.964294 -0.11330033333333334
2598667388 0.9639733333333333 -0.11190033333333334
2600148319 0.9634746666666667 -0.10837366666666666
2601629250 0.9627523333333332 -0.109077
2603110181 0.960261 -0.10791933333333333
2604591112 0.9549523333333334 -0.113936
2606072043 0.9546720000000001 -0.10939933333333332
2607552974 0.951402 -0.10767099999999999
2609033905 0.9480186666666667 -0.10837399999999998
2610514836 0.9467233333333334 -0.10538833333333333
2611995767 0.9423519999999999 -0.107218
2613476698 0.9468683333333333 -0.11038699999999999
2614957629 0.9511023333333333 -0.11109266666666665
2616438560 0.9530356666666666 -0.11250666666666666
2617919491 0.9619456666666666 -0.11097933333333333
2619400422 0.9553566666666666 -0.11400333333333335
2620881353 0.9564489999999999 -0.11207566666666666
2622362284 0.9564226666666666 -0.11668599999999998
2623843215 0.9617789999999999 -0.11596633333333334
2625324146 0.9566033333333334 -0.11358233333333334
2626805077 0.9602136666666665 -0.11347633333333332
2628286008 0.960383 -0.11217533333333332
2629766939 0.9576516666666667 -0.12081366666666667
2631247870 0.9575896666666666 -0.11561466666666667
2632728801 0.9560153333333333 -0.11555366666666667
2634209732 0.9528993333333333 -0.11853966666666667
2635690663 0.9531733333333332 -0.11135266666666666
2637171594 0.9497169999999999 -0.118513
2638652525 0.944544 -0.11761533333333332
2640133456 0.9416946666666666 -0.116299
2641614387 0.9384856666666666 -0.12101033333333333
2643095318 0.9391186666666667 -0.11412066666666666
2644576249 0.9489036666666666 -0.11733633333333333
2646057180 0.9480256666666667 -0.11667
2647538111 0.950548 -0.11693633333333334
2649019042 0.9565199999999999 -0.12116666666666667
2650499973 0.9568096666666667 -0.11873
2651980904 0.9566606666666666 -0.11605666666666666
2653461835 0.948372 -0.12543133333333334
2654942766 0.954947 -0.12302099999999999
2656423697 0.9543013333333334 -0.11817933333333333
2657904628 0.9592603333333334 -0.11498199999999999
2659385559 0.9535573333333334 -0.11762933333333332
2660866490 0.9596976666666667 -0.11543033333333333
2662347421 0.9558070000000001 -0.11720766666666667
2663828352 0.953119 -0.11319833333333332
2665309283 0.9479659999999999 -0.11834733333333333
2666790214 0.9440336666666665 -0.10920599999999998
2668271145 0.9435533333333332 -0.11189333333333332
2669752076 0.9414279999999999 -0.11181599999999998
2671233007 0.9373323333333332 -0.11529999999999999
2672713938 0.9401143333333333 -0.11704699999999998
2674194869 0.9425266666666667 -0.11891933333333334
2675675800 0.9463699999999999 -0.11633533333333335
2677156731 0.9547393333333332 -0.11489733333333332
2678637662 0.9572876666666668 -0.11934800000000001
2680118593 0.9544446666666666 -0.11850766666666668
2681599524 0.9542966666666667 -0.11451866666666666
2683080455 0.953588 -0.12065233333333332
2684561386 0.9570206666666665 -0.117479
2686042317 0.9633403333333332 -0.11302699999999999
2687523248 0.961984 -0.11691733333333333
2689004179 0.9607533333333333 -0.12129399999999999
2690485110 0.9635116666666665 -0.11756533333333333
2691966041 0.958107 -0.12214199999999999
2693446972 0.9576196666666666 -0.120451
2694927903 0.9551956666666667 -0.11820533333333333
2696408834 0.953859 -0.12232266666666666
2697889765 0.9546399999999999 -0.11300766666666665
2699370696 0.9493063333333334 -0.11785400000000001
2700851627 0.9502793333333333 -0.11779099999999999
2702332558 0.9481669999999999 -0.11656866666666667
2703813489 0.9527556666666667 -0.12093066666666666
2705294420 0.9532919999999999 -0.12386833333333333
2706775351 0.9640453333333332 -0.12103900000000001
2708256282 0.962485 -0.11991066666666667
2709737213 0.9664323333333332 -0.11595499999999999
2711218144 0.9682049999999999 -0.12224033333333334
2712699075 0.9624203333333333 -0.11774966666666667
2714180006 0.9638753333333333 -0.116671
2715660937 0.9658236666666667 -0.11953933333333333
2717141868 0.9665606666666666 -0.11571966666666667
2718622799 0.96961 -0.11590066666666667
2720103730 0.9638346666666666 -0.12027766666666664
2721584661 0.9674989999999999 -0.10873966666666665
2723065592 0.9743376666666667 -0.09568166666666666
2724546523 0.9549036666666666 -0.11051933333333333
2726027454 0.9618923333333332 -0.10100966666666666
2727508385 0.9538933333333333 -0.10791033333333333
2728989316 0.9551803333333334 -0.10736866666666667
2730470247 0.9355463333333334 -0.11347333333333333
2731951178 0.9537433333333333 -0.10207333333333332
2733432109 0.9619243333333333 -0.10223766666666667
2734913040 0.9591873333333334 -0.10208399999999998
2736393971 0.968612 -0.10006033333333332
2737874902 0.9665443333333333 -0.10370299999999999
2739355833 0.9583883333333333 -0.112332
2740836764 0.9706556666666667 -0.10657366666666665
2742317695 0.9652099999999999 -0.10618699999999999
2743798626 0.9672123333333333 -0.11204133333333333
2745279557 0.9682886666666667 -0.10707166666666668
2746760488 0.9606153333333333 -0.11700433333333334
2748241419 0.96005 -0.11841333333333333
2749722350 0.9605876666666666 -0.11504033333333333
2751203281 0.9528946666666667 -0.12026299999999998
2752684212 0.9534693333333333 -0.11575533333333332
2754165143 0.9505140000000001 -0.11937366666666666
2755646074 0.9484323333333334 -0.11323266666666666
2757127005 0.9456316666666666 -0.118187
2758607936 0.9454179999999999 -0.11287066666666665
2760088867 0.938466 -0.11931566666666667
2761569798 0.9434883333333334 -0.11270433333333332
2763050729 0.9416383333333332 -0.11540833333333333
2764531660 0.9445846666666666 -0.12380333333333333
2766012591 0.9532063333333334 -0.10909433333333332
2767493522 0.9531446666666665 -0.11711566666666665
2768974453 0.9524163333333334 -0.11884366666666665
2770455384 0.9567239999999999 -0.11960166666666668
2771936315 0.9531316666666667 -0.12610866666666665
2773417246 0.9624806666666667 -0.11047666666666667
2774898177 0.9524193333333333 -0.131629
2776379108 0.9539183333333333 -0.1294013333333333
2777860039 0.9488653333333332 -0.13520966666666667
2779340970 0.9493863333333332 -0.13398433333333332
2780821901 0.9552766666666666 -0.13264166666666666
2782302832 0.950718 -0.13349366666666665
2783783763 0.9444833333333333 -0.13663866666666666
2785264694 0.9465646666666667 -0.13257866666666665
2786745625 0.9420693333333334 -0.1392423333333333
2788226556 0.9428259999999999 -0.13196966666666665
2789707487 0.9338053333333334 -0.13135233333333335
2791188418 0.9324933333333334 -0.13104066666666664
2792669349 0.9384623333333334 -0.13638299999999998
2794150280 0.9454106666666666 -0.13508133333333333
2795631211 0.9469813333333332 -0.13971633333333333
2797112142 0.9507383333333334 -0.13470899999999997
2798593073 0.9521166666666666 -0.14065899999999998
2800074004 0.958185 -0.14284599999999997
2801554935 0.957252 -0.1420826666666667
2803035866 0.9616453333333332 -0.135117
2804516797 0.958592 -0.1486023333333333
2805997728 0.9625143333333332 -0.13763666666666666
2807478659 0.9602283333333334 -0.141918
2808959590 0.9582519999999999 -0.13351733333333332
2810440521 0.9583143333333333 -0.14345933333333333
2811921452 0.960552 -0.12862833333333332
2813402383 0.9556876666666666 -0.13720099999999996
2814883314 0.9587386666666666 -0.13809466666666664
2816364245 0.9518123333333334 -0.13394999999999999
2817845176 0.9508146666666667 -0.13816866666666663
2819326107 0.9476596666666667 -0.13440199999999997
2820807038 0.9396693333333332 -0.130569
2822287969 0.9426753333333333 -0.14260133333333333
2823768900 0.9438546666666667 -0.137508
2825249831 0.9513293333333334 -0.14257699999999998
2826730762 0.9513159999999999 -0.15264766666666665
2828211693 0.9605576666666666 -0.14077466666666666
2829692624 0.9583133333333334 -0.146643
2831173555 0.9648049999999999 -0.14443533333333333
2832654486 0.9631446666666666 -0.134125
2834135417 0.9706966666666667 -0.1389733333333333
2835616348 0.976213 -0.14374599999999998
2837097279 0.9785996666666665 -0.12913999999999998
2838578210 0.9744173333333332 -0.13671766666666665
2840059141 0.9686363333333332 -0.12998733333333334
2841540072 0.9722963333333332 -0.13681533333333332
2843021003 0.9690719999999999 -0.13437766666666665
2844501934 0.9640029999999999 -0.12872566666666665
2845982865 0.970119 -0.13397966666666664
2847463796 0.9623686666666667 -0.11912400000000001
2848944727 0.9537406666666666 -0.117699
2850425658 0.952641 -0.12996566666666667
2851906589 0.9563803333333333 -0.116502
2853387520 0.9622896666666666 -0.136166
2854868451 0.9578486666666667 -0.12520933333333334
2856349382 0.9640943333333333 -0.13165133333333331
2857830313 0.966493 -0.12539566666666663
2859311244 0.9627956666666666 -0.12999933333333333
2860792175 0.953846 -0.124672
2862273106 0.9612676666666666 -0.1397183333333333
2863754037 0.9703189999999999 -0.1319543333333333
2865234968 0.9713399999999999 -0.13729499999999997
2866715899 0.964208 -0.134848
2868196830 0.9698616666666666 -0.130746
2869677761 0.9630033333333332 -0.13154666666666667
2871158692 0.9678596666666667 -0.11838
2872639623 0.960331 -0.13605833333333334
2874120554 0.9616 -0.13794966666666666
2875601485 0.9583493333333332 -0.13917800000000002
2877082416 0.9511816666666666 -0.1289823333333333
2878563347 0.9502266666666667 -0.13207833333333333
2880044278 0.9443699999999999 -0.13178666666666666
2881525209 0.9441863333333332 -0.14015633333333333
2883006140 0.9461326666666667 -0.13928966666666664
2884487071 0.9498989999999999 -0.14633966666666667
2885968002 0.9549793333333333 -0.14077066666666666
2887448933 0.958204 -0.13577533333333333
2888929864 0.9604079999999999 -0.14199799999999999
2890410795 0.9517106666666667 -0.1440183333333333
2891891726 0.9678086666666667 -0.1416693333333333
2893372657 0.96583 -0.14030533333333334
2894853588 0.9624653333333333 -0.13821133333333332
2896334519 0.9587459999999999 -0.149299
2897815450 0.9570066666666667 -0.14371566666666669
2899296381 0.9579603333333333 -0.14083866666666667
2900777312 0.9598869999999999 -0.13910633333333333
2902258243 0.9543459999999999 -0.13797366666666666
2903739174 0.9529690000000001 -0.13741433333333333
2905220105 0.952437 -0.13380599999999998
2906701036 0.9419153333333333 -0.1392213333333333
2908181967 0.9423576666666666 -0.14019533333333334
2909662898 0.9417196666666667 -0.13857033333333335
2911143829 0.9403533333333334 -0.137812
2912624760 0.9456626666666665 -0.14077633333333334
2914105691 0.9456179999999998 -0.13653099999999999
2915586622 0.9514546666666668 -0.142368
2917067553 0.9482386666666667 -0.1366443333333333
2918548484 0.9561696666666666 -0.14018633333333333
2920029415 0.9535633333333333 -0.13758066666666666
2921510346 0.9544030000000001 -0.13375199999999998
2922991277 0.9563496666666667 -0.13999233333333333
2924472208 0.9537826666666667 -0.1327133333333333
2925953139 0.953692 -0.13498766666666667
2927434070 0.9574673333333333 -0.13485133333333332
2928915001 0.9601346666666666 -0.12844599999999998
2930395932 0.9526753333333332 -0.12878533333333333
2931876863 0.949429 -0.13323366666666667
2933357794 0.9489783333333334 -0.12926366666666667
2934838725 0.9460546666666666 -0.12852399999999997
2936319656 0.9459156666666667 -0.12359833333333332
2937800587 0.940701 -0.12376066666666666
2939281518 0.9358286666666666 -0.12056966666666666
2940762449 0.9355306666666667 -0.12493533333333331
2942243380 0.9384549999999999 -0.12833699999999998
2943724311 0.9421836666666668 -0.12739299999999998
2945205242 0.9455549999999999 -0.12789066666666665
2946686173 0.9426696666666665 -0.13032599999999997
2948167104 0.9468886666666665 -0.1333663333333333
2949648035 0.950499 -0.13521999999999998
2951128966 0.9472096666666667 -0.13224166666666665
2952609897 0.9498 -0.13331833333333334
2954090828 0.9533506666666667 -0.13222466666666666
2955571759 0.9551003333333333 -0.13627866666666666
2957052690 0.9524756666666667 -0.12888466666666665
2958533621 0.9513933333333333 -0.136636
2960014552 0.9475123333333333 -0.13664933333333332
2961495483 0.9469563333333333 -0.13312566666666664
2962976414 0.947297 -0.130901
2964457345 0.9432843333333333 -0.131482
2965938276 0.939597 -0.13671933333333333
2967419207 0.9397363333333333 -0.131056
2968900138 0.9335596666666666 -0.13133366666666668
2970381069 0.9324079999999999 -0.129818
2971862000 0.9348273333333333 -0.12820866666666667
2973342931 0.9383476666666667 -0.13362933333333332
2974823862 0.9397319999999999 -0.13182433333333332
2976304793 0.9445686666666666 -0.128679
2977785724 0.9456983333333333 -0.1329233333333333
2979266655 0.9489153333333333 -0.13378366666666666
2980747586 0.9500223333333333 -0.13159833333333332
2982228517 0.9498656666666667 -0.13614966666666667
2983709448 0.9507403333333333 -0.13436366666666666
2985190379 0.9509233333333333 -0.136065
2986671310 0.9491379999999998 -0.13484533333333332
2988152241 0.9517023333333332 -0.134007
2989633172 0.9482943333333334 -0.13388766666666668
2991114103 0.9482866666666667 -0.127938
2992595034 0.9453586666666666 -0.127047
2994075965 0.9438146666666666 -0.129285
2995556896 0.9424566666666667 -0.12360266666666667
2997037827 0.9387246666666667 -0.12649099999999996
2998518758 0.9352783333333333 -0.12423399999999998
2999999689 0.9331293333333333 -0.12085533333333333
