# HZ S RI R 50
10000000 0.998709 -0.0018216666666666663
11480931 1.000348 -0.0035043333333333333
12961862 1.001920333333333 -0.0048263333333333335
14442793 1.0050933333333334 -0.006019999999999999
15923724 1.0070679999999999 -0.007833
17404655 1.0094923333333332 -0.009160333333333333
18885586 1.0112003333333333 -0.010521999999999998
20366517 1.0133403333333333 -0.010801333333333333
21847448 1.0153293333333333 -0.012214666666666665
23328379 1.0154313333333331 -0.012593333333333333
24809310 1.0170333333333332 -0.012836666666666666
26290241 1.016861 -0.013156000000000001
27771172 1.0175586666666665 -0.012229333333333332
29252103 1.0169013333333334 -0.012337666666666667
30733034 1.0159806666666666 -0.011911999999999999
32213965 1.013735 -0.012239999999999997
33694896 1.012086333333333 -0.011348666666666667
35175827 1.0089759999999999 0.011285666666666666
36656758 0.963468 -0.019299666666666666
38137689 1.002807 -0.008851333333333333
39618620 0.9980079999999998 -0.014101666666666667
41099551 1.0007396666666666 -0.006465333333333333
42580482 1.005211 -0.011759
44061413 1.0084556666666666 -0.03568433333333333
45542344 1.0117063333333332 -0.002121333333333333
47023275 1.014648 -0.015979
48504206 1.0151813333333335 0.013488666666666666
49985137 1.018776 -0.006201666666666666
51466068 1.0194576666666666 -0.018175
52946999 1.0200429999999998 -0.027992999999999997
54427930 1.0211346666666665 -0.018491666666666663
55908861 1.021128 -0.018777333333333333
57389792 1.019972333333333 -0.005138333333333333
58870723 1.0195926666666666 -0.038127666666666664
60351654 1.0180726666666666 -0.017584666666666665
61832585 1.0160023333333332 -0.017026666666666666
63313516 1.013478333333333 -0.019959666666666667
64794447 1.0101763333333333 -0.015780333333333334
66275378 1.0070876666666664 -0.05389233333333333
67756309 1.0030026666666667 -0.06444
69237240 0.9988789999999999 -0.014326666666666665
70718171 0.9993966666666667 0.014627666666666667
72199102 1.0015109999999998 -0.08823699999999998
73680033 1.0065163333333333 -0.018625999999999997
75160964 1.0056583333333333 0.05386933333333333
76641895 1.0106089999999999 -0.021346999999999998
78122826 1.0138006666666666 -0.021401999999999997
79603757 1.012802 0.04791966666666667
81084688 1.0077566666666666 0.111286
82565619 1.0173243333333333 -0.02284133333333333
84046550 1.0168676666666665 -0.022992
85527481 1.0169263333333332 -0.055501999999999996
87008412 1.01716 -0.022638
88489343 0.9758553333333333 -0.06336533333333333
89970274 1.013986 -0.04111033333333333
91451205 1.013906 -0.022305666666666668
92932136 1.0104406666666668 -0.031152666666666665
94413067 1.0080423333333333 -0.007175666666666665
95893998 1.0056983333333334 -0.021497999999999996
97374929 1.0018463333333334 -0.017479666666666664
98855860 0.9977886666666667 -0.020763999999999998
100336791 0.9985679999999999 -0.021289666666666665
101817722 1.0008203333333332 -0.02336833333333333
103298653 1.004136 -0.023412000000000002
104779584 1.0070946666666667 -0.025557333333333335
106260515 1.0082486666666668 -0.025181666666666665
107741446 1.0110983333333332 -0.025040999999999997
109222377 1.0113543333333332 -0.026883666666666667
110703308 1.0131723333333331 -0.026935333333333332
112184239 1.014031333333333 -0.02658633333333333
113665170 1.0145716666666664 -0.026778666666666662
115146101 1.0134243333333333 -0.026827999999999998
116627032 1.0139423333333333 -0.026593
118107963 1.012499 -0.027141666666666665
119588894 1.0115089999999998 -0.026056666666666665
121069825 1.009754 -0.025881
122550756 1.0090299999999999 -0.02600533333333333
124031687 1.0058383333333332 -0.024822999999999998
125512618 1.0029313333333332 -0.025887
126993549 0.9995266666666665 -0.025235333333333335
128474480 0.9958493333333334 -0.026640666666666663
129955411 0.9946213333333334 -0.025570333333333334
131436342 0.9979866666666666 -0.026242
132917273 1.0025566666666665 -0.026864666666666665
134398204 1.0065063333333333 -0.028164666666666664
135879135 0.9965863333333334 -0.039945999999999995
137360066 0.9995926666666666 -0.03975633333333334
138840997 1.0015286666666665 -0.039277
140321928 1.0026976666666665 -0.03896999999999999
141802859 1.004900333333333 -0.039206
143283790 1.0059456666666666 -0.038116
144764721 1.006940333333333 -0.03751433333333333
146245652 1.0076359999999998 -0.03660633333333333
147726583 1.0070093333333334 -0.035654
149207514 1.0070983333333332 -0.03543333333333333
150688445 1.006402 -0.03484633333333333
152169376 1.0047879999999998 -0.033703333333333335
153650307 1.0037113333333332 -0.032809
155131238 1.0003506666666664 -0.03280966666666666
156612169 0.998315 -0.03146366666666667
158093100 0.9954916666666667 -0.031314999999999996
159574031 0.9920559999999999 -0.030636666666666663
161054962 0.9959729999999999 -0.031620666666666665
162535893 0.9985739999999999 -0.03173499999999999
164016824 1.0013896666666666 -0.03221533333333333
165497755 1.0041263333333332 -0.03306766666666666
166978686 1.0066769999999998 -0.03273566666666666
168459617 1.0081936666666667 -0.03230433333333333
169940548 1.008359 -0.032873999999999994
171421479 1.00995 -0.03285
172902410 1.0104216666666668 -0.032354666666666664
174383341 1.009931 -0.03285733333333333
175864272 1.0100149999999999 -0.032176666666666666
177345203 1.0094136666666667 -0.032183666666666666
178826134 1.0070139999999999 -0.032517
180307065 1.0055353333333332 -0.032647333333333334
181787996 1.0043166666666665 -0.033028666666666665
183268927 1.0020503333333333 -0.03276
184749858 0.9989473333333333 -0.033363333333333335
186230789 0.9959203333333333 -0.03329433333333333
187711720 0.9926103333333334 -0.034835
189192651 0.989013 -0.035608999999999995
190673582 0.9914243333333334 -0.036257
192154513 0.9944363333333333 -0.03627
193635444 0.9847069999999999 -0.05676666666666667
195116375 1.000667 -0.03570733333333333
196597306 1.0032356666666664 -0.036171999999999996
198078237 1.0049746666666666 -0.03581033333333333
199559168 1.0067199999999998 -0.035671666666666664
201040099 1.0077239999999998 -0.035776666666666665
202521030 1.0084543333333333 -0.035881333333333335
204001961 1.0089146666666666 -0.03554033333333333
205482892 1.0079213333333332 -0.03510866666666666
206963823 1.0071143333333332 -0.03556466666666666
208444754 1.006147 -0.03511333333333334
209925685 1.0049923333333333 -0.03519066666666666
211406616 1.0025746666666668 -0.03557066666666667
212887547 1.0008376666666667 -0.03549733333333333
214368478 0.9973000000000001 -0.037395
215849409 0.9943089999999999 -0.03732033333333333
217330340 0.9914723333333333 -0.03777966666666666
218811271 0.9875073333333333 -0.038733666666666666
220292202 0.988923 -0.040081000000000006
221773133 0.9925543333333332 -0.03914466666666666
223254064 0.9968803333333334 -0.039445666666666664
224734995 0.9984713333333333 -0.04012466666666667
226215926 1.0024656666666667 -0.04010999999999999
227696857 1.0034156666666667 -0.03972033333333333
229177788 1.007172 -0.038807999999999995
230658719 1.0057496666666665 -0.03927166666666666
232139650 1.00707 -0.039293666666666664
233620581 1.0071403333333333 -0.03972966666666666
235101512 1.0021183333333332 -0.05788633333333333
236582443 1.0063063333333333 -0.038957000000000006
238063374 1.0057646666666664 -0.03895433333333333
239544305 1.0032389999999998 -0.03883966666666666
241025236 1.0017793333333334 -0.039592666666666665
242506167 0.999605 -0.040222999999999995
243987098 0.9959676666666667 -0.04053466666666666
245468029 0.9925609999999999 -0.040633333333333334
246948960 0.9895506666666667 -0.042459000000000004
248429891 0.9847526666666667 -0.04343066666666667
249910822 0.9850239999999999 -0.043255333333333326
251391753 0.9897130000000001 -0.04387366666666666
252872684 0.9930716666666666 -0.044511
254353615 0.9961436666666665 -0.044864666666666664
255834546 0.9993816666666666 -0.044992333333333336
257315477 1.0016776666666667 -0.04440899999999999
258796408 1.0037896666666666 -0.04487066666666667
260277339 1.0057489999999998 -0.044709
261758270 1.0059973333333332 -0.04399199999999999
263239201 1.007238333333333 -0.042826666666666666
264720132 1.0065106666666666 -0.043989
266201063 1.0061653333333331 -0.04324399999999999
267681994 1.0050696666666665 -0.043096333333333334
269162925 1.0038299999999998 -0.043382333333333335
270643856 1.000919 -0.043609666666666665
272124787 0.9989363333333332 -0.04353833333333333
273605718 0.9958 -0.043708
275086649 0.9915593333333332 -0.045541
276567580 0.9876453333333333 -0.04545833333333333
278048511 0.983889 -0.045792
279529442 0.9820026666666666 -0.04706833333333333
281010373 0.9874346666666667 -0.04177299999999999
282491304 0.9901443333333333 -0.047413666666666666
283972235 0.9952253333333334 -0.04213666666666666
285453166 0.9977193333333334 -0.04864666666666667
286934097 1.0009756666666665 -0.043199999999999995
288415028 1.0011466666666666 -0.04871333333333333
289895959 1.00409 -0.04270666666666666
291376890 1.0047169999999999 -0.04678566666666667
292857821 1.0058873333333334 -0.041872999999999994
294338752 1.004474333333333 -0.047222333333333325
295819683 1.0044796666666667 -0.04015833333333333
297300614 1.0026019999999998 -0.047010333333333335
298781545 1.0019446666666667 -0.04039333333333334
300262476 0.9983959999999998 -0.04602166666666666
301743407 0.9964170000000001 -0.04047866666666666
303224338 0.9925763333333333 -0.04609133333333333
304705269 0.989576 -0.04089833333333333
306186200 0.9842356666666667 -0.047397333333333326
307667131 0.9821713333333333 -0.04256566666666667
309148062 0.9757406666666666 -0.049709
310628993 0.980032 -0.050173999999999996
312109924 0.985679 -0.05178633333333333
313590855 0.9879656666666667 -0.051787
315071786 0.9913086666666666 -0.05266966666666667
316552717 0.995369 -0.05248599999999999
318033648 0.9968243333333333 -0.051271333333333335
319514579 0.9983973333333332 -0.052732
320995510 1.0003453333333332 -0.05271733333333334
322476441 1.0010706666666667 -0.05259166666666666
323957372 0.9999159999999999 -0.05187933333333333
325438303 1.0011189999999999 -0.052217999999999994
326919234 0.9999703333333333 -0.05200733333333333
328400165 0.9982293333333333 -0.05233566666666667
329881096 0.9969023333333333 -0.05150366666666667
331362027 0.990414 -0.06319699999999999
332842958 0.9906026666666665 -0.05675166666666667
334323889 0.9872006666666666 -0.051271333333333335
335804820 0.9839033333333334 -0.05219566666666667
337285751 0.981379 -0.041336333333333336
338766682 0.9759003333333333 -0.047002666666666665
340247613 0.9790760000000001 -0.04907333333333333
341728544 0.9828409999999999 -0.049154
343209475 1.0225916666666666 -0.027986666666666667
344690406 0.9897459999999999 -0.05155533333333333
346171337 0.9931136666666666 -0.05200533333333333
347652268 0.9946853333333332 -0.051923
349133199 0.9971346666666665 -0.051713999999999996
350614130 0.9989156666666666 -0.05295333333333333
352095061 1.0003503333333332 -0.05094166666666666
353575992 0.9996390000000002 -0.051292000000000004
355056923 0.9990466666666666 -0.050864
356537854 0.9987123333333333 -0.048988666666666666
358018785 0.9968606666666666 -0.05004666666666666
359499716 0.9931443333333334 -0.05661533333333333
360980647 0.992658 -0.050013
362461578 0.9881956666666666 -0.05581166666666666
363942509 0.9861596666666665 -0.050130999999999995
365423440 0.9814346666666666 -0.055575
366904371 0.9779846666666666 -0.049525333333333324
368385302 0.9719303333333333 -0.055321333333333333
369866233 0.9745866666666667 -0.051333
371347164 0.9777283333333333 -0.058719333333333325
372828095 0.9818066666666666 -0.05323633333333333
374309026 0.9853326666666666 -0.060337
375789957 0.9884713333333333 -0.05409166666666666
377270888 0.989819 -0.061090000000000005
378751819 0.99259 -0.05579233333333333
380232750 0.992726 -0.06066566666666667
381713681 0.9953056666666666 -0.054655999999999996
383194612 0.9941769999999999 -0.060465
384675543 0.9939723333333333 -0.060783333333333335
386156474 0.9932219999999999 -0.060109
387637405 0.9921423333333333 -0.061445
389118336 0.9909453333333333 -0.05971833333333333
390599267 0.9881523333333334 -0.060018666666666665
392080198 0.982309 -0.07047366666666666
393561129 0.9826003333333333 -0.059557
395042060 0.978919 -0.05808833333333333
396522991 0.9751003333333333 -0.05810933333333333
398003922 0.9704649999999999 -0.05879466666666666
399484853 0.9705869999999999 -0.05872633333333333
400965784 0.974442 -0.06001599999999999
402446715 0.9782966666666666 -0.06145133333333334
403927646 0.9812606666666667 -0.06345200000000001
405408577 0.9842726666666667 -0.063994
406889508 0.9856043333333334 -0.064243
408370439 0.9882929999999999 -0.06313733333333332
409851370 0.9891536666666667 -0.062885
411332301 0.9905573333333333 -0.06366666666666666
412813232 0.991482 -0.06290066666666666
414294163 0.9904433333333333 -0.06319
415775094 0.9908603333333332 -0.06276266666666666
417256025 0.989757 -0.062043333333333325
418736956 0.9876866666666666 -0.061832
420217887 0.9855786666666667 -0.061621666666666665
421698818 0.9833686666666666 -0.05941833333333333
423179749 0.9804049999999999 -0.06011166666666666
424660680 0.9764443333333332 -0.05916666666666666
426141611 0.9736529999999999 -0.057895666666666665
427622542 0.969069 -0.05819133333333333
429103473 0.9669813333333332 -0.058338333333333325
430584404 0.9715273333333334 -0.05938366666666667
432065335 0.9738196666666666 -0.062043666666666664
433546266 0.9780046666666666 -0.061008999999999994
435027197 0.9786919999999999 -0.06258
436508128 0.9812816666666666 -0.06335466666666666
437989059 0.9834203333333333 -0.06321133333333333
439469990 0.9853566666666668 -0.061899666666666665
440950921 0.9855289999999999 -0.06299266666666667
442431852 0.9861613333333332 -0.063778
443912783 0.9862869999999999 -0.062816
445393714 0.9863716666666666 -0.06260166666666667
446874645 0.9841546666666666 -0.061366333333333335
448355576 0.9834183333333334 -0.06224666666666667
449836507 0.9810103333333333 -0.06231233333333334
451317438 0.9784973333333333 -0.061202999999999994
452798369 0.9756609999999999 -0.061096
454279300 0.9736173333333333 -0.06050133333333333
455760231 0.9692413333333333 -0.060569333333333336
457241162 0.963574 -0.059900999999999996
458722093 0.962796 -0.05992333333333333
460203024 0.9640783333333333 -0.06189466666666666
461683955 0.9685876666666666 -0.06294266666666666
463164886 0.9711816666666666 -0.06356
464645817 0.9743386666666667 -0.06466066666666666
466126748 0.9764166666666665 -0.06359833333333334
467607679 0.9781353333333334 -0.06480966666666665
469088610 0.978394 -0.064987
470569541 0.979525 -0.06579133333333333
472050472 0.9792513333333333 -0.06541433333333332
473531403 0.9806303333333333 -0.06429733333333333
475012334 0.9799096666666667 -0.06440399999999999
476493265 0.9794596666666667 -0.06432066666666666
477974196 0.9774336666666665 -0.06395133333333332
479455127 1.0586126666666666 -0.02194166666666667
480936058 0.9728393333333332 -0.06396033333333331
482416989 0.9704966666666667 -0.06405733333333333
483897920 0.9674486666666666 -0.06423733333333333
485378851 0.9640693333333333 -0.06346466666666667
486859782 0.9605746666666667 -0.06270833333333332
488340713 0.9560116666666667 -0.063258
489821644 0.9597153333333333 -0.06481066666666666
491302575 0.9630799999999999 -0.06496733333333334
492783506 0.9672653333333333 -0.06501266666666666
494264437 0.9698273333333334 -0.06642366666666666
495745368 0.9722313333333333 -0.06656733333333333
497226299 0.9742573333333333 -0.06630733333333333
498707230 0.9766459999999999 -0.06689333333333333
500188161 0.9770843333333332 -0.06588566666666666
501669092 0.97793 -0.06547466666666665
503150023 0.9786796666666666 -0.06497900000000001
504630954 0.9788866666666666 -0.06399733333333332
506111885 0.9785633333333333 -0.066438
507592816 0.9779173333333333 -0.06372866666666666
509073747 0.975471 -0.06347833333333333
510554678 0.9740063333333332 -0.06341333333333332
512035609 0.9722999999999999 -0.06169266666666666
513516540 0.9695973333333333 -0.06115366666666666
514997471 0.966019 -0.06039566666666666
516478402 0.9624143333333334 -0.062611
517959333 0.959081 -0.06167533333333333
519440264 0.9609479999999999 -0.06279399999999999
520921195 0.9640813333333332 -0.062914
522402126 0.9680079999999999 -0.06321233333333333
523883057 0.9706436666666667 -0.06490199999999999
525363988 0.9738046666666667 -0.06381866666666666
526844919 0.9748136666666667 -0.064966
528325850 0.9766056666666666 -0.064226
529806781 0.9776683333333331 -0.06519633333333333
531287712 0.9783243333333334 -0.06517933333333333
532768643 0.9793813333333332 -0.06499833333333334
534249574 0.9791843333333334 -0.06423133333333332
535730505 0.977678 -0.06551299999999999
537211436 0.9773473333333333 -0.06494799999999999
538692367 0.9749603333333333 -0.06506799999999999
540173298 0.9734116666666666 -0.06458966666666666
541654229 0.9697916666666667 -0.063885
543135160 0.9689229999999999 -0.06349333333333332
544616091 0.9635476666666666 -0.06514433333333333
546097022 0.9607933333333333 -0.065395
547577953 0.9565693333333334 -0.066469
549058884 0.9582919999999999 -0.06660666666666666
550539815 0.961655 -0.06771366666666666
552020746 0.9644876666666665 -0.06718299999999999
553501677 0.9687353333333333 -0.06723533333333333
554982608 0.9705013333333332 -0.06775066666666665
556463539 0.9734456666666667 -0.06693766666666667
557944470 0.9752349999999999 -0.067998
559425401 0.9776393333333333 -0.06705366666666668
560906332 0.9777959999999999 -0.06612699999999999
562387263 0.9781866666666665 -0.06706399999999998
563868194 0.9787433333333333 -0.06735066666666667
565349125 0.9786763333333333 -0.06702833333333333
566830056 0.9764093333333334 -0.06622333333333333
568310987 0.9758386666666665 -0.06752633333333333
569791918 0.9719786666666668 -0.06541066666666667
571272849 0.970525 -0.06457966666666666
572753780 0.9682569999999999 -0.06537799999999999
574234711 0.9646349999999999 -0.06507833333333332
575715642 0.9613183333333333 -0.06426699999999999
577196573 0.9569329999999999 -0.06476799999999999
578677504 0.9565773333333333 -0.06527566666666665
580158435 0.9597083333333334 -0.06645566666666666
581639366 0.9649496666666666 -0.06664333333333333
583120297 0.9672700000000001 -0.06814
584601228 0.9706889999999999 -0.06869566666666667
586082159 0.972571 -0.06902666666666665
587563090 0.9742940000000001 -0.06836466666666666
589044021 0.9756846666666666 -0.06974966666666667
590524952 0.9771513333333333 -0.06872166666666665
592005883 0.9775426666666667 -0.06944866666666666
593486814 0.977842 -0.06726366666666667
594967745 0.9781209999999999 -0.068369
596448676 0.9756969999999999 -0.06688366666666667
597929607 0.9738336666666667 -0.06669766666666667
599410538 0.9721386666666666 -0.06728966666666666
600891469 0.9704276666666667 -0.06698899999999999
602372400 0.9660976666666665 -0.06688166666666666
603853331 0.9641423333333333 -0.06579399999999999
605334262 0.9602056666666666 -0.06571766666666666
606815193 0.9553043333333333 -0.06706766666666666
608296124 0.9518426666666666 -0.067449
609777055 0.9554766666666665 -0.06918033333333332
611257986 0.960798 -0.070683
612738917 0.9643363333333334 -0.07063366666666666
614219848 0.9670806666666666 -0.06972899999999999
615700779 0.9701633333333334 -0.07087966666666667
617181710 0.9723126666666666 -0.07222599999999998
618662641 0.9736856666666666 -0.07040033333333334
620143572 0.9757616666666666 -0.07144033333333333
621624503 0.9762543333333333 -0.071874
623105434 0.975926 -0.06954966666666668
624586365 0.9765196666666666 -0.069841
626067296 0.974593 -0.06957933333333333
627548227 0.974372 -0.06686733333333333
629029158 0.9725483333333332 -0.06833766666666666
630510089 0.9697663333333333 -0.06796733333333332
631991020 0.96644 -0.06824866666666665
633471951 0.9636216666666666 -0.06858833333333332
634952882 0.9599696666666665 -0.06756933333333333
636433813 0.9547183333333333 -0.068355
637914744 0.9505166666666667 -0.06731766666666666
639395675 0.9528749999999999 -0.07416266666666665
640876606 0.9601966666666666 -0.06483366666666666
642357537 0.9637463333333334 -0.06351466666666666
643838468 0.9660759999999999 -0.06570999999999999
645319399 0.9669773333333334 -0.07227266666666667
646800330 0.9748333333333333 -0.05938366666666667
648281261 0.9757583333333333 -0.060512333333333335
649762192 0.9768109999999999 -0.06200866666666667
651243123 0.9779426666666666 -0.060226666666666664
652724054 0.9779666666666667 -0.06171233333333333
654204985 0.9774266666666667 -0.05948233333333333
655685916 0.9770696666666666 -0.059997
657166847 0.9763266666666667 -0.059859
658647778 0.974671 -0.059584000000000005
660128709 0.9719843333333333 -0.057883
661609640 0.9696123333333333 -0.057752000000000005
663090571 0.969338 -0.04541066666666666
664571502 0.9588796666666666 -0.068327
666052433 0.9554063333333334 -0.06900899999999999
667533364 0.9508559999999999 -0.06714566666666666
669014295 0.9528209999999999 -0.069446
670495226 0.9573533333333333 -0.07010666666666666
671976157 0.961499 -0.07052499999999998
673457088 0.9637893333333333 -0.07119533333333333
674938019 0.9664293333333333 -0.07299899999999998
676418950 0.9681349999999999 -0.075166
677899881 0.97237 -0.067215
679380812 0.9715156666666666 -0.07244433333333333
680861743 0.9726936666666666 -0.07344966666666666
682342674 0.9729866666666667 -0.072536
683823605 0.973677 -0.07102166666666665
685304536 0.972629 -0.07217366666666666
686785467 0.971131 -0.07237833333333332
688266398 0.970132 -0.07029066666666667
689747329 0.9685436666666667 -0.06852233333333332
691228260 0.9653463333333333 -0.06910566666666665
692709191 0.9617290000000001 -0.067823
694190122 0.9574063333333332 -0.06973266666666667
695671053 0.955091 -0.06890366666666665
697151984 0.950429 -0.06786233333333333
698632915 0.9513243333333332 -0.06839899999999999
700113846 0.9547236666666665 -0.07274599999999999
701594777 0.957851 -0.07037866666666666
703075708 0.9607566666666667 -0.07292466666666667
704556639 0.9637359999999999 -0.07313299999999998
706037570 0.9656529999999999 -0.072476
707518501 0.9665493333333333 -0.07377066666666666
708999432 0.9701256666666667 -0.07414533333333334
710480363 0.9693890000000001 -0.07256833333333333
711961294 0.9689159999999999 -0.07297333333333333
713442225 0.9712493333333333 -0.07170133333333333
714923156 0.9690643333333334 -0.07272999999999999
716404087 0.9678523333333333 -0.071442
717885018 0.965401 -0.072652
719365949 0.966108 -0.07206399999999999
720846880 0.9617653333333334 -0.07102666666666665
722327811 0.9584816666666667 -0.07077999999999998
723808742 0.9560863333333334 -0.070239
725289673 0.9532036666666667 -0.06992733333333333
726770604 0.9487186666666665 -0.06874933333333333
728251535 0.9469146666666666 -0.07043899999999999
729732466 0.9523263333333333 -0.07124766666666667
731213397 0.9550643333333333 -0.07181933333333332
732694328 0.9571743333333332 -0.07372433333333334
734175259 0.9598056666666667 -0.07433133333333332
735656190 0.9627166666666667 -0.07462033333333332
737137121 0.9637363333333333 -0.07458933333333333
738618052 0.96724 -0.07327599999999998
740098983 0.9655239999999999 -0.07525666666666667
741579914 0.9667413333333333 -0.07284066666666666
743060845 0.9666016666666667 -0.073853
744541776 0.9652799999999999 -0.07344399999999998
746022707 0.9642113333333333 -0.07253566666666666
747503638 0.9632953333333332 -0.07141933333333333
748984569 0.9617576666666665 -0.069849
750465500 0.9588976666666668 -0.07033566666666666
751946431 0.9577056666666667 -0.06962633333333332
753427362 0.9523153333333332 -0.07065766666666666
754908293 0.9511663333333333 -0.068563
756389224 0.9467226666666666 -0.06921933333333333
757870155 0.9447103333333332 -0.06992933333333332
759351086 0.9487026666666667 -0.07046466666666666
760832017 0.9517393333333333 -0.07022999999999999
762312948 0.9549646666666667 -0.07183233333333333
763793879 0.9574473333333332 -0.07210333333333332
765274810 0.9603250000000001 -0.07232599999999999
766755741 0.9624039999999999 -0.07233
768236672 0.9638263333333332 -0.07130900000000001
769717603 0.964798 -0.07266366666666665
771198534 0.9649616666666667 -0.072354
772679465 0.9644683333333333 -0.07162566666666667
774160396 0.9651593333333333 -0.06937366666666667
775641327 0.963771 -0.07067299999999999
777122258 0.960858 -0.07601566666666666
778603189 0.9706716666666667 -0.054008
780084120 0.9597786666666666 -0.06873433333333334
781565051 0.9564163333333333 -0.06764966666666666
783045982 0.9556923333333334 -0.06774066666666667
784526913 0.949786 -0.06768866666666667
786007844 0.946231 -0.06889366666666666
787488775 0.9432929999999999 -0.06888133333333332
788969706 0.9476709999999999 -0.06848533333333333
790450637 0.9513386666666666 -0.07047133333333333
791931568 0.9529826666666668 -0.06954633333333332
793412499 0.9560529999999999 -0.07093433333333332
794893430 0.9581996666666666 -0.07065166666666667
796374361 0.9602003333333333 -0.071902
797855292 0.9612510000000001 -0.07046666666666665
799336223 0.962265 -0.07216333333333333
800817154 0.9633166666666666 -0.07122133333333332
802298085 0.9634039999999999 -0.07057933333333333
803779016 0.9625103333333334 -0.071252
805259947 0.9604809999999999 -0.07088466666666667
806740878 0.9601476666666666 -0.07285966666666667
808221809 0.9599026666666666 -0.07193433333333334
809702740 0.9571699999999999 -0.07157366666666666
811183671 0.9546146666666667 -0.06925933333333334
812664602 0.951418 -0.06997466666666666
814145533 0.9481743333333332 -0.07219199999999999
815626464 0.9454213333333332 -0.07046166666666666
817107395 0.9399423333333333 -0.07026400000000001
818588326 0.9438513333333334 -0.07186000000000001
820069257 0.946769 -0.073334
821550188 0.949877 -0.07328666666666667
823031119 0.9528916666666666 -0.07385233333333333
824512050 0.9547509999999999 -0.07546233333333333
825992981 0.957245 -0.07414933333333333
827473912 0.9586986666666666 -0.07578466666666667
828954843 0.9601063333333333 -0.07534666666666667
830435774 1.0043223333333333 -0.061239666666666664
831916705 0.960531 -0.07617633333333335
833397636 0.9608043333333334 -0.07507066666666665
834878567 0.9597273333333334 -0.07620566666666667
836359498 0.9588586666666666 -0.074725
837840429 0.9574379999999999 -0.07527599999999998
839321360 0.9564706666666665 -0.07566633333333334
840802291 0.9529056666666667 -0.07457066666666667
842283222 0.9498563333333334 -0.074457
843764153 0.9454146666666665 -0.07461699999999999
845245084 0.9424616666666666 -0.07360733333333333
846726015 0.9381999999999999 -0.07641699999999998
848206946 0.9389876666666666 -0.07691033333333333
849687877 0.9436039999999999 -0.07628466666666667
851168808 0.9469673333333333 -0.07723466666666667
852649739 0.9499496666666666 -0.07963533333333334
854130670 0.95322 -0.07965866666666666
855611601 0.9554473333333333 -0.07767966666666666
857092532 0.9570586666666667 -0.08105499999999999
858573463 0.9593836666666666 -0.08015166666666665
860054394 0.9590486666666667 -0.079702
861535325 0.9602716666666666 -0.079349
863016256 0.9590146666666667 -0.08202799999999999
864497187 0.9606483333333333 -0.07768699999999999
865978118 0.9585243333333333 -0.07923433333333332
867459049 0.9575213333333333 -0.07880833333333333
868939980 0.9553483333333332 -0.07721399999999999
870420911 0.9526969999999999 -0.07904966666666666
871901842 0.9491843333333333 -0.07960999999999999
873382773 0.9452193333333333 -0.07660733333333333
874863704 0.9427553333333334 -0.07769066666666666
876344635 0.9377793333333333 -0.07927033333333333
877825566 0.9372973333333334 -0.07753333333333332
879306497 0.9426023333333333 -0.080765
880787428 0.9456423333333334 -0.08244066666666666
882268359 0.9498426666666666 -0.082445
883749290 0.9526006666666667 -0.08246533333333333
885230221 0.9542069999999999 -0.08466066666666666
886711152 0.956226 -0.08582266666666666
888192083 0.9579866666666665 -0.08523199999999999
889673014 0.9596203333333333 -0.08414266666666666
891153945 0.959796 -0.08452833333333333
892634876 0.9600826666666666 -0.08438733333333333
894115807 0.9593963333333333 -0.08216466666666666
895596738 0.9588296666666667 -0.08384399999999999
897077669 0.9579906666666667 -0.08598866666666666
898558600 0.956588 -0.08216933333333333
900039531 0.9545746666666666 -0.08256966666666667
901520462 0.9510879999999999 -0.08242666666666666
903001393 0.9477436666666668 -0.080374
904482324 0.944092 -0.08071433333333333
905963255 0.9387566666666666 -0.07988666666666666
907444186 0.9387179999999999 -0.07924333333333333
908925117 0.941603 -0.08367999999999999
910406048 0.946487 -0.08285999999999999
911886979 0.9494106666666666 -0.08489
913367910 0.9510833333333333 -0.08489366666666666
914848841 0.9551413333333333 -0.08240333333333333
916329772 0.956575 -0.08487833333333333
917810703 0.9562483333333334 -0.084352
919291634 0.9587623333333333 -0.08653633333333333
920772565 0.9599463333333333 -0.08337699999999999
922253496 0.960724 -0.08241
923734427 0.9590893333333332 -0.08340199999999999
925215358 0.9585853333333333 -0.08069499999999999
926696289 0.9127009999999999 -0.073764
928177220 0.9546853333333334 -0.08073766666666667
929658151 0.9519016666666666 -0.07825666666666665
931139082 0.94989 -0.07996266666666665
932620013 0.9469076666666667 -0.07623266666666666
934100944 0.9421116666666667 -0.076195
935581875 0.9382916666666667 -0.07478266666666666
937062806 0.934723 -0.07507566666666667
938543737 0.937873 -0.07798966666666667
940024668 0.9413853333333333 -0.07674733333333333
941505599 0.9441819999999999 -0.081065
942986530 0.948375 -0.07977866666666666
944467461 0.9497676666666666 -0.07929
945948392 0.9512396666666666 -0.08096533333333333
947429323 0.9526786666666667 -0.08242466666666666
948910254 0.9536563333333332 -0.08085233333333333
950391185 0.9545183333333332 -0.08340433333333333
951872116 0.9561943333333334 -0.08236299999999999
953353047 0.955907 -0.08323633333333333
954833978 0.9554133333333332 -0.08211433333333333
956314909 0.9546159999999999 -0.08155699999999999
957795840 0.952763 -0.080791
959276771 0.9503966666666666 -0.081862
960757702 0.947705 -0.07890866666666665
962238633 0.9434566666666666 -0.082937
963719564 0.941624 -0.07803233333333333
965200495 0.9381963333333332 -0.07918433333333333
966681426 0.9347953333333333 -0.07841066666666666
968162357 0.937049 -0.07886366666666667
969643288 0.9407966666666666 -0.08067166666666667
971124219 0.9435673333333333 -0.07972033333333334
972605150 0.9462109999999999 -0.084136
974086081 0.9484619999999999 -0.084962
975567012 0.9499893333333331 -0.08362666666666665
977047943 0.9488516666666666 -0.09571333333333333
978528874 0.9533079999999999 -0.08481733333333333
980009805 0.9545256666666667 -0.08495633333333333
981490736 0.9543063333333333 -0.086616
982971667 0.954424 -0.08361199999999999
984452598 0.9531656666666667 -0.08489533333333332
985933529 0.952979 -0.08385933333333334
987414460 0.9518639999999998 -0.08409266666666666
988895391 0.9505466666666665 -0.08220866666666667
990376322 0.9482173333333332 -0.08046766666666667
991857253 0.9460683333333333 -0.080625
993338184 0.9413073333333333 -0.07980499999999999
994819115 0.9392039999999999 -0.07963300000000001
996300046 0.9358339999999999 -0.08068033333333333
997780977 0.936261 -0.08125066666666667
999261908 0.9405496666666666 -0.08071399999999998
1000742839 0.9417296666666666 -0.084059
1002223770 0.94546 -0.082153
1003704701 0.946722 -0.083298
1005185632 0.9505373333333333 -0.083118
1006666563 0.95092 -0.08162433333333333
1008147494 0.9507669999999999 -0.08465
1009628425 0.9511043333333333 -0.08276
1011109356 0.952909 -0.08142533333333332
1012590287 0.952115 -0.082546
1014071218 0.9519963333333333 -0.083419
1015552149 0.9508493333333333 -0.082148
1017033080 0.9495259999999999 -0.081673
1018514011 0.946974 -0.08056466666666667
1019994942 0.9506949999999998 -0.08188166666666666
1021475873 0.9429463333333332 -0.07926066666666666
1022956804 0.9412243333333332 -0.07756233333333332
1024437735 0.9375959999999999 -0.07605766666666666
1025918666 0.9339286666666666 -0.07592566666666667
1027399597 0.9340723333333332 -0.07874233333333333
1028880528 0.9363586666666667 -0.08029566666666667
1030361459 0.93964 -0.07971466666666667
1031842390 0.9436583333333333 -0.07955366666666666
1033323321 0.9448556666666665 -0.08156166666666667
1034804252 0.9475123333333333 -0.08008
1036285183 0.9478706666666668 -0.08242266666666666
1037766114 0.9495393333333333 -0.08303133333333333
1039247045 0.9516413333333333 -0.08246133333333333
1040727976 0.951784 -0.08300233333333333
1042208907 0.9505786666666666 -0.08282566666666666
1043689838 0.951854 -0.08093833333333333
1045170769 0.9494143333333334 -0.08203033333333333
1046651700 0.951111 -0.07854033333333332
1048132631 0.9480506666666666 -0.07881566666666667
1049613562 0.9468193333333332 -0.08068666666666666
1051094493 0.9449483333333333 -0.080866
1052575424 0.9410293333333333 -0.076969
1054056355 0.939535 -0.07755199999999998
1055537286 0.9347439999999999 -0.078039
1057018217 0.9344696666666665 -0.07764166666666666
1058499148 0.9380269999999999 -0.07846066666666666
1059980079 0.9410103333333333 -0.07860066666666667
1061461010 0.9434489999999999 -0.08242233333333332
1062941941 0.9466936666666665 -0.07895433333333332
1064422872 0.948372 -0.081756
1065903803 0.9493649999999999 -0.079632
1067384734 0.9508319999999999 -0.08186666666666666
1068865665 0.9523199999999999 -0.07998666666666666
1070346596 0.9525686666666667 -0.08107866666666666
1071827527 0.9525253333333332 -0.07992266666666667
1073308458 0.9524966666666668 -0.078344
1074789389 0.9512536666666667 -0.07811233333333333
1076270320 0.95048 -0.07784466666666667
1077751251 0.9944743333333333 -0.061979000000000006
1079232182 0.9456729999999999 -0.08271099999999999
1080713113 0.9444433333333333 -0.08449133333333332
1082194044 0.9413363333333333 -0.08527533333333333
1083674975 0.9386136666666667 -0.08341099999999999
1085155906 0.935723 -0.07729899999999999
1086636837 0.9334943333333332 -0.07680533333333334
1088117768 0.9352513333333332 -0.08605533333333333
1089598699 0.939557 -0.08331866666666667
1091079630 0.9419746666666666 -0.08367933333333334
1092560561 0.9448323333333333 -0.08350566666666666
1094041492 0.9461496666666666 -0.08318233333333333
1095522423 0.948631 -0.081079
1097003354 0.9487319999999999 -0.08486633333333332
1098484285 0.9503389999999998 -0.08218766666666666
1099965216 0.950579 -0.08202566666666666
1101446147 0.9494113333333334 -0.08300099999999999
1102927078 0.9514579999999999 -0.07878466666666667
1104408009 0.9530916666666667 -0.07046733333333333
1105888940 0.9494196666666666 -0.078761
1107369871 0.949989 -0.068755
1108850802 0.944296 -0.08095866666666665
1110331733 0.944744 -0.06932233333333332
1111812664 0.9404406666666666 -0.07879266666666666
1113293595 0.9391826666666666 -0.068745
1114774526 0.933112 -0.07802499999999998
1116255457 0.9337506666666666 -0.06903166666666666
1117736388 0.9322753333333333 -0.081674
1119217319 0.938769 -0.06835633333333332
1120698250 0.9407319999999999 -0.081796
1122179181 0.9455983333333333 -0.07055066666666666
1123660112 0.9429613333333333 -0.08423366666666667
1125141043 0.9491596666666666 -0.07369133333333333
1126621974 0.9460356666666666 -0.08658733333333332
1128102905 0.951113 -0.075217
1129583836 0.9497649999999999 -0.07882933333333332
1131064767 0.9502296666666666 -0.07937766666666667
1132545698 0.95058 -0.08235866666666666
1134026629 0.9503276666666667 -0.078492
1135507560 0.9471993333333333 -0.07952000000000001
1136988491 0.94575 -0.08250933333333332
1138469422 0.9443863333333333 -0.08044399999999999
1139950353 0.942468 -0.07948133333333332
1141431284 0.9392969999999999 -0.08002066666666666
1142912215 0.9368903333333334 -0.083013
1144393146 0.9341803333333334 -0.08206466666666666
1145874077 0.9296533333333334 -0.08504133333333333
1147355008 0.932722 -0.08379766666666666
1148835939 0.9351736666666667 -0.08676833333333334
1150316870 0.9389513333333332 -0.08638766666666667
1151797801 0.9424833333333332 -0.08356133333333333
1153278732 0.9450050000000001 -0.08649433333333334
1154759663 0.9484646666666667 -0.08547566666666667
1156240594 0.949748 -0.08854333333333334
1157721525 0.9508683333333333 -0.08481066666666666
1159202456 0.9528113333333332 -0.08262066666666666
1160683387 0.952406 -0.085645
1162164318 0.9527389999999999 -0.08671999999999999
1163645249 0.9511143333333332 -0.08631733333333333
1165126180 0.951094 -0.08437266666666667
1166607111 0.9499973333333334 -0.08316733333333333
1168088042 0.9475653333333334 -0.082674
1169568973 0.9438616666666666 -0.08336466666666667
1171049904 0.9430203333333332 -0.08305499999999999
1172530835 0.9384813333333333 -0.082584
1174011766 0.9349403333333333 -0.08323633333333333
1175492697 0.9317933333333333 -0.08470433333333334
1176973628 0.9306829999999998 -0.08608333333333332
1178454559 0.935039 -0.08617999999999999
1179935490 0.9387129999999999 -0.08730399999999999
1181416421 0.9423026666666666 -0.08720766666666666
1182897352 0.946356 -0.088958
1184378283 0.948372 -0.08746433333333332
1185859214 0.9499803333333334 -0.08982433333333334
1187340145 0.9500883333333332 -0.08799733333333333
1188821076 0.954898 -0.08529266666666668
1190302007 0.9523820000000001 -0.08895699999999998
1191782938 0.952135 -0.08778966666666667
1193263869 0.9511759999999999 -0.08804433333333334
1194744800 0.9524223333333334 -0.085391
1196225731 0.9486616666666667 -0.08682000000000001
1197706662 0.9449466666666666 -0.08946033333333332
1199187593 0.9456886666666666 -0.08443033333333334
1200668524 0.9417263333333334 -0.08746033333333332
1202149455 0.9394973333333333 -0.08273566666666665
1203630386 0.9342159999999999 -0.086541
1205111317 0.9304003333333333 -0.08662266666666665
1206592248 0.9283706666666667 -0.08542833333333333
1208073179 0.933352 -0.08718433333333332
1209554110 0.9372816666666666 -0.08845599999999999
1211035041 0.9403656666666667 -0.09181433333333333
1212515972 0.9426686666666666 -0.09306633333333332
1213996903 0.9438740000000001 -0.09385866666666666
1215477834 0.946593 -0.09311833333333333
1216958765 0.95271 -0.08931666666666666
1218439696 0.9510829999999999 -0.09176333333333332
1219920627 0.952264 -0.092718
1221401558 0.951185 -0.09239399999999999
1222882489 0.9495263333333333 -0.09231266666666667
1224363420 0.9502336666666666 -0.09128233333333333
1225844351 0.9472923333333334 -0.09178933333333333
1227325282 0.947651 -0.093247
1228806213 0.9435823333333333 -0.09276566666666666
1230287144 0.9409236666666667 -0.08896233333333334
1231768075 0.9395853333333333 -0.09138133333333333
1233249006 0.9325596666666667 -0.09123466666666666
1234729937 0.9302263333333333 -0.09023999999999999
1236210868 0.9264086666666667 -0.09166300000000001
1237691799 0.9304253333333332 -0.09458766666666665
1239172730 0.9349243333333332 -0.09691033333333332
1240653661 0.9373176666666666 -0.09845833333333333
1242134592 0.94076 -0.09867300000000001
1243615523 0.9442196666666667 -0.097107
1245096454 0.9446089999999999 -0.097977
1246577385 0.9489123333333334 -0.09779299999999999
1248058316 0.9485626666666667 -0.09877266666666665
1249539247 0.9500163333333334 -0.09851433333333333
1251020178 0.9508356666666666 -0.09783166666666666
1252501109 0.950564 -0.096613
1253982040 0.9502033333333333 -0.09366999999999999
1255462971 0.947938 -0.09885133333333332
1256943902 0.946497 -0.09526633333333334
1258424833 0.943101 -0.09365566666666665
1259905764 0.9410256666666666 -0.09762133333333334
1261386695 0.9387806666666667 -0.09310233333333331
1262867626 0.9343816666666666 -0.08688033333333334
1264348557 0.9303166666666667 -0.09068766666666667
1265829488 0.9258693333333332 -0.08963399999999999
1267310419 0.9287183333333333 -0.09182433333333334
1268791350 0.9320003333333333 -0.09501633333333333
1270272281 0.9358529999999999 -0.09377566666666666
1271753212 0.9387696666666666 -0.094313
1273234143 0.9405953333333332 -0.09561566666666667
1274715074 0.9418196666666666 -0.096532
1276196005 0.944013 -0.096205
1277676936 0.9445586666666665 -0.10013666666666667
1279157867 0.9456309999999999 -0.09728633333333332
1280638798 0.9447246666666667 -0.099829
1282119729 0.9455833333333332 -0.09703633333333331
1283600660 0.943808 -0.09815233333333334
1285081591 0.9436239999999999 -0.09775999999999999
1286562522 0.94148 -0.09745033333333333
1288043453 0.940023 -0.09447833333333333
1289524384 0.9375966666666666 -0.09510733333333334
1291005315 0.9338533333333334 -0.09723733333333331
1292486246 0.930533 -0.09312033333333332
1293967177 0.927222 -0.09250433333333333
1295448108 0.9223696666666666 -0.09591266666666666
1296929039 0.924153 -0.09416566666666666
1298409970 0.9276709999999999 -0.09337133333333332
1299890901 0.931991 -0.09769966666666666
1301371832 0.9336576666666666 -0.09625233333333334
1302852763 0.9356113333333334 -0.09757233333333333
1304333694 0.9393593333333332 -0.10110566666666666
1305814625 0.9406283333333333 -0.09761433333333333
1307295556 0.9406553333333332 -0.09959599999999999
1308776487 0.943846 -0.09659599999999999
1310257418 0.9419756666666667 -0.09986099999999999
1311738349 0.9432616666666667 -0.098829
1313219280 0.9424356666666666 -0.097723
1314700211 0.9407653333333332 -0.09878999999999999
1316181142 0.9399303333333333 -0.09748799999999999
1317662073 0.9384513333333333 -0.09582566666666666
1319143004 0.934143 -0.09516766666666666
1320623935 0.9319386666666666 -0.09291066666666666
1322104866 0.9308376666666667 -0.09314933333333333
1323585797 0.9271469999999999 -0.09198466666666667
1325066728 0.9219236666666666 -0.089752
1326547659 0.9239436666666667 -0.08997066666666666
1328028590 0.9269203333333333 -0.09403133333333331
1329509521 0.9312316666666667 -0.09413033333333333
1330990452 0.9306936666666666 -0.095411
1332471383 0.9348383333333332 -0.09733199999999999
1333952314 0.9353386666666667 -0.09819833333333333
1335433245 0.9346006666666665 -0.09664299999999999
1336914176 0.938356 -0.09747633333333333
1338395107 0.9383326666666667 -0.09933399999999999
1339876038 0.9382296666666666 -0.09735133333333335
1341356969 0.9391369999999999 -0.0947313333333333
1342837900 0.938388 -0.09925666666666666
1344318831 0.937567 -0.09739366666666667
1345799762 0.9367446666666666 -0.09602
1347280693 0.933449 -0.09731799999999999
1348761624 0.932972 -0.09242533333333332
1350242555 0.9309189999999999 -0.09414033333333333
1351723486 0.9272796666666665 -0.095433
1353204417 0.9257683333333333 -0.08734533333333334
1354685348 0.9199769999999999 -0.09217199999999999
1356166279 0.9189473333333332 -0.093197
1357647210 0.9241176666666666 -0.093193
1359128141 0.9274846666666667 -0.09697166666666665
1360609072 0.9301663333333333 -0.09868533333333332
1362090003 0.9326456666666667 -0.093468
1363570934 0.9342373333333334 -0.096464
1365051865 0.9366649999999999 -0.09524666666666666
1366532796 0.9380776666666667 -0.09674066666666666
1368013727 0.9684093333333333 -0.084323
1369494658 0.9387816666666666 -0.09919433333333333
1370975589 0.9404653333333333 -0.09398166666666666
1372456520 0.9413416666666665 -0.09465966666666666
1373937451 0.9381776666666666 -0.09545866666666665
1375418382 0.9531656666666667 -0.07430533333333333
1376899313 0.929462 -0.11398900000000001
1378380244 0.9290926666666667 -0.11368199999999998
1379861175 0.9269663333333332 -0.11358766666666666
1381342106 0.92439 -0.11108833333333334
1382823037 0.921715 -0.11002
1384303968 0.9226736666666666 -0.10138833333333333
1385784899 0.9175369999999999 -0.10956899999999999
1387265830 0.91805 -0.11147666666666667
1388746761 0.923114 -0.113759
1390227692 0.9252876666666667 -0.10997166666666666
1391708623 0.9262863333333333 -0.11101133333333335
1393189554 0.9273296666666666 -0.117119
1394670485 0.9307663333333333 -0.11237733333333333
1396151416 0.9303106666666667 -0.11311
1397632347 0.9313313333333333 -0.11413366666666666
1399113278 0.9327213333333333 -0.11445000000000001
1400594209 0.9333873333333333 -0.11122699999999999
1402075140 0.9405516666666666 -0.08807166666666666
1403556071 0.939453 -0.09248233333333333
1405037002 0.9389406666666666 -0.09446133333333334
1406517933 0.93558 -0.095601
1407998864 0.9348296666666666 -0.09316899999999997
1409479795 0.932496 -0.09219866666666666
1410960726 0.9297843333333333 -0.08869333333333332
1412441657 0.9277336666666667 -0.09076933333333333
1413922588 0.9245743333333334 -0.09176133333333333
1415403519 0.9201093333333334 -0.09374166666666667
1416884450 0.9266583333333333 -0.09411599999999999
1418365381 0.9285606666666666 -0.09219699999999999
1419846312 0.9323616666666666 -0.09303866666666667
1421327243 0.9345483333333333 -0.09195766666666666
1422808174 0.9355463333333334 -0.09253
1424289105 0.936238 -0.09533566666666667
1425770036 0.9375513333333334 -0.09229966666666667
1427250967 0.9387296666666667 -0.09444933333333333
1428731898 0.9496663333333333 -0.06778466666666666
1430212829 0.9401599999999999 -0.09355799999999999
1431693760 0.9412576666666667 -0.09265599999999999
1433174691 0.9418033333333332 -0.09428766666666666
1434655622 0.9380376666666665 -0.09541633333333334
1436136553 0.9388816666666666 -0.09062966666666666
1437617484 0.937756 -0.089174
1439098415 0.933279 -0.09248133333333333
1440579346 0.9335223333333333 -0.086172
1442060277 0.9277143333333333 -0.09138333333333333
1443541208 0.9266563333333333 -0.086556
1445022139 0.9213579999999999 -0.08987400000000001
1446503070 0.9247679999999999 -0.08897266666666666
1447984001 0.9272233333333333 -0.09470633333333334
1449464932 0.9320239999999999 -0.089563
1450945863 0.9333826666666667 -0.09288733333333332
1452426794 0.9375596666666667 -0.08641833333333333
1453907725 0.939271 -0.09178900000000001
1455388656 0.9423603333333332 -0.08889899999999998
1456869587 0.9410703333333332 -0.09157066666666665
1458350518 0.9437453333333333 -0.08475366666666667
1459831449 0.942067 -0.09053800000000001
1461312380 0.9428839999999999 -0.08610899999999999
1462793311 0.940869 -0.08669266666666667
1464274242 0.9425143333333332 -0.08057499999999998
1465755173 0.9389479999999999 -0.08265933333333332
1467236104 0.9375346666666666 -0.08301333333333333
1468717035 0.9347686666666666 -0.084475
1470197966 0.9340263333333333 -0.08088666666666668
1471678897 0.9293480000000001 -0.08378166666666667
1473159828 0.9275986666666666 -0.07837833333333333
1474640759 0.9217896666666667 -0.08472033333333334
1476121690 0.9248723333333333 -0.08131233333333332
1477602621 0.925801 -0.08879666666666666
1479083552 0.9307073333333333 -0.08584733333333333
1480564483 0.9330643333333333 -0.08438499999999999
1482045414 0.9359863333333333 -0.088223
1483526345 0.9385226666666666 -0.08635599999999999
1485007276 0.941106 -0.08594299999999999
1486488207 0.9409893333333332 -0.08484866666666666
1487969138 0.9417953333333333 -0.08677299999999999
1489450069 0.9416246666666666 -0.08804566666666666
1490931000 0.9440436666666666 -0.08374566666666668
1492411931 0.9420743333333333 -0.082549
1493892862 0.9413449999999999 -0.08564533333333332
1495373793 0.9400236666666666 -0.08478533333333334
1496854724 0.9373480000000001 -0.08743833333333334
1498335655 0.9354096666666667 -0.08809666666666667
1499816586 0.932072 -0.08910933333333333
1501297517 0.930179 -0.08681766666666665
1502778448 0.926071 -0.08706833333333333
1504259379 0.9212126666666667 -0.08893766666666665
1505740310 0.9214556666666667 -0.089916
1507221241 0.926338 -0.089404
1508702172 0.9303886666666666 -0.08894066666666667
1510183103 0.9327563333333333 -0.09372866666666665
1511664034 0.936736 -0.09205066666666667
1513144965 0.936774 -0.09451366666666666
1514625896 0.940507 -0.09287133333333333
1516106827 0.9428976666666666 -0.092319
1517587758 0.9430563333333334 -0.09312566666666666
1519068689 0.9434579999999999 -0.09285199999999999
1520549620 0.9440113333333332 -0.09042766666666666
1522030551 0.9436563333333333 -0.09127033333333334
1523511482 0.9421276666666667 -0.092968
1524992413 0.9644476666666666 -0.06960533333333332
1526473344 0.938555 -0.09220099999999999
1527954275 0.9361653333333333 -0.09307066666666666
1529435206 0.9312756666666667 -0.09546766666666667
1530916137 0.9293503333333333 -0.09283399999999999
1532397068 0.925732 -0.092922
1533877999 0.9209383333333332 -0.09590266666666665
1535358930 0.9205656666666666 -0.09412733333333334
1536839861 0.9251199999999999 -0.09412733333333334
1538320792 0.9284386666666666 -0.09741899999999999
1539801723 0.9335226666666667 -0.09649433333333335
1541282654 0.9363076666666666 -0.09713833333333333
1542763585 0.9387913333333332 -0.099719
1544244516 0.9406590000000001 -0.09986266666666667
1545725447 0.9432243333333333 -0.098353
1547206378 0.9445286666666666 -0.09867533333333334
1548687309 0.9439639999999999 -0.09932633333333332
1550168240 0.9457996666666666 -0.09897766666666666
1551649171 0.944205 -0.09367533333333333
1553130102 0.9446846666666666 -0.094757
1554611033 0.9404103333333333 -0.09835133333333332
1556091964 0.9391970000000001 -0.09429166666666666
1557572895 0.9373156666666667 -0.09834100000000001
1559053826 0.935004 -0.09437233333333334
1560534757 0.9310373333333333 -0.09319966666666665
1562015688 0.9277773333333333 -0.09290166666666666
1563496619 0.9248963333333333 -0.09578433333333332
1564977550 0.9175169999999999 -0.09390799999999999
1566458481 0.9218266666666667 -0.09784866666666667
1567939412 0.9269156666666666 -0.09592366666666666
1569420343 0.9303963333333334 -0.09901233333333333
1570901274 0.9332173333333333 -0.09753666666666666
1572382205 0.9368286666666666 -0.09830799999999998
1573863136 0.9381160000000001 -0.09983966666666667
1575344067 0.9409146666666667 -0.09992366666666666
1576824998 0.9374189999999999 -0.10683566666666666
1578305929 0.9441893333333333 -0.10005166666666666
1579786860 0.9442223333333333 -0.09872066666666665
1581267791 0.9426993333333333 -0.09605599999999999
1582748722 0.941333 -0.097721
1584229653 0.9398553333333333 -0.10255533333333333
1585710584 0.9372689999999999 -0.09824099999999998
1587191515 0.9357889999999999 -0.09606699999999999
1588672446 0.9338486666666667 -0.097638
1590153377 0.9277283333333333 -0.09692199999999998
1591634308 0.9249083333333333 -0.09784300000000001
1593115239 0.921083 -0.09678033333333333
1594596170 0.9161383333333333 -0.09647633333333333
1596077101 0.9177103333333332 -0.09803366666666666
1597558032 0.9228160000000001 -0.09725566666666666
1599038963 0.9274266666666666 -0.09929966666666667
1600519894 0.9300063333333333 -0.10067333333333334
1602000825 0.9319556666666666 -0.09923499999999999
1603481756 0.9342213333333333 -0.10454766666666666
1604962687 0.9353713333333333 -0.10356699999999999
1606443618 0.935535 -0.10642199999999999
1607924549 0.938299 -0.10305
1609405480 0.9381396666666666 -0.10577700000000001
1610886411 0.9365386666666666 -0.10511666666666666
1612367342 0.937213 -0.10281233333333331
1613848273 0.936477 -0.10301866666666666
1615329204 0.9357933333333333 -0.09974899999999999
1616810135 0.932043 -0.099608
1618291066 0.9306393333333333 -0.09985566666666668
1619771997 0.9272433333333333 -0.10382
1621252928 0.9243166666666666 -0.10206033333333334
1622733859 0.9201213333333333 -0.09939966666666666
1624214790 0.9169253333333334 -0.09529433333333333
1625695721 0.919374 -0.09480899999999999
1627176652 0.920152 -0.10297199999999998
1628657583 0.9245516666666665 -0.09795166666666667
1630138514 0.9270063333333332 -0.10332266666666667
1631619445 0.9304816666666667 -0.10014266666666667
1633100376 0.9306719999999999 -0.10692566666666665
1634581307 0.933481 -0.10056833333333333
1636062238 0.9351889999999999 -0.10584166666666667
1637543169 0.9383226666666666 -0.09787299999999999
1639024100 0.935514 -0.10634099999999999
1640505031 0.9380213333333334 -0.097406
1641985962 0.9364443333333333 -0.10119633333333333
1643466893 0.9362 -0.09445733333333334
1644947824 0.9340476666666666 -0.10058299999999999
1646428755 0.9327509999999999 -0.09312333333333334
1647909686 0.9285346666666667 -0.09801966666666667
1649390617 0.9275690000000001 -0.09432466666666667
1650871548 0.9215723333333333 -0.09651899999999998
1652352479 0.9209269999999999 -0.08945766666666666
1653833410 0.9130353333333333 -0.09321499999999999
1655314341 0.913437 -0.09580866666666667
1656795272 0.917446 -0.09742366666666666
1658276203 0.919378 -0.09798499999999999
1659757134 0.9227583333333333 -0.10149266666666668
1661238065 0.9252686666666665 -0.10251533333333332
1662718996 0.9279630000000001 -0.100546
1664199927 0.928418 -0.10095799999999999
1665680858 0.9296946666666666 -0.10643133333333332
1667161789 0.931374 -0.10072766666666666
1668642720 0.9316249999999999 -0.10485866666666666
1670123651 0.9293273333333333 -0.10602233333333333
1671604582 0.9298970000000001 -0.10018733333333332
1673085513 0.9290693333333332 -0.10677066666666665
1674566444 0.9270933333333332 -0.10603399999999999
1676047375 0.9286496666666666 -0.09904833333333332
1677528306 0.9268536666666665 -0.09098966666666666
1679009237 0.9250673333333334 -0.09344133333333333
1680490168 0.9234566666666666 -0.09160199999999999
1681971099 0.9194389999999999 -0.09602499999999999
1683452030 0.9154269999999999 -0.09241666666666666
1684932961 0.914967 -0.09294166666666666
1686413892 0.9112366666666667 -0.10860233333333333
1687894823 0.913233 -0.10476033333333334
1689375754 0.923659 -0.09556233333333333
1690856685 0.9255903333333333 -0.097879
1692337616 0.927503 -0.09232633333333332
1693818547 0.9213819999999999 -0.11630099999999999
1695299478 0.930485 -0.09916333333333334
1696780409 0.9328223333333333 -0.09755466666666665
1698261340 0.932528 -0.09905
1699742271 0.9329926666666666 -0.09746933333333332
1701223202 0.9347073333333333 -0.09220033333333333
1702704133 0.927653 -0.10514433333333334
1704185064 0.927073 -0.10445566666666667
1705665995 0.9260106666666666 -0.10628033333333332
1707146926 0.9239346666666666 -0.103168
1708627857 0.9201653333333333 -0.10593
1710108788 0.918285 -0.10377333333333333
1711589719 0.9156263333333332 -0.10216733333333333
1713070650 0.911626 -0.10460766666666667
1714551581 0.908651 -0.10232833333333333
1716032512 0.9148963333333333 -0.10167266666666666
1717513443 0.9164499999999999 -0.10303266666666666
1718994374 0.9185313333333333 -0.10766066666666665
1720475305 0.9210513333333333 -0.10811966666666667
1721956236 0.92345 -0.10637233333333332
1723437167 0.9243136666666667 -0.10957933333333333
1724918098 0.9261489999999999 -0.10902133333333333
1726399029 0.9266723333333333 -0.10656533333333332
1727879960 0.9255893333333334 -0.10032133333333333
1729360891 0.9278113333333332 -0.10283933333333334
1730841822 0.9290263333333333 -0.10525533333333333
1732322753 0.927171 -0.10669866666666666
1733803684 0.9262753333333333 -0.10806433333333333
1735284615 0.9248026666666667 -0.10936966666666666
1736765546 0.9242153333333333 -0.10583333333333333
1738246477 0.920469 -0.10495933333333332
1739727408 0.9186223333333334 -0.10948066666666664
1741208339 0.9180813333333333 -0.10246066666666666
1742689270 0.9136433333333334 -0.10484199999999999
1744170201 0.9089466666666666 -0.10205333333333333
1745651132 0.9124679999999998 -0.10557733333333333
1747132063 0.9154806666666666 -0.10670033333333331
1748612994 0.9190916666666666 -0.10953933333333334
1750093925 0.9231720000000001 -0.11184566666666665
1751574856 0.9239936666666667 -0.11268333333333332
1753055787 0.9259459999999999 -0.11026566666666666
1754536718 0.927305 -0.112826
1756017649 0.9281526666666666 -0.112911
1757498580 0.929541 -0.11192666666666665
1758979511 0.931127 -0.11141433333333334
1760460442 0.9298506666666666 -0.11143399999999999
1761941373 0.928387 -0.11130233333333334
1763422304 0.9293363333333332 -0.11238933333333331
1764903235 0.9271293333333332 -0.10759033333333332
1766384166 0.9270756666666666 -0.109569
1767865097 0.9212233333333334 -0.10738199999999999
1769346028 0.918624 -0.11030366666666666
1770826959 0.916161 -0.10611733333333334
1772307890 0.9129223333333334 -0.10504566666666666
1773788821 0.9105279999999999 -0.10484133333333331
1775269752 0.9156876666666666 -0.10646
1776750683 0.9165726666666665 -0.10571566666666667
1778231614 0.9212239999999998 -0.10612133333333335
1779712545 0.9235493333333331 -0.11084266666666666
1781193476 0.9251783333333332 -0.10885533333333333
1782674407 0.9282676666666667 -0.11042599999999998
1784155338 0.92867 -0.11180766666666667
1785636269 0.931881 -0.10917966666666667
1787117200 0.932382 -0.10971566666666666
1788598131 0.9349146666666668 -0.10984666666666665
1790079062 0.9324399999999999 -0.10535933333333333
1791559993 0.930955 -0.10597933333333333
1793040924 0.9300449999999999 -0.10729999999999998
1794521855 0.927867 -0.106307
1796002786 0.9270799999999999 -0.10322933333333331
1797483717 0.9251766666666665 -0.10684466666666666
1798964648 0.9237026666666666 -0.10059366666666665
1800445579 0.9203656666666666 -0.09788233333333332
1801926510 0.9149419999999999 -0.10247366666666666
1803407441 0.9124916666666666 -0.10114133333333332
1804888372 0.913494 -0.10146033333333333
1806369303 0.9158893333333333 -0.10033633333333332
1807850234 0.9189716666666665 -0.10257066666666666
1809331165 0.9228826666666667 -0.10348333333333333
1810812096 0.925117 -0.10638333333333333
1812293027 0.9266883333333333 -0.10342199999999999
1813773958 0.927771 -0.10668966666666665
1815254889 0.9306913333333333 -0.105852
1816735820 0.9311789999999999 -0.102239
1818216751 0.932904 -0.09956533333333334
1819697682 0.9322633333333333 -0.103985
1821178613 0.9329186666666667 -0.10499866666666666
1822659544 0.9323203333333333 -0.10350066666666666
1824140475 0.9380796666666665 -0.09021599999999999
1825621406 0.927288 -0.10549066666666665
1827102337 0.9256636666666666 -0.096968
1828583268 0.9232113333333333 -0.09589866666666666
1830064199 0.922312 -0.09523300000000001
1831545130 0.9143309999999999 -0.09697566666666665
1833026061 0.9118476666666666 -0.100993
1834506992 0.9128223333333333 -0.097147
1835987923 0.9139303333333333 -0.101413
1837468854 0.917957 -0.10012733333333332
1838949785 0.9221713333333332 -0.10126399999999999
1840430716 0.924196 -0.10108433333333333
1841911647 0.927501 -0.10605933333333331
1843392578 0.9286566666666666 -0.101618
1844873509 0.9313803333333333 -0.103825
1846354440 0.928692 -0.10469399999999998
1847835371 0.9313586666666667 -0.10256533333333334
1849316302 0.932114 -0.10233233333333332
1850797233 0.9307406666666665 -0.10293533333333334
1852278164 0.932477 -0.10192699999999999
1853759095 0.9275286666666667 -0.09928233333333332
1855240026 0.9306319999999999 -0.100934
1856720957 0.9238046666666666 -0.10408633333333334
1858201888 0.9209609999999999 -0.10491966666666666
1859682819 0.919003 -0.09893999999999999
1861163750 0.916041 -0.09921533333333334
1862644681 0.910821 -0.10380466666666666
1864125612 0.909338 -0.10335299999999999
1865606543 0.9134793333333333 -0.102919
1867087474 0.9167039999999999 -0.10475333333333332
1868568405 0.920048 -0.10441766666666666
1870049336 0.9230846666666667 -0.10629566666666668
1871530267 0.9255786666666667 -0.10734533333333332
1873011198 0.9270963333333333 -0.10672099999999998
1874492129 0.9314640000000001 -0.10489966666666667
1875973060 0.9249103333333333 -0.11689466666666666
1877453991 0.9305396666666665 -0.10416733333333333
1878934922 0.9324070000000001 -0.105023
1880415853 0.930951 -0.106128
1881896784 0.9317413333333333 -0.102226
1883377715 0.9294339999999999 -0.10497166666666666
1884858646 0.9285393333333333 -0.101946
1886339577 0.9274359999999999 -0.09988933333333333
1887820508 0.9236899999999999 -0.10168066666666666
1889301439 0.9212409999999999 -0.09857733333333332
1890782370 0.9173269999999999 -0.09740633333333333
1892263301 0.9137726666666667 -0.098755
1893744232 0.9086063333333333 -0.09653966666666665
1895225163 0.912378 -0.10296866666666667
1896706094 0.9167336666666667 -0.10076933333333334
1898187025 0.9185776666666667 -0.10110066666666664
1899667956 0.9224859999999999 -0.10226633333333332
1901148887 0.9222926666666665 -0.10748399999999998
1902629818 0.9235126666666665 -0.10586200000000001
1904110749 0.9268436666666666 -0.10614233333333334
1905591680 0.9265283333333333 -0.10661299999999999
1907072611 0.9288780000000001 -0.102883
1908553542 0.9282726666666666 -0.10317933333333335
1910034473 0.9269399999999999 -0.10369966666666666
1911515404 0.929057 -0.102684
1912996335 0.926736 -0.10119233333333333
1914477266 0.9250643333333333 -0.10114333333333332
1915958197 0.9216536666666666 -0.103074
1917439128 0.9200649999999999 -0.10285666666666667
1918920059 0.9172363333333333 -0.10205900000000001
1920400990 0.9132003333333333 -0.09619266666666666
1921881921 0.9097973333333332 -0.10020533333333333
1923362852 0.9067456666666667 -0.10032033333333334
1924843783 0.9079410000000001 -0.10266566666666667
1926324714 0.9122393333333332 -0.10130800000000001
1927805645 0.9155386666666666 -0.10575599999999999
1929286576 0.9163306666666666 -0.10848966666666666
1930767507 0.9203669999999999 -0.10956199999999999
1932248438 0.9215263333333332 -0.10563199999999998
1933729369 0.923889 -0.10805933333333331
1935210300 0.9238883333333333 -0.10540033333333333
1936691231 0.9246756666666667 -0.10404533333333334
1938172162 0.9280233333333334 -0.10151400000000001
1939653093 0.9251673333333332 -0.10225566666666666
1941134024 0.925893 -0.10435699999999999
1942614955 0.9237836666666667 -0.10609833333333332
1944095886 0.9230416666666665 -0.10023800000000001
1945576817 0.9205766666666666 -0.100609
1947057748 0.919165 -0.09536966666666666
1948538679 0.915298 -0.09840766666666667
1950019610 0.9134303333333333 -0.094743
1951500541 0.9093039999999999 -0.09900733333333334
1952981472 0.9046256666666667 -0.098066
1954462403 0.9086636666666666 -0.09424899999999999
1955943334 0.9074039999999999 -0.09669000000000001
1957424265 0.9136639999999999 -0.10014599999999999
1958905196 0.9142163333333333 -0.10334266666666667
1960386127 0.9157873333333333 -0.10403566666666667
1961867058 0.9198066666666667 -0.10128899999999999
1963347989 0.9221966666666666 -0.10399933333333333
1964828920 0.9236996666666666 -0.10341033333333333
1966309851 0.9232903333333333 -0.10542666666666667
1967790782 0.925423 -0.103793
1969271713 0.9242346666666666 -0.10503633333333331
1970752644 0.9254699999999999 -0.10610933333333333
1972233575 0.9228733333333332 -0.10940166666666667
1973714506 0.9230879999999999 -0.10367699999999999
1975195437 0.9210666666666667 -0.10313933333333333
1976676368 0.9190449999999999 -0.10884333333333332
1978157299 0.917508 -0.10364899999999999
1979638230 0.9140403333333333 -0.10637033333333334
1981119161 0.909716 -0.1050553333333333
1982600092 0.9079093333333332 -0.100796
1984081023 0.906876 -0.10420199999999999
1985561954 0.9111370000000001 -0.10316033333333333
1987042885 0.9134873333333333 -0.10591266666666667
1988523816 0.915546 -0.104865
1990004747 0.9189906666666667 -0.10702666666666667
1991485678 0.9197896666666666 -0.10782366666666666
1992966609 0.9217793333333333 -0.11105933333333334
1994447540 0.9227666666666666 -0.10550333333333334
1995928471 0.9240773333333332 -0.10965533333333333
1997409402 0.924955 -0.11172566666666667
1998890333 0.9233326666666667 -0.11191999999999999
2000371264 0.9235786666666665 -0.11121866666666666
2001852195 0.9228743333333334 -0.11012566666666668
2003333126 0.9218423333333332 -0.10924533333333332
2004814057 0.919247 -0.10896466666666667
2006294988 0.9161806666666666 -0.10784166666666667
2007775919 0.9158589999999999 -0.10711466666666666
2009256850 0.913633 -0.10640666666666666
2010737781 0.9065050000000001 -0.11579233333333333
2012218712 0.906515 -0.10334333333333334
2013699643 0.9020183333333334 -0.11218099999999999
2015180574 0.9071586666666667 -0.10884933333333333
2016661505 0.9110966666666666 -0.10665733333333333
2018142436 0.9123890000000001 -0.106751
2019623367 0.9137006666666665 -0.11145066666666666
2021104298 0.9185523333333334 -0.10841866666666666
2022585229 0.918592 -0.110453
2024066160 0.9193899999999999 -0.11522299999999999
2025547091 0.9210053333333332 -0.11047166666666666
2027028022 0.9254563333333332 -0.110585
2028508953 0.9221646666666665 -0.10846
2029989884 0.9219943333333332 -0.11016566666666666
2031470815 0.9209319999999999 -0.10614166666666666
2032951746 0.9196546666666667 -0.111202
2034432677 0.9177636666666666 -0.10120133333333332
2035913608 0.9172016666666667 -0.10717233333333333
2037394539 0.9161536666666665 -0.10593466666666665
2038875470 0.9138539999999999 -0.10407999999999998
2040356401 0.908991 -0.103641
2041837332 0.9060183333333334 -0.10002433333333334
2043318263 0.901675 -0.09964233333333333
2044799194 0.9050079999999998 -0.10378633333333333
2046280125 0.9098153333333332 -0.10240066666666665
2047761056 0.9114306666666666 -0.103915
2049241987 0.9130023333333332 -0.10801433333333332
2050722918 0.9157196666666666 -0.10562466666666666
2052203849 0.9180336666666666 -0.11349500000000001
2053684780 0.9174323333333333 -0.10405233333333333
2055165711 0.9188363333333333 -0.10830599999999999
2056646642 0.9198606666666667 -0.10990333333333333
2058127573 0.9210206666666667 -0.10836466666666666
2059608504 0.919699 -0.10303999999999999
2061089435 0.919224 -0.11091366666666665
2062570366 0.91931 -0.10678966666666667
2064051297 0.9156303333333332 -0.11390800000000001
2065532228 0.9155313333333333 -0.10863066666666667
2067013159 0.9119896666666666 -0.11297866666666667
2068494090 0.9112673333333332 -0.107378
2069975021 0.9060816666666667 -0.11722133333333332
2071455952 0.9044176666666666 -0.10638666666666666
2072936883 0.9016576666666666 -0.10742033333333334
2074417814 0.9046073333333333 -0.11133166666666666
2075898745 0.9072100000000001 -0.11045633333333334
2077379676 0.9106669999999999 -0.111479
2078860607 0.9121543333333333 -0.11373766666666665
2080341538 0.9164123333333333 -0.11216033333333332
2081822469 0.9164283333333333 -0.11402766666666667
2083303400 0.9191756666666666 -0.11179533333333332
2084784331 0.9212629999999999 -0.11504166666666667
2086265262 0.9200163333333333 -0.11759433333333333
2087746193 0.9200333333333333 -0.11417266666666666
2089227124 0.919111 -0.11948666666666666
2090708055 0.9188476666666665 -0.11510799999999999
2092188986 0.9189696666666666 -0.111848
2093669917 0.9170373333333333 -0.114085
2095150848 0.9154873333333332 -0.11394933333333335
2096631779 0.9133816666666666 -0.11315566666666667
2098112710 0.9112263333333332 -0.10941199999999998
2099593641 0.9074543333333334 -0.11263333333333332
2101074572 0.9031303333333334 -0.11055633333333333
2102555503 0.8982043333333334 -0.11333333333333334
2104036434 0.9004576666666666 -0.10922866666666665
2105517365 0.9058566666666668 -0.11028066666666665
2106998296 0.910099 -0.116447
2108479227 0.911052 -0.11501299999999999
2109960158 0.9153886666666665 -0.11277233333333334
2111441089 0.9177306666666666 -0.11391699999999999
2112922020 0.9177066666666667 -0.11981900000000001
2114402951 0.920457 -0.11406299999999998
2115883882 0.9207653333333333 -0.11250233333333333
2117364813 0.9213283333333333 -0.11476666666666666
2118845744 0.9217223333333333 -0.11402033333333333
2120326675 0.9208239999999999 -0.11392733333333332
2121807606 0.9185316666666666 -0.10904566666666667
2123288537 0.9204963333333334 -0.11453166666666667
2124769468 0.9176503333333332 -0.111451
2126250399 0.9150893333333332 -0.10529999999999998
2127731330 0.9141616666666668 -0.10822733333333334
2129212261 0.9097486666666665 -0.11050433333333333
2130693192 0.9045539999999999 -0.10257499999999999
2132174123 0.902307 -0.10870533333333333
2133655054 0.942745 -0.11851333333333332
2135135985 0.9055056666666667 -0.10316433333333333
2136616916 0.909747 -0.111153
2138097847 0.9131383333333334 -0.11118833333333333
2139578778 0.9165633333333334 -0.112985
2141059709 0.916851 -0.11573999999999998
2142540640 0.918983 -0.116006
2144021571 0.9198013333333332 -0.11297333333333333
2145502502 0.9215519999999999 -0.11416
2146983433 0.9190606666666665 -0.11387633333333333
2148464364 0.9205493333333333 -0.11492966666666667
2149945295 0.9220653333333333 -0.11391466666666666
2151426226 0.9208113333333332 -0.115113
2152907157 0.918646 -0.11432300000000001
2154388088 0.9192546666666666 -0.11148933333333333
2155869019 0.9152829999999998 -0.11298233333333332
2157349950 0.9115343333333334 -0.11295133333333332
2158830881 0.9100773333333333 -0.11573833333333333
2160311812 0.9088973333333332 -0.10943266666666665
2161792743 0.9029409999999999 -0.10981833333333331
2163273674 0.900021 -0.11632266666666666
2164754605 0.9051503333333334 -0.11563199999999998
2166235536 0.908794 -0.11759633333333333
2167716467 0.9125446666666666 -0.11431533333333334
2169197398 0.9149543333333333 -0.114704
2170678329 0.9163423333333333 -0.11347866666666664
2172159260 0.9196586666666666 -0.11397366666666665
2173640191 0.9203366666666667 -0.11594199999999999
2175121122 0.9212943333333332 -0.11025766666666666
2176602053 0.922218 -0.11298366666666666
2178082984 0.9245133333333332 -0.11317066666666667
2179563915 0.9226393333333333 -0.10982433333333333
2181044846 0.9222950000000001 -0.11269766666666665
2182525777 0.9202723333333334 -0.11032666666666666
2184006708 0.9191263333333334 -0.11288533333333334
2185487639 0.9179456666666665 -0.10797166666666666
2186968570 0.9134456666666666 -0.10723966666666665
2188449501 0.9132743333333333 -0.10782466666666665
2189930432 0.9068959999999999 -0.10622
2191411363 0.9036923333333333 -0.10941766666666666
2192892294 0.9017863333333334 -0.10590133333333332
2194373225 0.9086019999999999 -0.10591233333333333
2195854156 0.9095686666666666 -0.11221500000000001
2197335087 0.9123646666666666 -0.11088033333333332
2198816018 0.9149629999999999 -0.11197666666666667
2200296949 0.9164329999999998 -0.11305766666666667
2201777880 0.9186506666666665 -0.11285799999999999
2203258811 0.921497 -0.11288733333333334
2204739742 0.9224003333333333 -0.112533
2206220673 0.9218123333333332 -0.11291666666666667
2207701604 0.919662 -0.11361166666666667
2209182535 0.9196296666666666 -0.11589133333333332
2210663466 0.9221143333333333 -0.11152399999999998
2212144397 0.9210896666666666 -0.11373133333333332
2213625328 0.919754 -0.111157
2215106259 0.9157913333333334 -0.11415166666666667
2216587190 0.9109416666666666 -0.11591833333333332
2218068121 0.9068670000000001 -0.11439866666666666
2219549052 0.9072446666666667 -0.11491166666666666
2221029983 0.9015016666666666 -0.113041
2222510914 0.8990386666666668 -0.11211033333333333
2223991845 0.9013256666666667 -0.11234666666666666
2225472776 0.903571 -0.11771666666666666
2226953707 0.9088626666666666 -0.11767233333333334
2228434638 0.9118076666666666 -0.11721133333333333
2229915569 0.9121933333333333 -0.11884333333333333
2231396500 0.9137116666666666 -0.12295433333333333
2232877431 0.9152699999999998 -0.118423
2234358362 0.9153266666666667 -0.12266366666666667
2235839293 0.922491 -0.117833
2237320224 0.9178713333333333 -0.12139
2238801155 0.9167286666666665 -0.121506
2240282086 0.915955 -0.12003266666666665
2241763017 0.9154713333333332 -0.11940999999999999
2243243948 0.9138833333333333 -0.11795099999999999
2244724879 0.9130903333333333 -0.11784933333333333
2246205810 0.908744 -0.11895499999999999
2247686741 0.9078813333333333 -0.11639466666666666
2249167672 0.9047069999999999 -0.11777566666666667
2250648603 0.9001436666666667 -0.113433
2252129534 0.8974916666666666 -0.11160933333333334
2253610465 0.8989696666666667 -0.11594299999999999
2255091396 0.9031279999999999 -0.114571
2256572327 0.905668 -0.11789299999999998
2258053258 0.9055603333333333 -0.11842166666666666
2259534189 0.908377 -0.11704266666666666
2261015120 0.9098763333333333 -0.11804499999999998
2262496051 0.9144583333333333 -0.115614
2263976982 0.911916 -0.12190733333333333
2265457913 0.9131119999999999 -0.123266
2266938844 0.9124003333333334 -0.122004
2268419775 0.912669 -0.12234866666666666
2269900706 0.9173966666666665 -0.11519633333333332
2271381637 0.9167726666666667 -0.11685533333333332
2272862568 0.8990983333333333 -0.1283393333333333
2274343499 0.9129699999999998 -0.11818799999999999
2275824430 0.9125076666666666 -0.11392133333333332
2277305361 0.9069526666666665 -0.12308066666666664
2278786292 0.9082773333333334 -0.11678266666666666
2280267223 0.9054213333333334 -0.11424166666666666
2281748154 0.8918753333333334 -0.12119666666666667
2283229085 0.9015933333333332 -0.11372666666666666
2284710016 0.9025326666666666 -0.11660066666666666
2286190947 0.9065846666666666 -0.11924599999999999
2287671878 0.9068269999999999 -0.12090466666666666
2289152809 0.9136286666666666 -0.11572566666666667
2290633740 0.9120963333333334 -0.12241166666666665
2292114671 0.9135846666666666 -0.120353
2293595602 0.915438 -0.11573866666666666
2295076533 0.9163786666666667 -0.117815
2296557464 0.9158446666666666 -0.11363699999999999
2298038395 0.9160356666666667 -0.11915033333333333
2299519326 0.9134963333333332 -0.117025
2301000257 0.9090313333333333 -0.11806833333333333
2302481188 0.913404 -0.11279766666666666
2303962119 0.9066536666666667 -0.109303
2305443050 0.9118076666666666 -0.11197233333333334
2306923981 0.9125576666666666 -0.11239699999999998
2308404912 0.9073053333333334 -0.11012933333333333
2309885843 0.9017426666666666 -0.10849666666666666
2311366774 0.8991539999999999 -0.11264233333333334
2312847705 0.8978349999999999 -0.11001033333333332
2314328636 0.8998163333333333 -0.112552
2315809567 0.9049856666666667 -0.10892133333333333
2317290498 0.9042649999999999 -0.112
2318771429 0.9080416666666666 -0.11087066666666667
2320252360 0.9112356666666666 -0.11167133333333332
2321733291 0.9092186666666666 -0.117944
2323214222 0.912353 -0.11521299999999998
2324695153 0.9124626666666665 -0.114204
2326176084 0.9240316666666667 -0.11834633333333333
2327657015 0.9208733333333333 -0.125499
2329137946 0.9142516666666667 -0.11321433333333333
2330618877 0.9121033333333333 -0.11400733333333332
2332099808 0.9120186666666665 -0.11305099999999998
2333580739 0.9076953333333334 -0.11488333333333334
2335061670 0.907572 -0.11453599999999999
2336542601 0.9085503333333333 -0.11252833333333334
2338023532 0.9076919999999999 -0.112575
2339504463 0.9038269999999999 -0.11000533333333332
2340985394 0.9034856666666666 -0.11204333333333333
2342466325 0.8970119999999999 -0.11655166666666666
2343947256 0.9013886666666666 -0.11321733333333331
2345428187 0.9066863333333333 -0.11677533333333334
2346909118 0.9028243333333332 -0.11800899999999999
2348390049 0.9008123333333332 -0.11998266666666665
2349870980 0.9115156666666666 -0.11180733333333333
2351351911 0.911951 -0.114639
2352832842 0.9109753333333332 -0.11503133333333333
2354313773 0.9088633333333332 -0.12052433333333334
2355794704 0.912118 -0.11926999999999999
2357275635 0.9131576666666665 -0.11528733333333333
2358756566 0.911397 -0.11397766666666666
2360237497 0.9107050000000001 -0.113533
2361718428 0.9045413333333334 -0.11661033333333333
2363199359 0.9042056666666666 -0.11795333333333333
2364680290 0.9040203333333332 -0.12106833333333333
2366161221 0.9041969999999999 -0.11177533333333334
2367642152 0.8972183333333332 -0.11560966666666667
2369123083 0.8982076666666666 -0.11226133333333334
2370604014 0.8893169999999999 -0.11953266666666665
2372084945 0.8894500000000001 -0.11755366666666667
2373565876 0.8937499999999999 -0.11901233333333333
2375046807 0.9001053333333333 -0.11635033333333333
2376527738 0.8985493333333334 -0.11765366666666666
2378008669 0.9024673333333333 -0.11591566666666667
2379489600 0.9057966666666666 -0.116142
2380970531 0.9039943333333333 -0.118133
2382451462 0.9083173333333333 -0.11821066666666666
2383932393 0.909633 -0.12037033333333333
2385413324 0.9094653333333333 -0.11456266666666666
2386894255 0.9124836666666667 -0.108984
2388375186 0.9097923333333333 -0.11776733333333333
2389856117 0.908002 -0.11923333333333333
2391337048 0.9023663333333334 -0.12142433333333331
2392817979 0.906713 -0.11593766666666666
2394298910 0.90752 -0.11456433333333332
2395779841 0.9022709999999999 -0.11902133333333333
2397260772 0.8991486666666666 -0.12098766666666667
2398741703 0.8941853333333333 -0.12057833333333332
2400222634 0.8933426666666666 -0.123314
2401703565 0.8924943333333333 -0.11552033333333334
2403184496 0.8974793333333333 -0.11090133333333332
2404665427 0.8937976666666666 -0.12317966666666669
2406146358 0.900596 -0.104219
2407627289 0.897408 -0.13063633333333335
2409108220 0.9073386666666666 -0.11306366666666667
2410589151 0.904479 -0.12634566666666666
2412070082 0.9000123333333333 -0.12561266666666665
2413551013 0.9063589999999999 -0.128853
2415031944 0.9099146666666666 -0.12043633333333333
2416512875 0.9058233333333333 -0.12405666666666666
2417993806 0.9076893333333333 -0.11698
2419474737 0.9158023333333333 -0.133185
2420955668 0.9050923333333333 -0.12243
2422436599 0.9022963333333333 -0.12324299999999999
2423917530 0.9006243333333332 -0.12872299999999998
2425398461 0.8972493333333333 -0.12978133333333333
2426879392 0.8993053333333334 -0.11761733333333332
2428360323 0.891558 -0.12809966666666667
2429841254 0.8883483333333333 -0.12543733333333332
2431322185 0.8835783333333334 -0.12628033333333333
2432803116 0.890466 -0.12052233333333334
2434284047 0.8923686666666666 -0.1260693333333333
2435764978 0.8961226666666666 -0.11959199999999999
2437245909 0.8957233333333333 -0.12067799999999998
2438726840 0.9059836666666665 -0.12557766666666664
2440207771 0.9027226666666667 -0.126726
2441688702 0.9055976666666666 -0.12475233333333333
2443169633 0.9025939999999999 -0.124443
2444650564 0.9086903333333334 -0.12744699999999998
2446131495 0.9076923333333333 -0.12399233333333333
2447612426 0.907718 -0.1306503333333333
2449093357 0.9061363333333332 -0.12663266666666664
2450574288 0.9057553333333332 -0.12711
2452055219 0.9091826666666667 -0.12739899999999998
2453536150 0.907339 -0.12608433333333333
2455017081 0.906142 -0.12015833333333333
2456498012 0.9025873333333332 -0.11715333333333333
2457978943 0.8939943333333332 -0.12749866666666665
2459459874 0.8939216666666667 -0.123916
2460940805 0.8890196666666667 -0.12189699999999999
2462421736 0.8933309999999999 -0.12626366666666666
2463902667 0.8961936666666667 -0.125573
2465383598 0.8979563333333332 -0.125875
2466864529 0.9045886666666665 -0.1281
2468345460 0.9037423333333333 -0.12754866666666667
2469826391 0.9114516666666665 -0.12609599999999999
2471307322 0.9097770000000001 -0.12226766666666666
2472788253 0.9143336666666666 -0.11600433333333333
2474269184 0.9138576666666666 -0.12828099999999998
2475750115 0.9117093333333333 -0.12918166666666664
2477231046 0.9127593333333333 -0.12435266666666667
2478711977 0.9156663333333332 -0.12134366666666666
2480192908 0.9145079999999999 -0.11812966666666666
2481673839 0.9090163333333333 -0.116685
2483154770 0.9110326666666666 -0.12637066666666666
2484635701 0.9092373333333332 -0.12046233333333334
2486116632 0.9032313333333333 -0.11998899999999998
2487597563 0.9076549999999999 -0.12155666666666666
2489078494 0.8985666666666666 -0.115065
2490559425 0.8933236666666666 -0.11962333333333333
2492040356 0.8916259999999998 -0.12271133333333334
2493521287 0.8995686666666667 -0.12089033333333334
2495002218 0.899281 -0.12238433333333333
2496483149 0.9045903333333333 -0.1182
2497964080 0.9042879999999999 -0.11423966666666666
2499445011 0.9066806666666667 -0.11523566666666665
2500925942 0.9112859999999998 -0.12463633333333332
2502406873 0.9119440000000001 -0.11450266666666666
2503887804 0.9154776666666666 -0.11758766666666667
2505368735 0.9129383333333332 -0.11638233333333332
2506849666 0.9146423333333333 -0.115974
2508330597 0.9146603333333332 -0.11412633333333333
2509811528 0.9116779999999999 -0.112931
2511292459 0.9103196666666667 -0.11327433333333332
2512773390 0.9095083333333333 -0.119662
2514254321 0.9089513333333334 -0.11197533333333333
2515735252 0.9020246666666667 -0.111112
2517216183 0.9011353333333334 -0.11183399999999999
2518697114 0.8995533333333332 -0.10838266666666665
2520178045 0.8941590000000001 -0.10800699999999999
2521658976 0.8868253333333334 -0.10802533333333332
2523139907 0.892285 -0.10944
2524620838 0.8974173333333333 -0.11168666666666666
2526101769 0.8949789999999999 -0.11618966666666666
2527582700 0.9021699999999999 -0.11520133333333334
2529063631 0.904995 -0.11992966666666666
2530544562 0.9074083333333333 -0.11937966666666666
2532025493 0.9075273333333334 -0.12047233333333332
2533506424 0.908057 -0.11992599999999999
2534987355 0.9082603333333333 -0.12098133333333333
2536468286 0.9110776666666666 -0.12076766666666666
2537949217 0.9097006666666667 -0.117849
2539430148 0.906037 -0.12036933333333333
2540911079 0.9108393333333332 -0.11811166666666667
2542392010 0.9087319999999999 -0.12272799999999998
2543872941 0.905963 -0.12204566666666666
2545353872 0.9042003333333333 -0.12534800000000001
2546834803 0.9002536666666666 -0.12128
2548315734 0.8980666666666666 -0.12201599999999999
2549796665 0.8955173333333333 -0.12064699999999998
2551277596 0.8949433333333332 -0.12599833333333332
2552758527 0.895346 -0.12415566666666666
2554239458 0.8997363333333334 -0.1251
2555720389 0.900744 -0.12317266666666665
2557201320 0.9012716666666667 -0.12518966666666664
2558682251 0.9053113333333332 -0.12872966666666666
2560163182 0.9050193333333333 -0.12921533333333335
2561644113 0.9088723333333333 -0.12971366666666664
2563125044 0.9077586666666667 -0.12856266666666666
2564605975 0.9077816666666667 -0.12926666666666667
2566086906 0.9088553333333333 -0.124892
2567567837 0.9094443333333333 -0.125125
2569048768 0.9099896666666667 -0.12686066666666665
2570529699 0.8878236666666668 -0.14285766666666666
2572010630 0.8904833333333332 -0.12272533333333333
2573491561 0.9045493333333333 -0.12153333333333334
2574972492 0.9033469999999999 -0.12268199999999999
2576453423 0.900292 -0.12304566666666668
2577934354 0.897131 -0.12355433333333332
2579415285 0.892 -0.12253700000000001
2580896216 0.8916213333333333 -0.12139699999999999
2582377147 0.8897453333333332 -0.12076866666666666
2583858078 0.89572 -0.12243499999999999
2585339009 0.8945706666666666 -0.12434
2586819940 0.895345 -0.1268113333333333
2588300871 0.900949 -0.12176066666666666
2589781802 0.9031723333333332 -0.124145
2591262733 0.903733 -0.12403033333333335
2592743664 0.9053403333333333 -0.12793233333333331
2594224595 0.904963 -0.12213233333333331
2595705526 0.9071296666666667 -0.122828
2597186457 0.905359 -0.12896766666666665
2598667388 0.9032423333333333 -0.12349366666666667
2600148319 0.9046216666666667 -0.12139099999999999
2601629250 0.9019463333333333 -0.124605
2603110181 0.8998383333333333 -0.12081966666666666
2604591112 0.900867 -0.12037066666666665
2606072043 0.8946996666666666 -0.11998900000000001
2607552974 0.8880586666666668 -0.12215033333333332
2609033905 0.8899109999999999 -0.12132766666666667
2610514836 0.8865296666666667 -0.11807533333333334
2611995767 0.8861169999999998 -0.12129699999999999
2613476698 0.8890509999999999 -0.11903833333333333
2614957629 0.8897596666666666 -0.12303266666666665
2616438560 0.8931286666666667 -0.12524633333333332
2617919491 0.8913323333333333 -0.12049366666666667
2619400422 0.897311 -0.12752566666666665
2620881353 0.8979489999999999 -0.12980133333333332
2622362284 0.8957566666666665 -0.12988533333333332
2623843215 0.9281246666666667 -0.10254766666666666
2625324146 0.8986563333333333 -0.12916666666666668
2626805077 0.9014953333333333 -0.1292023333333333
2628286008 0.8963089999999998 -0.125693
2629766939 0.8969543333333332 -0.13017499999999999
2631247870 0.897087 -0.12877
2632728801 0.8940623333333333 -0.128581
2634209732 0.8955803333333333 -0.12877499999999997
2635690663 0.8927316666666665 -0.12260733333333332
2637171594 0.8868679999999999 -0.13067433333333334
2638652525 0.8850926666666666 -0.12714333333333333
2640133456 0.8823526666666668 -0.12723766666666664
2641614387 0.8832076666666666 -0.126583
2643095318 0.8855246666666666 -0.12881199999999998
2644576249 0.8901486666666667 -0.13035766666666665
2646057180 0.890571 -0.13460466666666665
2647538111 0.8898663333333332 -0.13447166666666666
2649019042 0.8904293333333333 -0.12977866666666665
2650499973 0.893961 -0.12997199999999998
2651980904 0.8912613333333332 -0.12765333333333334
2653461835 0.8985 -0.13107166666666664
2654942766 0.9006836666666667 -0.13284566666666667
2656423697 0.8973283333333333 -0.13169599999999998
2657904628 0.8963466666666667 -0.129083
2659385559 0.8978039999999999 -0.12649233333333332
2660866490 0.8984573333333332 -0.12600266666666665
2662347421 0.9015226666666667 -0.12466033333333333
2663828352 0.8902579999999999 -0.128494
2665309283 0.886763 -0.13249733333333336
2666790214 0.8875086666666667 -0.13029933333333332
2668271145 0.8807973333333333 -0.12974633333333332
2669752076 0.8785536666666666 -0.12284066666666667
2671233007 0.8738823333333334 -0.12871466666666664
2672713938 0.8826646666666667 -0.12806133333333333
2674194869 0.8863603333333333 -0.1271233333333333
2675675800 0.88684 -0.12915933333333335
2677156731 0.8910153333333334 -0.12886266666666665
2678637662 0.89394 -0.13164733333333334
2680118593 0.8960303333333333 -0.1330073333333333
2681599524 0.89051 -0.13279033333333334
2683080455 0.8961936666666667 -0.1317276666666667
2684561386 0.8976329999999999 -0.12913366666666665
2686042317 0.9025226666666667 -0.1251283333333333
2687523248 0.9002276666666666 -0.12742900000000001
2689004179 0.8951256666666666 -0.13577033333333333
2690485110 0.8997059999999999 -0.12811433333333333
2691966041 0.8950376666666666 -0.13524499999999998
2693446972 0.8967186666666667 -0.13159366666666666
2694927903 0.896382 -0.130319
2696408834 0.8908429999999999 -0.12915666666666664
2697889765 0.8904486666666666 -0.13015633333333332
2699370696 0.8883526666666667 -0.12953166666666666
2700851627 0.8811636666666667 -0.13327866666666666
2702332558 0.8847046666666666 -0.132303
2703813489 0.889383 -0.13260833333333333
2705294420 0.8967816666666667 -0.1318083333333333
2706775351 0.8996176666666665 -0.12886166666666665
2708256282 0.8994043333333333 -0.1285093333333333
2709737213 0.9034413333333333 -0.13522499999999998
2711218144 0.9016639999999999 -0.130905
2712699075 0.9121253333333332 -0.13057666666666667
2714180006 0.9064763333333332 -0.13133
2715660937 0.9073686666666667 -0.13122166666666668
2717141868 0.9073803333333333 -0.13019366666666665
2718622799 0.8992579999999999 -0.12442833333333332
2720103730 0.9042723333333333 -0.12604533333333334
2721584661 0.8990816666666667 -0.128286
2723065592 0.902093 -0.12736966666666666
2724546523 0.8947466666666666 -0.12636766666666666
2726027454 0.8946160000000001 -0.12613166666666667
2727508385 0.8917469999999998 -0.12472733333333333
2728989316 0.8937999999999999 -0.11882366666666666
2730470247 0.8870199999999999 -0.12345600000000001
2731951178 0.8881883333333334 -0.12652566666666668
2733432109 0.8915043333333333 -0.12313866666666665
2734913040 0.8915973333333334 -0.12339233333333333
2736393971 0.9021983333333333 -0.12136133333333333
2737874902 0.8953473333333333 -0.12917566666666666
2739355833 0.903305 -0.12339666666666665
2740836764 0.8946303333333333 -0.13061966666666666
2742317695 0.9063883333333332 -0.11994066666666665
2743798626 0.8979536666666667 -0.128502
2745279557 0.8965816666666667 -0.13169266666666662
2746760488 0.903168 -0.12083866666666666
2748241419 0.9031859999999999 -0.12501566666666666
2749722350 0.9019369999999999 -0.12217866666666667
2751203281 0.8926516666666666 -0.128278
2752684212 0.8958269999999999 -0.12372233333333334
2754165143 0.8933059999999999 -0.12534499999999998
2755646074 0.8989893333333333 -0.11488966666666667
2757127005 0.8900126666666666 -0.12320033333333333
2758607936 0.8860883333333334 -0.12474999999999999
2760088867 0.8834873333333333 -0.12709566666666666
2761569798 0.8786503333333333 -0.12996833333333335
2763050729 0.8825303333333332 -0.130934
2764531660 0.888603 -0.12422066666666666
2766012591 0.8900453333333334 -0.12697433333333333
2767493522 0.8846643333333333 -0.1368113333333333
2768974453 0.8933863333333332 -0.12992033333333333
2770455384 0.8933609999999998 -0.13418166666666667
2771936315 0.8892803333333333 -0.1386963333333333
2773417246 0.9061063333333333 -0.13506033333333334
2774898177 0.8965946666666667 -0.13326066666666667
2776379108 0.8980389999999999 -0.12985633333333332
2777860039 0.890746 -0.1373353333333333
2779340970 0.8954003333333334 -0.14080666666666666
2780821901 0.8936279999999999 -0.13821799999999998
2782302832 0.8915123333333332 -0.13649866666666666
2783783763 0.8879633333333332 -0.13654099999999997
2785264694 0.8871560000000001 -0.13539866666666667
2786745625 0.884466 -0.14232633333333333
2788226556 0.8817763333333334 -0.137134
2789707487 0.8796330000000001 -0.14496966666666666
2791188418 0.8790953333333333 -0.14255133333333334
2792669349 0.8779443333333333 -0.147436
2794150280 0.8887136666666666 -0.14463933333333334
2795631211 0.8867063333333333 -0.144558
2797112142 0.8936016666666667 -0.14667166666666667
2798593073 0.8925226666666666 -0.14542999999999998
2800074004 0.9000376666666666 -0.144589
2801554935 0.8980589999999999 -0.146839
2803035866 0.9016573333333332 -0.14307033333333333
2804516797 0.90103 -0.14380566666666664
2805997728 0.9015026666666666 -0.146116
2807478659 0.9040276666666666 -0.13939433333333334
2808959590 0.897875 -0.154423
2810440521 0.9037496666666665 -0.14237433333333332
2811921452 0.8979243333333333 -0.150098
2813402383 0.8942903333333333 -0.1403503333333333
2814883314 0.8952469999999999 -0.1424453333333333
2816364245 0.891501 -0.14478
2817845176 0.8893743333333333 -0.14099633333333333
2819326107 0.8873866666666667 -0.14156533333333332
2820807038 0.889794 -0.14651499999999998
2822287969 0.8864753333333333 -0.155831
2823768900 0.8900213333333333 -0.15319833333333333
2825249831 0.8969719999999999 -0.1541283333333333
2826730762 0.8978729999999999 -0.15149666666666667
2828211693 0.8989023333333332 -0.151991
2829692624 0.9079936666666666 -0.15524766666666667
2831173555 0.9019946666666666 -0.15931866666666664
2832654486 0.9078933333333332 -0.13551666666666665
2834135417 0.9105733333333333 -0.147982
2835616348 0.9135556666666667 -0.15069333333333332
2837097279 0.9106913333333333 -0.15408433333333332
2838578210 0.911213 -0.14326266666666668
2840059141 0.908434 -0.1448573333333333
2841540072 0.907695 -0.13951833333333333
2843021003 0.9044619999999999 -0.14452500000000001
2844501934 0.9045913333333333 -0.13139933333333334
2845982865 0.8988579999999999 -0.13896533333333333
2847463796 0.8911219999999999 -0.130576
2848944727 0.8897103333333334 -0.13508066666666668
2850425658 0.8923393333333333 -0.12592866666666663
2851906589 0.8951653333333331 -0.134089
2853387520 0.896058 -0.13490033333333334
2854868451 0.8955716666666667 -0.13494333333333333
2856349382 0.899089 -0.13598266666666664
2857830313 0.9041526666666666 -0.13946033333333333
2859311244 0.9053433333333333 -0.13992
2860792175 0.8892680000000001 -0.13022066666666665
2862273106 0.9073056666666666 -0.14833933333333332
2863754037 0.908147 -0.14138999999999996
2865234968 0.9133683333333332 -0.149724
2866715899 0.9030043333333333 -0.13960466666666665
2868196830 0.901897 -0.13671366666666665
2869677761 0.8176023333333333 -0.20315666666666665
2871158692 0.9023186666666666 -0.13906033333333334
2872639623 0.8970216666666666 -0.14156
2874120554 0.896155 -0.139538
2875601485 0.8920026666666666 -0.1447173333333333
2877082416 0.893437 -0.14831833333333333
2878563347 0.886577 -0.13942766666666664
2880044278 0.8818676666666667 -0.14028866666666664
2881525209 0.8846126666666666 -0.13656733333333332
2883006140 0.8903523333333334 -0.14419133333333334
2884487071 0.892518 -0.1468563333333333
2885968002 0.8860463333333334 -0.14280733333333334
2887448933 0.8901843333333332 -0.15272999999999998
2888929864 0.8988433333333333 -0.156989
2890410795 0.8988676666666666 -0.15163466666666664
2891891726 0.897019 -0.15761033333333332
2893372657 0.8992046666666665 -0.144612
2894853588 0.9038390000000001 -0.15568566666666667
2896334519 0.8977346666666666 -0.14420466666666668
2897815450 0.8962179999999998 -0.15219933333333333
2899296381 0.897025 -0.14992533333333333
2900777312 0.8997786666666667 -0.15148699999999998
2902258243 0.8939 -0.146926
2903739174 0.8906603333333332 -0.14073133333333332
2905220105 0.8891169999999999 -0.14868833333333334
2906701036 0.8923716666666667 -0.148331
2908181967 0.883464 -0.1463283333333333
2909662898 0.8766986666666666 -0.14034866666666665
2911143829 0.8827780000000001 -0.14619933333333332
2912624760 0.886153 -0.14790999999999999
2914105691 0.8817763333333333 -0.14560066666666666
2915586622 0.8848353333333333 -0.14842933333333333
2917067553 0.891117 -0.14868699999999999
2918548484 0.8881143333333332 -0.148083
2920029415 0.8914383333333333 -0.1489103333333333
2921510346 0.8939606666666666 -0.14395799999999997
2922991277 0.8903363333333334 -0.14501766666666666
2924472208 0.8932676666666667 -0.14838733333333334
2925953139 0.8933986666666667 -0.14466933333333332
2927434070 0.8939130000000001 -0.14154933333333333
2928915001 0.8949159999999999 -0.14343299999999998
2930395932 0.893974 -0.142972
2931876863 0.889655 -0.13885733333333333
2933357794 0.887139 -0.13866299999999998
2934838725 0.8869829999999999 -0.13633966666666666
2936319656 0.8843189999999999 -0.13246066666666667
2937800587 0.8780986666666666 -0.1339413333333333
2939281518 0.8740716666666666 -0.135358
2940762449 0.8728863333333333 -0.13054433333333332
2942243380 0.8764236666666667 -0.13312833333333332
2943724311 0.8798773333333334 -0.13846766666666666
2945205242 0.8816736666666666 -0.13728666666666667
2946686173 0.8854056666666665 -0.13865966666666665
2948167104 0.8907643333333333 -0.13949033333333333
2949648035 0.8921043333333334 -0.13987366666666665
2951128966 0.8891103333333332 -0.140529
2952609897 0.88504 -0.14222933333333332
2954090828 0.886938 -0.14583366666666667
2955571759 0.8903243333333333 -0.14054033333333332
2957052690 0.8893846666666666 -0.13935966666666666
2958533621 0.8887696666666667 -0.139149
2960014552 0.8874369999999999 -0.14707433333333333
2961495483 0.884556 -0.14121766666666663
2962976414 0.8820463333333333 -0.14107833333333333
2964457345 0.8818966666666667 -0.13872933333333332
2965938276 0.8787463333333332 -0.13701333333333332
2967419207 0.8752236666666665 -0.1336693333333333
2968900138 0.8705226666666667 -0.13973133333333332
2970381069 0.8688769999999999 -0.139815
2971862000 0.8747940000000001 -0.13452799999999998
2973342931 0.8766656666666666 -0.13804633333333333
2974823862 0.8798153333333333 -0.14240966666666666
2976304793 0.8799123333333334 -0.14047199999999999
2977785724 0.8861346666666666 -0.13763199999999998
2979266655 0.884369 -0.13815133333333332
2980747586 0.8869693333333333 -0.14242733333333335
2982228517 0.8897476666666666 -0.13753366666666667
2983709448 0.8852073333333332 -0.14027499999999998
2985190379 0.8881793333333332 -0.14146299999999998
2986671310 0.8879466666666667 -0.13934133333333332
2988152241 0.8873833333333333 -0.13751799999999997
2989633172 0.8877806666666667 -0.13801033333333332
2991114103 0.885048 -0.1353353333333333
2992595034 0.88289 -0.13824466666666668
2994075965 0.8818326666666666 -0.131849
2995556896 0.8825103333333333 -0.13248033333333334
2997037827 0.8771463333333333 -0.13136033333333333
2998518758 0.8765303333333333 -0.12616066666666664
2999999689 0.8713663333333332 -0.13040666666666667
