# HZ S RI R 50
10000 1.178937 -0.045365666666666665
1495879 0.9156049999999999 1.4996960000000001
2981758 0.5777929999999999 0.6886676666666668
4467637 0.5808806666666667 0.32660633333333333
5953516 0.6509013333333334 0.13733333333333334
7439395 0.7433086666666666 0.012051666666666667
8925274 1.0580463333333334 -0.061611
10411153 1.0968583333333333 0.037767333333333326
11897032 1.084362 0.16890833333333333
13382911 1.0162366666666667 0.29204
14868790 0.9133933333333334 0.3790023333333333
16354669 0.8009353333333333 0.42564599999999997
17840548 0.6973433333333333 0.438783
19326427 0.6085563333333334 0.432024
20812306 0.5356323333333334 0.41350800000000004
22298185 0.476558 0.3891306666666667
23784064 0.42886566666666665 0.3636186666666667
25269943 0.39053999999999994 0.3375666666666666
26755822 0.359354 0.312672
28241701 0.3336193333333333 0.28904100000000005
29727580 0.31215166666666666 0.26711066666666666
31213459 0.32203800000000005 0.25183466666666665
32699338 0.33846899999999996 0.237097
34185217 0.3533296666666667 0.22578399999999998
35671096 0.36899033333333336 0.20761200000000002
37156975 0.38396199999999997 0.19086366666666665
38642854 0.397858 0.17179233333333332
40128733 0.4121996666666667 0.15093299999999998
41614612 0.42467799999999994 0.13706133333333334
43100491 0.4380813333333333 0.116917
44586370 0.45140800000000003 0.09658966666666667
46072249 0.46496333333333334 0.075077
47558128 0.479346 0.05595833333333333
49044007 0.49581666666666663 0.040746333333333336
50529886 0.5142413333333333 0.023735333333333334
52015765 0.536503 -0.0035546666666666665
53501644 0.5643513333333333 -0.025018000000000002
54987523 0.6028566666666667 -0.047726
56473402 0.6541066666666667 -0.08979566666666666
57959281 0.7435726666666667 -0.10324066666666666
59445160 0.9004216666666666 -0.08885166666666666
60931039 0.99695 -0.055231
62416918 0.9992476666666666 -0.07163666666666667
63902797 1.003267 -0.075023
65388676 1.0044523333333333 -0.09001100000000001
66874555 1.0086033333333333 -0.08113933333333334
68360434 1.000356 -0.17261700000000002
69846313 1.0131643333333333 -0.05939466666666667
71332192 1.013775 -0.06045999999999999
72818071 1.0142086666666668 -0.09920066666666667
74303950 1.013716 -0.096848
75789829 1.016638333333333 -0.023685666666666664
77275708 1.0169383333333333 -0.039626666666666664
78761587 1.015994 -0.027240666666666667
80247466 1.0053096666666665 -0.15008366666666667
81733345 1.0092673333333335 -0.09767333333333333
83219224 1.0055933333333333 -0.11471666666666668
84705103 0.9995386666666667 -0.139837
86190982 1.0041010000000001 -0.015400666666666667
87676861 0.9942616666666666 -0.13247899999999999
89162740 0.9929576666666667 -0.10779299999999999
90648619 0.9898060000000001 -0.12614666666666666
92134498 0.993999 -0.12537900000000002
93620377 1.000529 -0.09374966666666666
95106256 1.0001373333333332 -0.12096766666666665
96592135 1.0017203333333333 -0.12074433333333334
98078014 1.005102 -0.11659266666666668
99563893 1.0071716666666666 -0.11452033333333334
101049772 1.0074103333333333 -0.12773666666666667
102535651 1.0073673333333335 -0.12895133333333333
104021530 1.0083576666666667 -0.13147866666666666
105507409 1.0080023333333334 -0.13842266666666667
106993288 1.0078276666666666 -0.1333156666666667
108479167 1.0046666666666668 -0.13487733333333332
109965046 1.0042526666666667 -0.13588433333333336
111450925 1.0023943333333334 -0.14911066666666667
112936804 1.000723 -0.1380066666666667
114422683 0.9978613333333334 -0.140441
115908562 0.9955693333333334 -0.13983933333333332
117394441 0.9940886666666667 -0.12796133333333334
118880320 0.990799 -0.129068
120366199 0.9890439999999999 -0.124361
121852078 0.9933196666666667 -0.12687733333333331
123337957 0.9929726666666667 -0.16137333333333334
124823836 0.999637 -0.1318676666666667
126309715 1.004182 -0.135313
127795594 1.002079 -0.15578333333333333
129281473 1.005528 -0.15660433333333335
130767352 1.006615 -0.15208166666666667
132253231 1.007415 -0.15334266666666665
133739110 1.0096596666666666 -0.15500566666666668
135224989 0.9897126666666667 -0.18441833333333335
136710868 0.993706 -0.17386333333333334
138196747 0.993939 -0.17415266666666665
139682626 0.9991876666666667 -0.14993133333333333
141168505 0.9924373333333333 -0.16935666666666668
142654384 0.9898760000000001 -0.17663933333333334
144140263 0.9939323333333334 -0.152139
145626142 0.986306 -0.17872200000000002
147112021 0.9832696666666667 -0.17894599999999997
148597900 0.9784696666666667 -0.18565733333333334
150083779 0.9780253333333332 -0.17835
151569658 0.9807056666666667 -0.18105700000000002
153055537 0.9838913333333332 -0.18359066666666668
154541416 0.9858060000000001 -0.18555600000000003
156027295 0.9883246666666666 -0.18790966666666667
157513174 0.9902920000000001 -0.18992699999999998
158999053 0.9913456666666667 -0.19154933333333332
160484932 0.992271 -0.19297466666666666
161970811 0.993556 -0.19504033333333334
163456690 0.9935693333333333 -0.19575866666666666
164942569 0.9931543333333334 -0.19742466666666666
166428448 0.9934553333333334 -0.19902300000000003
167914327 0.9915059999999999 -0.19961933333333334
169400206 0.9897903333333332 -0.20698033333333332
170886085 0.9890829999999999 -0.20265266666666668
172371964 0.9867146666666667 -0.20450533333333332
173857843 0.984445 -0.20516199999999998
175343722 0.9790216666666667 -0.21214766666666665
176829601 0.9788163333333334 -0.207256
178315480 0.9742013333333333 -0.209097
179801359 0.9701713333333334 -0.21041466666666667
181287238 0.972827 -0.21334433333333333
182773117 0.9753906666666667 -0.21526199999999998
184258996 0.9780203333333333 -0.21695699999999998
185744875 0.9809606666666667 -0.22025066666666668
187230754 0.9836356666666667 -0.222016
188716633 0.9842203333333334 -0.22380233333333333
190202512 0.9857216666666666 -0.22507533333333332
191688391 0.9863423333333333 -0.226715
193174270 0.9867836666666667 -0.22866466666666665
194660149 0.9866246666666667 -0.22971933333333336
196146028 0.9863043333333333 -0.23178333333333334
197631907 0.9855360000000001 -0.233267
199117786 0.983832 -0.23424533333333333
200603665 0.9817573333333333 -0.23538033333333333
202089544 0.978688 -0.2370846666666667
203575423 0.9772996666666667 -0.23817666666666668
205061302 0.973357 -0.24048799999999995
206547181 0.9700823333333334 -0.241139
208033060 0.9657106666666667 -0.243119
209518939 0.961201 -0.24492466666666668
211004818 0.9621943333333333 -0.24768966666666667
212490697 0.9658479999999999 -0.2501196666666667
213976576 0.9693473333333333 -0.25256
215462455 0.9713126666666666 -0.25465266666666664
216948334 0.9739976666666667 -0.2563566666666667
218434213 0.9759290000000002 -0.25771666666666665
219920092 0.977035 -0.25986533333333334
221405971 0.9768366666666667 -0.2618486666666667
222891850 0.9770236666666667 -0.2628996666666667
224377729 0.9784606666666668 -0.26464366666666667
225863608 0.9876023333333332 -0.24970366666666666
227349487 0.9767343333333333 -0.2663486666666666
228835366 0.973916 -0.2677863333333333
230321245 0.9734036666666667 -0.26934966666666665
231807124 0.9702653333333334 -0.27057899999999996
233293003 0.967342 -0.272507
234778882 0.964355 -0.273213
236264761 0.960219 -0.27532399999999996
237750640 0.956118 -0.2763546666666667
239236519 0.9508009999999999 -0.27826666666666666
240722398 0.9503483333333334 -0.2801383333333334
242208277 0.9539759999999999 -0.283808
243694156 0.9571663333333333 -0.28650566666666666
245180035 0.960004 -0.28833866666666663
246665914 0.9625900000000001 -0.2908386666666667
248151793 0.965197 -0.2917283333333333
249637672 0.9661716666666665 -0.29405
251123551 0.966824 -0.2959416666666667
252609430 0.9651256666666667 -0.30321133333333333
254095309 0.9702356666666666 -0.29316433333333336
255581188 0.9642933333333334 -0.3053506666666667
257067067 0.9685026666666667 -0.29568333333333335
258552946 0.9620286666666668 -0.308123
260038825 0.964673 -0.2982053333333333
261524704 0.9567086666666667 -0.31053833333333336
263010583 0.9597519999999999 -0.30010766666666666
264496462 0.9509666666666666 -0.31146066666666666
265982341 0.9511276666666667 -0.302713
267468220 0.94159 -0.314708
268954099 0.9416576666666666 -0.3049403333333333
270439978 0.9341940000000001 -0.31757233333333335
271925857 0.9428723333333333 -0.3105166666666667
273411736 0.941331 -0.3239476666666667
274897615 0.949593 -0.31622766666666663
276383494 0.9467843333333333 -0.329958
277869373 0.9550023333333333 -0.31998433333333337
279355252 0.9503246666666666 -0.332737
280841131 0.9570376666666668 -0.3250663333333333
282327010 0.952427 -0.33802
283812889 0.9576906666666666 -0.32782
285298768 0.9514619999999999 -0.3399986666666666
286784647 0.9557943333333334 -0.33029366666666665
288270526 0.9496863333333333 -0.3415033333333333
289756405 0.9538176666666667 -0.3337403333333333
291242284 0.9449489999999999 -0.3437333333333333
292728163 0.9473636666666666 -0.334584
294214042 0.9380640000000001 -0.3452206666666667
295699921 0.9400270000000001 -0.33526100000000003
297185800 0.9319873333333333 -0.3409603333333333
298671679 0.9276 -0.341828
300157558 0.9228860000000001 -0.34157433333333337
301643437 0.9272360000000001 -0.344406
303129316 0.9300499999999999 -0.3506993333333333
304615195 0.9336886666666667 -0.352622
306101074 0.9358573333333334 -0.35574733333333336
307586953 0.9378086666666666 -0.3579746666666666
309072832 0.9398873333333334 -0.35944366666666666
310558711 0.9410743333333333 -0.3612843333333333
312044590 0.9419603333333333 -0.364166
313530469 0.9419713333333334 -0.36516
315016348 0.9419073333333333 -0.3659306666666667
316502227 0.9414013333333333 -0.36704933333333334
317988106 0.9398466666666666 -0.367944
319473985 0.9373706666666667 -0.368539
320959864 0.9651913333333333 -0.365778
322445743 0.9323386666666668 -0.3692496666666667
323931622 0.9287496666666666 -0.37042899999999995
325417501 0.9250440000000001 -0.36923500000000004
326903380 0.920462 -0.37046266666666666
328389259 0.9159583333333333 -0.370528
329875138 0.9102966666666666 -0.3705823333333333
331361017 0.9126206666666666 -0.37447733333333333
332846896 0.914158 -0.377529
334332775 0.9176556666666666 -0.3818460000000001
335818654 0.9200233333333333 -0.3853906666666667
337304533 0.9216063333333332 -0.38711366666666663
338790412 0.9223253333333332 -0.39030633333333337
340276291 0.9228580000000001 -0.39317033333333334
341762170 0.9250733333333333 -0.3939713333333333
343248049 0.9243046666666667 -0.39580166666666666
344733928 0.923152 -0.396859
346219807 0.9221733333333333 -0.3985526666666666
347705686 0.9206223333333333 -0.39935766666666667
349191565 0.9185196666666666 -0.40032966666666664
350677444 0.9159770000000002 -0.40077866666666667
352163323 0.9163963333333333 -0.3961586666666667
353649202 0.9102766666666667 -0.399878
355135081 0.9055623333333335 -0.4013406666666666
356620960 0.9009086666666667 -0.4011636666666667
358106839 0.895633 -0.40122300000000005
359592718 0.8902273333333334 -0.40109466666666665
361078597 0.891066 -0.40470333333333336
362564476 0.8939636666666667 -0.408209
364050355 0.8961039999999999 -0.411373
365536234 0.898676 -0.4153606666666667
367022113 0.9001866666666668 -0.41891799999999996
368507992 0.9012549999999999 -0.421794
369993871 0.9025893333333332 -0.42336799999999997
371479750 0.9031966666666666 -0.4252396666666667
372965629 0.9043863333333334 -0.426399
374451508 0.9030793333333333 -0.42815000000000003
375937387 0.9028700000000001 -0.42936599999999997
377423266 0.901995 -0.4301296666666667
378909145 0.8999456666666666 -0.43023266666666665
380395024 0.8985906666666666 -0.430712
381880903 0.8952753333333333 -0.4300743333333333
383366782 0.8929043333333332 -0.430523
384852661 0.8892973333333334 -0.4302433333333333
386338540 0.8854683333333334 -0.4294193333333334
387824419 0.8804569999999999 -0.43005099999999996
389310298 0.8757206666666667 -0.42981566666666665
390796177 0.8755316666666667 -0.43138799999999994
392282056 0.8769306666666666 -0.4357123333333333
393767935 0.8790513333333333 -0.43901666666666667
395253814 0.8816843333333334 -0.44228500000000004
396739693 0.8831300000000001 -0.44490466666666667
398225572 0.8846093333333335 -0.44744500000000004
399711451 0.884773 -0.45000899999999994
401197330 0.885924 -0.4520416666666667
402683209 0.885935 -0.453781
404169088 0.8851483333333333 -0.4543553333333333
405654967 0.8845246666666666 -0.456604
407140846 0.8825716666666666 -0.45695100000000005
408626725 0.8821396666666667 -0.4572533333333333
410112604 0.8804333333333333 -0.4582633333333333
411598483 0.8785166666666666 -0.4576643333333334
413084362 0.876067 -0.4570943333333333
414570241 0.8723136666666668 -0.45694066666666666
416056120 0.8689600000000001 -0.45669133333333334
417541999 0.8650783333333334 -0.45615333333333336
419027878 0.8601566666666667 -0.45543
420513757 0.8574776666666667 -0.455921
421999636 0.8587893333333333 -0.4615633333333333
423485515 0.862244 -0.4640006666666667
424971394 0.8631223333333334 -0.466801
426457273 0.86423 -0.4715696666666667
427943152 0.8658446666666665 -0.4740663333333333
429429031 0.8666966666666668 -0.47536500000000004
430914910 0.865257 -0.477307
432400789 0.8666996666666668 -0.4800773333333333
433886668 0.866029 -0.481432
435372547 0.8660253333333333 -0.48258833333333334
436858426 0.8642603333333335 -0.4827713333333334
438344305 0.8626483333333334 -0.48388666666666663
439830184 0.8603046666666666 -0.48439066666666664
441316063 0.858566 -0.48491766666666664
442801942 0.8559683333333333 -0.4844556666666667
444287821 0.8521580000000001 -0.48461899999999997
445773700 0.8497966666666666 -0.484285
447259579 0.8455433333333332 -0.483408
448745458 0.8412566666666667 -0.48408200000000007
450231337 0.8390296666666667 -0.48122133333333333
451717216 0.8409133333333333 -0.48497999999999997
453203095 0.8430083333333332 -0.48911299999999996
454688974 0.844233 -0.491879
456174853 0.8458103333333332 -0.4957023333333333
457660732 0.8465776666666667 -0.4975556666666667
459146611 0.8478906666666667 -0.4984026666666666
460632490 0.846674 -0.5015546666666667
462118369 0.8476413333333334 -0.5031253333333333
463604248 0.8468653333333332 -0.5042996666666667
465090127 0.8458480000000002 -0.505683
466576006 0.8459050000000001 -0.5053473333333334
468061885 0.8453386666666667 -0.5050173333333334
469547764 0.8427666666666666 -0.5057406666666666
471033643 0.8407330000000001 -0.5063193333333333
472519522 0.8376343333333334 -0.5067830000000001
474005401 0.834934 -0.50666
475491280 0.830677 -0.5054653333333333
476977159 0.8281566666666667 -0.5044719999999999
478463038 0.8228473333333333 -0.5046970000000001
479948917 0.8175316666666667 -0.5045486666666666
481434796 0.8592873333333334 -0.4997036666666667
482920675 0.8218843333333333 -0.5113423333333333
484406554 0.8254743333333333 -0.512954
485892433 0.825968 -0.5166843333333332
487378312 0.827012 -0.5186826666666667
488864191 0.82523 -0.526567
490350070 0.8283193333333333 -0.5232589999999999
491835949 0.8281586666666666 -0.5238649999999999
493321828 0.8281413333333334 -0.525842
494807707 0.8284076666666667 -0.5268756666666666
496293586 0.8265253333333332 -0.5276953333333333
497779465 0.8265896666666667 -0.5269416666666666
499265344 0.8247723333333333 -0.5288113333333333
500751223 0.8216990000000001 -0.528647
502237102 0.8212280000000001 -0.5281170000000001
503722981 0.8168386666666668 -0.5292606666666667
505208860 0.8127833333333333 -0.527375
506694739 0.810096 -0.5276883333333334
508180618 0.8043626666666667 -0.5270863333333333
509666497 0.800662 -0.5266843333333333
511152376 0.8020036666666667 -0.5290563333333332
512638255 0.8035906666666666 -0.5326273333333333
514124134 0.8054399999999999 -0.5360603333333334
515610013 0.8069473333333333 -0.5383969999999999
517095892 0.8081213333333332 -0.5403343333333334
518581771 0.809135 -0.5431076666666667
520067650 0.8096526666666667 -0.5456303333333333
521553529 0.8104596666666666 -0.5459139999999999
523039408 0.7733716666666667 -0.5502919999999999
524525287 0.8094056666666667 -0.5491383333333334
526011166 0.808466 -0.5507866666666666
527497045 0.806733 -0.5504296666666667
528982924 0.8064413333333333 -0.550698
530468803 0.8032516666666667 -0.5499036666666667
531954682 0.8004766666666666 -0.5507423333333333
533440561 0.7991916666666666 -0.54921
534926440 0.7951776666666667 -0.5486219999999999
536412319 0.7911693333333334 -0.5490633333333333
537898198 0.7864806666666665 -0.548504
539384077 0.7807149999999999 -0.5484823333333334
540869956 0.7800553333333333 -0.5496583333333332
542355835 0.784389 -0.551256
543841714 0.785431 -0.5544873333333333
545327593 0.7864056666666667 -0.5571836666666666
546813472 0.7878823333333332 -0.5574203333333333
548299351 0.7889593333333332 -0.5586903333333333
549785230 0.7911056666666667 -0.5603603333333333
551271109 0.7900550000000001 -0.5612363333333333
552756988 0.790007 -0.5620463333333334
554242867 0.7894883333333333 -0.5616216666666666
555728746 0.788208 -0.5596946666666666
557214625 0.7866263333333333 -0.5611743333333333
558700504 0.7840636666666666 -0.5620116666666667
560186383 0.7814956666666667 -0.5583433333333333
561672262 0.7786430000000001 -0.5588186666666667
563158141 0.776676 -0.5563913333333333
564644020 0.7729506666666667 -0.5546493333333333
566129899 0.7677173333333335 -0.5545633333333333
567615778 0.763704 -0.5516476666666666
569101657 0.759435 -0.550022
570587536 0.7565419999999999 -0.5503836666666667
572073415 0.7566816666666667 -0.5563673333333333
573559294 0.7582276666666666 -0.5606623333333333
575045173 0.7597126666666667 -0.5654406666666666
576531052 0.7609366666666667 -0.5683203333333333
578016931 0.7615326666666666 -0.5704396666666667
579502810 0.7618116666666667 -0.575646
580988689 0.7621583333333334 -0.577089
582474568 0.7606663333333333 -0.5806906666666667
583960447 0.7599073333333334 -0.5821716666666666
585446326 0.7589790000000001 -0.5829810000000001
586932205 0.7580726666666667 -0.5851203333333334
588418084 0.756328 -0.5867589999999999
589903963 0.753692 -0.5884366666666666
591389842 0.7518370000000001 -0.589216
592875721 0.7481126666666666 -0.5895876666666666
594361600 0.7456886666666668 -0.5892176666666666
595847479 0.7417903333333333 -0.589679
597333358 0.7384673333333334 -0.5892429999999999
598819237 0.7326579999999999 -0.5893356666666666
600305116 0.7302886666666667 -0.5900206666666666
601790995 0.7341356666666666 -0.593341
603276874 0.7348140000000001 -0.5968663333333333
604762753 0.7362546666666666 -0.6007253333333334
606248632 0.737295 -0.604572
607734511 0.7389653333333334 -0.607024
609220390 0.7392133333333333 -0.6103040000000001
610706269 0.7399423333333334 -0.610767
612192148 0.7389603333333333 -0.6130316666666668
613678027 0.740259 -0.6147983333333333
615163906 0.7393656666666667 -0.6153826666666666
616649785 0.7371976666666668 -0.6173426666666666
618135664 0.737447 -0.6180673333333333
619621543 0.7356790000000001 -0.6160823333333333
621107422 0.7331633333333333 -0.6160716666666666
622593301 0.7317713333333332 -0.6139513333333334
624079180 0.7277063333333333 -0.6135963333333333
625565059 0.724987 -0.6116883333333333
627050938 0.721062 -0.6107276666666667
628536817 0.717517 -0.6088823333333333
630022696 0.6886186666666666 -0.6136046666666667
631508575 0.7148526666666667 -0.6109056666666667
632994454 0.7168753333333333 -0.6150380000000001
634480333 0.718591 -0.618783
635966212 0.7187593333333333 -0.6225306666666667
637452091 0.7197883333333333 -0.6252163333333334
638937970 0.7196496666666666 -0.6269506666666667
640423849 0.7213526666666666 -0.62932
641909728 0.7210043333333335 -0.6318940000000001
643395607 0.719366 -0.6317336666666667
644881486 0.7208873333333333 -0.6316266666666667
646367365 0.719481 -0.6344249999999999
647853244 0.7195453333333334 -0.6327773333333334
649339123 0.717476 -0.6339383333333334
650825002 0.7145443333333333 -0.6318386666666668
652310881 0.7122976666666667 -0.6319156666666667
653796760 0.7089013333333334 -0.6304553333333333
655282639 0.7063816666666667 -0.6285533333333334
656768518 0.704112 -0.6271760000000001
658254397 0.7004263333333333 -0.6251766666666666
659740276 0.6964123333333333 -0.6231926666666667
661226155 0.6984883333333333 -0.625759
662712034 0.6978663333333334 -0.6289323333333333
664197913 0.7005156666666666 -0.6324406666666667
665683792 0.6994266666666666 -0.636327
667169671 0.7029839999999999 -0.6380813333333333
668655550 0.702651 -0.6419686666666666
670141429 0.7045469999999999 -0.641759
671627308 0.7032396666666667 -0.6439526666666666
673113187 0.7043073333333334 -0.6438546666666667
674599066 0.7030186666666666 -0.6447219999999999
676084945 0.7044833333333332 -0.6446580000000001
677570824 0.7039786666666666 -0.644544
679056703 0.700304 -0.6451446666666666
680542582 0.6904286666666667 -0.649069
682028461 0.69683 -0.6417003333333334
683514340 0.697549 -0.640464
685000219 0.6932966666666666 -0.6383653333333333
686486098 0.690671 -0.6372766666666666
687971977 0.686583 -0.6341893333333334
689457856 0.681558 -0.6323949999999999
690943735 0.6821983333333334 -0.6347966666666666
692429614 0.681473 -0.6395456666666667
693915493 0.6829533333333333 -0.6422786666666668
695401372 0.6831183333333333 -0.6458206666666667
696887251 0.6832560000000001 -0.6466573333333333
698373130 0.6830556666666667 -0.6507273333333333
699859009 0.6833953333333334 -0.652418
701344888 0.6804606666666667 -0.6548913333333334
702830767 0.680408 -0.656268
704316646 0.6791163333333333 -0.657188
705802525 0.6784463333333334 -0.657866
707288404 0.6767393333333332 -0.6585623333333334
708774283 0.6752220000000001 -0.659227
710260162 0.6727470000000001 -0.6592326666666667
711746041 0.6683530000000001 -0.6591319999999999
713231920 0.6658746666666667 -0.6581176666666666
714717799 0.6631839999999999 -0.6558583333333333
716203678 0.660436 -0.6566103333333334
717689557 0.6574306666666666 -0.654767
719175436 0.6513906666666668 -0.6550776666666667
720661315 0.6507393333333332 -0.6552566666666667
722147194 0.6519266666666667 -0.656831
723633073 0.651615 -0.663539
725118952 0.6535883333333333 -0.6661210000000001
726604831 0.6551193333333333 -0.6682383333333334
728090710 0.6549603333333333 -0.6694723333333333
729576589 0.6543419999999999 -0.6723436666666668
731062468 0.655292 -0.6736163333333334
732548347 0.6544800000000001 -0.6760383333333334
734034226 0.6546056666666665 -0.6767276666666667
735520105 0.6529743333333333 -0.6774806666666667
737005984 0.6536583333333333 -0.6770783333333332
738491863 0.650724 -0.6767476666666666
739977742 0.6490203333333332 -0.6768283333333334
741463621 0.6491033333333334 -0.6762586666666667
742949500 0.6455056666666666 -0.6756826666666665
744435379 0.6430026666666667 -0.6745000000000001
745921258 0.64 -0.6733503333333334
747407137 0.6358656666666667 -0.6721666666666666
748893016 0.6327653333333334 -0.669874
750378895 0.6302296666666667 -0.671195
751864774 0.6320586666666667 -0.672665
753350653 0.63085 -0.676256
754836532 0.6344293333333334 -0.678486
756322411 0.6344259999999999 -0.6824863333333333
757808290 0.6346729999999999 -0.6829230000000001
759294169 0.6344783333333334 -0.6853863333333333
760780048 0.6337579999999999 -0.687706
762265927 0.6349213333333333 -0.6864376666666666
763751806 0.6331526666666667 -0.6896626666666666
765237685 0.6310356666666667 -0.689616
766723564 0.6309999999999999 -0.6892543333333334
768209443 0.6290573333333334 -0.6899273333333333
769695322 0.6272123333333334 -0.6882593333333333
771181201 0.62492 -0.6881156666666667
772667080 0.622022 -0.6879186666666666
774152959 0.6197753333333335 -0.6861243333333333
775638838 0.6169206666666667 -0.6855030000000001
777124717 0.6124913333333333 -0.6835019999999999
778610596 0.609913 -0.6814936666666668
780096475 0.6041746666666666 -0.680101
781582354 0.6032799999999999 -0.6880253333333334
783068233 0.60766 -0.6872726666666668
784554112 0.6087986666666666 -0.6911036666666667
786039991 0.61131 -0.6936736666666666
787525870 0.6099740000000001 -0.697273
789011749 0.6107973333333333 -0.698375
790497628 0.6128979999999999 -0.699415
791983507 0.612032 -0.7010026666666667
793469386 0.612767 -0.7002173333333332
794955265 0.6119976666666668 -0.7014333333333332
796441144 0.6125463333333333 -0.7010896666666667
797927023 0.6100440000000001 -0.7020863333333334
799412902 0.6097776666666667 -0.7002776666666666
800898781 0.6081409999999999 -0.698969
802384660 0.605985 -0.698537
803870539 0.602843 -0.6981136666666666
805356418 0.601015 -0.6955453333333333
806842297 0.5968683333333333 -0.6931826666666666
808328176 0.5927356666666667 -0.6917926666666666
809814055 0.5897716666666666 -0.6895023333333333
811299934 0.5894786666666666 -0.693133
812785813 0.591416 -0.6962846666666667
814271692 0.5934823333333333 -0.6987916666666667
815757571 0.5918523333333333 -0.7029179999999999
817243450 0.591721 -0.7068729999999999
818729329 0.591368 -0.7089446666666667
820215208 0.5935626666666667 -0.7095303333333334
821701087 0.5916156666666667 -0.7121343333333333
823186966 0.5912320000000001 -0.7132213333333333
824672845 0.591102 -0.7142103333333334
826158724 0.5904159999999999 -0.7141303333333333
827644603 0.5887663333333334 -0.714824
829130482 0.5871523333333334 -0.7140216666666667
830616361 0.5832556666666667 -0.713926
832102240 0.581989 -0.7143836666666666
833588119 0.5783983333333333 -0.7129503333333332
835073998 0.5740656666666667 -0.7107843333333334
836559877 0.573395 -0.7089993333333334
838045756 0.5690966666666667 -0.707068
839531635 0.5656143333333333 -0.7055313333333334
841017514 0.5644140000000001 -0.7077916666666667
842503393 0.5644596666666666 -0.711659
843989272 0.566439 -0.7147583333333333
845475151 0.5671419999999999 -0.7184179999999999
846961030 0.5665816666666667 -0.722409
848446909 0.5676249999999999 -0.724617
849932788 0.5672633333333333 -0.7256659999999999
851418667 0.568851 -0.7269066666666667
852904546 0.5668263333333333 -0.7296463333333333
854390425 0.5666476666666667 -0.7293543333333333
855876304 0.565789 -0.7292803333333334
857362183 0.5660796666666666 -0.728876
858848062 0.5649653333333334 -0.7291423333333333
860333941 0.5625126666666667 -0.7275283333333333
861819820 0.5610276666666666 -0.726029
863305699 0.5572766666666668 -0.7261426666666667
864791578 0.556096 -0.72372
866277457 0.5522859999999999 -0.7219666666666665
867763336 0.5491733333333334 -0.7191520000000001
869249215 0.5451980000000001 -0.7166913333333333
870735094 0.5450606666666667 -0.7166250000000001
872220973 0.5439023333333334 -0.7209043333333334
873706852 0.5459006666666667 -0.724335
875192731 0.5459930000000001 -0.7284183333333333
876678610 0.5461796666666667 -0.7315126666666666
878164489 0.547101 -0.7332936666666666
879650368 0.5466993333333333 -0.7344913333333333
881136247 0.5462703333333333 -0.7362489999999999
882622126 0.544764 -0.7373050000000001
884108005 0.543656 -0.7409676666666666
885593884 0.5430776666666667 -0.7395583333333332
887079763 0.544065 -0.7387016666666666
888565642 0.5431549999999999 -0.7385830000000001
890051521 0.5410153333333333 -0.7380646666666667
891537400 0.540574 -0.7357109999999999
893023279 0.5377483333333333 -0.7350496666666667
894509158 0.5357553333333334 -0.7330823333333333
895995037 0.5331223333333334 -0.729896
897480916 0.528072 -0.7283693333333333
898966795 0.5267093333333333 -0.7263616666666666
900452674 0.523802 -0.7247606666666666
901938553 0.5240876666666666 -0.7292329999999999
903424432 0.5245310000000001 -0.7334583333333334
904910311 0.5250290000000001 -0.735342
906396190 0.5243380000000001 -0.7364046666666666
907882069 0.5257459999999999 -0.7406086666666667
909367948 0.5245123333333334 -0.7420416666666667
910853827 0.526228 -0.7441666666666666
912339706 0.524446 -0.7463416666666666
913825585 0.5219933333333334 -0.7452726666666667
915311464 0.5251873333333333 -0.7464086666666668
916797343 0.5231706666666667 -0.7460206666666666
918283222 0.519425 -0.7473599999999999
919769101 0.5200603333333332 -0.7455116666666667
921254980 0.5176816666666667 -0.7439080000000001
922740859 0.5192313333333333 -0.7398816666666667
924226738 0.5138803333333333 -0.7417083333333334
925712617 0.5101969999999999 -0.7397873333333335
927198496 0.5075216666666666 -0.7377103333333332
928684375 0.5045506666666667 -0.7346520000000001
930170254 0.5341716666666667 -0.7334833333333334
931656133 0.5024243333333333 -0.736128
933142012 0.5030573333333334 -0.740562
934627891 0.505306 -0.7427223333333334
936113770 0.504878 -0.7446126666666667
937599649 0.5058206666666667 -0.7476919999999999
939085528 0.5044563333333333 -0.7501663333333334
940571407 0.505661 -0.7516626666666667
942057286 0.5049636666666667 -0.753529
943543165 0.5040766666666667 -0.7540426666666667
945029044 0.5051676666666667 -0.7534190000000001
946514923 0.5028486666666666 -0.7563240000000001
948000802 0.5031180000000001 -0.754502
949486681 0.5031483333333333 -0.7532196666666667
950972560 0.5005666666666667 -0.7536516666666667
952458439 0.5009823333333334 -0.7518756666666665
953944318 0.49924266666666667 -0.7490483333333334
955430197 0.49801433333333334 -0.7475339999999999
956916076 0.496269 -0.745345
958401955 0.49453566666666665 -0.7430093333333333
959887834 0.4906756666666667 -0.7398563333333333
961373713 0.4904483333333333 -0.7442963333333333
962859592 0.49126200000000003 -0.7461546666666666
964345471 0.4890076666666667 -0.7497246666666667
965831350 0.49089133333333335 -0.752368
967317229 0.490324 -0.7544376666666667
968803108 0.48900699999999997 -0.7560176666666667
970288987 0.4885713333333333 -0.7584623333333332
971774866 0.4888513333333333 -0.7594486666666667
973260745 0.488615 -0.7602286666666668
974746624 0.4877376666666667 -0.7598379999999999
976232503 0.5240873333333333 -0.782625
977718382 0.4849616666666667 -0.7599266666666668
979204261 0.4852976666666666 -0.7601780000000001
980690140 0.48185433333333333 -0.7602500000000001
982176019 0.4848726666666667 -0.75664
983661898 0.47898199999999996 -0.7564556666666666
985147777 0.476321 -0.7557416666666666
986633656 0.474184 -0.7535603333333333
988119535 0.47244633333333336 -0.7521206666666665
989605414 0.4689516666666667 -0.7496193333333334
991091293 0.46959533333333336 -0.7511836666666666
992577172 0.4695606666666667 -0.7544313333333333
994063051 0.469519 -0.7564540000000001
995548930 0.4673623333333334 -0.759934
997034809 0.4684359999999999 -0.7616779999999999
998520688 0.4688003333333333 -0.763131
1000006567 0.4678136666666666 -0.7645723333333333
1001492446 0.4695783333333334 -0.7644796666666668
1002978325 0.467889 -0.7659419999999999
1004464204 0.46750166666666665 -0.7655553333333334
1005950083 0.46565066666666666 -0.7672136666666667
1007435962 0.46426933333333337 -0.7662400000000001
1008921841 0.4632163333333334 -0.7662896666666668
1010407720 0.46263566666666667 -0.7653423333333333
1011893599 0.4619946666666667 -0.7625623333333333
1013379478 0.46024133333333334 -0.7620526666666666
1014865357 0.45919166666666666 -0.7599270000000001
1016351236 0.45463733333333334 -0.7597116666666667
1017837115 0.45263600000000004 -0.7569403333333334
1019322994 0.45066766666666663 -0.7533393333333334
1020808873 0.447727 -0.7548176666666667
1022294752 0.44871466666666665 -0.7580713333333334
1023780631 0.4487716666666666 -0.7614939999999999
1025266510 0.4493293333333333 -0.7642663333333334
1026752389 0.4483536666666667 -0.7655689999999998
1028238268 0.4498263333333334 -0.7676446666666666
1029724147 0.4496356666666666 -0.7684703333333335
1031210026 0.44788266666666665 -0.7709156666666667
1032695905 0.4480296666666667 -0.7708983333333334
1034181784 0.448694 -0.7704930000000001
1035667663 0.4479516666666667 -0.7693280000000001
1037153542 0.44590799999999997 -0.771188
1038639421 0.447 -0.7682286666666666
1040125300 0.443424 -0.7698183333333333
1041611179 0.440874 -0.7681743333333334
1043097058 0.438475 -0.7671176666666666
1044582937 0.43550200000000006 -0.766574
1046068816 0.434493 -0.7646850000000001
1047554695 0.43267799999999995 -0.7615226666666667
1049040574 0.43051666666666666 -0.7598926666666667
1050526453 0.42778199999999994 -0.7599693333333333
1052012332 0.4284396666666666 -0.7635406666666666
1053498211 0.426815 -0.7673143333333333
1054984090 0.428579 -0.7684840000000001
1056469969 0.429891 -0.7704146666666668
1057955848 0.4313533333333333 -0.7727750000000001
1059441727 0.4289416666666666 -0.7756006666666666
1060927606 0.4286273333333333 -0.7764363333333334
1062413485 0.43043799999999993 -0.7773246666666666
1063899364 0.4286126666666667 -0.7776163333333334
1065385243 0.43010966666666667 -0.7783913333333334
1066871122 0.4278646666666666 -0.7776253333333333
1068357001 0.42707866666666666 -0.777758
1069842880 0.4381386666666667 -0.7747023333333334
1071328759 0.4249293333333333 -0.776049
1072814638 0.4220676666666667 -0.7737913333333334
1074300517 0.41907633333333333 -0.773288
1075786396 0.40175333333333335 -0.7718349999999999
1077272275 0.4142503333333334 -0.7703443333333334
1078758154 0.410255 -0.7667893333333332
1080244033 0.4087206666666667 -0.7656603333333333
1081729912 0.40829266666666664 -0.76907
1083215791 0.4122586666666666 -0.7715283333333334
1084701670 0.4102316666666666 -0.7761286666666667
1086187549 0.408086 -0.7795586666666666
1087673428 0.41719799999999996 -0.776655
1089159307 0.4125506666666667 -0.7804996666666666
1090645186 0.4105013333333334 -0.7818656666666666
1092131065 0.41155600000000003 -0.7825656666666667
1093616944 0.41131999999999996 -0.7824936666666668
1095102823 0.41124900000000003 -0.7828176666666667
1096588702 0.41062000000000004 -0.7824026666666666
1098074581 0.4028696666666667 -0.783132
1099560460 0.4013196666666667 -0.782076
1101046339 0.4048943333333333 -0.7801423333333334
1102532218 0.40827833333333335 -0.776134
1104018097 0.39985066666666674 -0.7768453333333335
1105503976 0.4034883333333333 -0.7730429999999999
1106989855 0.3968306666666666 -0.7713663333333334
1108475734 0.39881066666666665 -0.7671536666666666
1109961613 0.3823163333333333 -0.7690343333333334
1111447492 0.3957266666666667 -0.7672256666666666
1112933371 0.3893953333333333 -0.7727803333333334
1114419250 0.3964286666666667 -0.7746323333333334
1115905129 0.388749 -0.7796753333333334
1117391008 0.396357 -0.7795156666666667
1118876887 0.3878336666666667 -0.7843276666666666
1120362766 0.3968696666666667 -0.7823926666666668
1121848645 0.38932833333333333 -0.7868723333333333
1123334524 0.3891706666666667 -0.7883373333333333
1124820403 0.39593233333333333 -0.7867223333333334
1126306282 0.3874396666666667 -0.7863556666666667
1127792161 0.3955469999999999 -0.7843963333333334
1129278040 0.38512166666666664 -0.787795
1130763919 0.39385099999999995 -0.783207
1132249798 0.3812416666666667 -0.7847523333333334
1133735677 0.38737666666666665 -0.7798226666666667
1135221556 0.37735366666666664 -0.7799563333333334
1136707435 0.381808 -0.7767
1138193314 0.3730853333333333 -0.7785153333333333
1139679193 0.37765699999999996 -0.7717093333333334
1141165072 0.36898000000000003 -0.7740946666666666
1142650951 0.37863700000000006 -0.7775106666666667
1144136830 0.37067900000000004 -0.7840243333333333
1145622709 0.37755500000000003 -0.783351
1147108588 0.369816 -0.7880619999999999
1148594467 0.379103 -0.7890096666666667
1150080346 0.370647 -0.7905363333333333
1151566225 0.379252 -0.7903613333333334
1153052104 0.3749546666666667 -0.7906356666666667
1154537983 0.37387599999999993 -0.791735
1156023862 0.37227033333333326 -0.7922023333333333
1157509741 0.372875 -0.7915346666666666
1158995620 0.37023 -0.791476
1160481499 0.3665616666666667 -0.7895963333333333
1161967378 0.36726 -0.7882803333333334
1163453257 0.3656993333333333 -0.7844736666666666
1164939136 0.362126 -0.7825186666666667
1166425015 0.36326966666666666 -0.7803366666666666
1167910894 0.35801599999999995 -0.7780086666666667
1169396773 0.35425966666666664 -0.7745393333333334
1170882652 0.3545773333333333 -0.7765156666666666
1172368531 0.35469900000000004 -0.7789
1173854410 0.35394166666666665 -0.782544
1175340289 0.3546316666666667 -0.785665
1176826168 0.35386266666666666 -0.788207
1178312047 0.35438600000000003 -0.7900053333333333
1179797926 0.3514926666666667 -0.7914793333333333
1181283805 0.35294866666666663 -0.7925636666666667
1182769684 0.35398233333333334 -0.7930943333333333
1184255563 0.3505203333333333 -0.7937103333333333
1185741442 0.350603 -0.7934100000000001
1187227321 0.3517686666666666 -0.7914156666666666
1188713200 0.3476863333333333 -0.7913006666666668
1190199079 0.34708433333333333 -0.7900266666666665
1191684958 0.34437066666666666 -0.7890756666666666
1193170837 0.34239966666666666 -0.7865856666666667
1194656716 0.34106366666666665 -0.784493
1196142595 0.3383213333333333 -0.7822986666666667
1197628474 0.3364233333333333 -0.779187
1199114353 0.3322613333333333 -0.776369
1200600232 0.3309896666666667 -0.7750279999999999
1202086111 0.33172 -0.7793913333333333
1203571990 0.330764 -0.7834336666666667
1205057869 0.3319246666666667 -0.786458
1206543748 0.3311826666666667 -0.7884623333333334
1208029627 0.3299106666666667 -0.7925496666666666
1209515506 0.330538 -0.7925096666666667
1211001385 0.3313376666666667 -0.7943876666666666
1212487264 0.330609 -0.7961353333333333
1213973143 0.32947266666666664 -0.7971830000000001
1215459022 0.3304963333333333 -0.7967583333333333
1216944901 0.328331 -0.7973693333333333
1218430780 0.3269963333333334 -0.7967986666666667
1219916659 0.32773800000000003 -0.79394
1221402538 0.325767 -0.7940326666666667
1222888417 0.32602200000000003 -0.7915946666666667
1224374296 0.3240443333333333 -0.7888109999999999
1225860175 0.32072100000000003 -0.787156
1227346054 0.318819 -0.7846563333333333
1228831933 0.318742 -0.779496
1230317812 0.31618566666666664 -0.7785036666666668
1231803691 0.31635366666666664 -0.7829283333333333
1233289570 0.3167 -0.7840746666666667
1234775449 0.3147336666666667 -0.7884026666666667
1236261328 0.316344 -0.789181
1237747207 0.31426433333333337 -0.792001
1239233086 0.3148936666666667 -0.7939693333333334
1240718965 0.315571 -0.7937516666666666
1242204844 0.3154426666666667 -0.7959396666666666
1243690723 0.314478 -0.7963673333333334
1245176602 0.31568599999999997 -0.7956566666666666
1246662481 0.31668666666666667 -0.7936546666666667
1248148360 0.31428666666666666 -0.7940873333333333
1249634239 0.314187 -0.7926866666666667
1251120118 0.31093366666666666 -0.7923776666666668
1252605997 0.31144466666666665 -0.7894566666666667
1254091876 0.31156566666666663 -0.7858893333333333
1255577755 0.310916 -0.7826816666666666
1257063634 0.306437 -0.780943
1258549513 0.304216 -0.7793903333333333
1260035392 0.30368233333333333 -0.7727366666666667
1261521271 0.3030353333333334 -0.7757376666666667
1263007150 0.30304166666666665 -0.7800063333333332
1264493029 0.302981 -0.7814496666666667
1265978908 0.3013416666666667 -0.7846126666666667
1267464787 0.2978536666666667 -0.7883999999999999
1268950666 0.299788 -0.787726
1270436545 0.2987726666666667 -0.7889986666666666
1271922424 0.29623333333333335 -0.7914666666666667
1273408303 0.297152 -0.7889923333333333
1274894182 0.29527133333333333 -0.7920223333333333
1276380061 0.29430266666666666 -0.7917536666666667
1277865940 0.2917173333333334 -0.7902336666666668
1279351819 0.2895396666666667 -0.7906019999999999
1280837698 0.29063633333333333 -0.7889860000000001
1282323577 0.2876206666666667 -0.7891363333333333
1283809456 0.28775799999999996 -0.7881079999999999
1285295335 0.2860053333333333 -0.7839316666666667
1286781214 0.2810376666666667 -0.7837359999999999
1288267093 0.281124 -0.780156
1289752972 0.280337 -0.7789429999999999
1291238851 0.276762 -0.780281
1292724730 0.279986 -0.7823363333333333
1294210609 0.27916766666666665 -0.7861896666666667
1295696488 0.27857533333333334 -0.7877396666666666
1297182367 0.27993633333333334 -0.7893089999999999
1298668246 0.27820399999999995 -0.7916270000000001
1300154125 0.2776826666666667 -0.7935226666666667
1301640004 0.276956 -0.7932686666666666
1303125883 0.279244 -0.7946303333333334
1304611762 0.2797076666666667 -0.7940173333333332
1306097641 0.2776533333333333 -0.7952323333333333
1307583520 0.27980866666666665 -0.7942316666666667
1309069399 0.27900233333333335 -0.7910623333333334
1310555278 0.27801533333333334 -0.7913873333333333
1312041157 0.27762400000000004 -0.790714
1313527036 0.2782316666666667 -0.7876506666666666
1315012915 0.27978433333333336 -0.7859703333333333
1316498794 0.2754153333333333 -0.7844000000000001
1317984673 0.27321833333333334 -0.7808563333333334
1319470552 0.27195833333333336 -0.7790310000000001
1320956431 0.27379099999999995 -0.7786536666666667
1322442310 0.268205 -0.7822933333333334
1323928189 0.2720566666666666 -0.7853526666666667
1325414068 0.27246666666666663 -0.786518
1326899947 0.27045833333333336 -0.7894566666666667
1328385826 0.271166 -0.7904306666666666
1329871705 0.272881 -0.7929276666666666
1331357584 0.27274333333333334 -0.794569
1332843463 0.271786 -0.7940563333333334
1334329342 0.2697773333333333 -0.794963
1335815221 0.2694026666666666 -0.7960966666666667
1337301100 0.268783 -0.7958080000000001
1338786979 0.26900966666666665 -0.795087
1340272858 0.26748299999999997 -0.7965516666666668
1341758737 0.2649053333333333 -0.7941023333333334
1343244616 0.267082 -0.7919656666666667
1344730495 0.26756399999999997 -0.7907823333333334
1346216374 0.26320066666666664 -0.7887680000000001
1347702253 0.2606033333333333 -0.7890193333333334
1349188132 0.2603723333333333 -0.7858689999999999
1350674011 0.2577776666666667 -0.7855016666666668
1352159890 0.25808433333333336 -0.7884216666666667
1353645769 0.257415 -0.7913936666666667
1355131648 0.2577943333333334 -0.7911586666666667
1356617527 0.25653299999999996 -0.7935826666666667
1358103406 0.25324833333333335 -0.7944356666666668
1359589285 0.25421900000000003 -0.795135
1361075164 0.25182366666666667 -0.7959883333333333
1362561043 0.25383833333333333 -0.7962676666666667
1364046922 0.2522176666666667 -0.7965203333333334
1365532801 0.250758 -0.7944923333333334
1367018680 0.24980766666666665 -0.7932916666666667
1368504559 0.24999666666666667 -0.7919496666666667
1369990438 0.2747983333333333 -0.8133670000000001
1371476317 0.245683 -0.7903926666666666
1372962196 0.24087233333333333 -0.7886573333333334
1374448075 0.23903666666666668 -0.787083
1375933954 0.23496233333333336 -0.784636
1377419833 0.23099100000000003 -0.7835286666666668
1378905712 0.21492600000000003 -0.780176
1380391591 0.22730799999999998 -0.7800463333333334
1381877470 0.22750499999999999 -0.7826683333333334
1383363349 0.22871766666666668 -0.7841183333333333
1384849228 0.22866633333333333 -0.7879996666666665
1386335107 0.23334766666666665 -0.789774
1387820986 0.23118000000000002 -0.792005
1389306865 0.23151066666666667 -0.7941503333333334
1390792744 0.23275599999999996 -0.7948543333333333
1392278623 0.23472 -0.7943129999999999
1393764502 0.23365633333333333 -0.796115
1395250381 0.23668933333333333 -0.7957103333333334
1396736260 0.23458199999999998 -0.7953743333333333
1398222139 0.23562133333333335 -0.7949193333333334
1399708018 0.23471699999999998 -0.7929689999999999
1401193897 0.234474 -0.7920916666666665
1402679776 0.2329146666666667 -0.7897973333333334
1404165655 0.235063 -0.7876203333333334
1405651534 0.23849566666666666 -0.7859380000000001
1407137413 0.230861 -0.7839793333333334
1408623292 0.2334696666666667 -0.78012
1410109171 0.22515266666666667 -0.7780736666666667
1411595050 0.2354523333333333 -0.7818486666666665
1413080929 0.22805466666666666 -0.7858523333333333
1414566808 0.23635399999999998 -0.7886839999999999
1416052687 0.2297256666666667 -0.7919933333333334
1417538566 0.23544933333333332 -0.7950146666666668
1419024445 0.23243433333333333 -0.79815
1420510324 0.23835233333333336 -0.7977933333333334
1421996203 0.215172 -0.7907073333333333
1423482082 0.239039 -0.7998813333333333
1424967961 0.2334206666666667 -0.8017353333333334
1426453840 0.23975833333333332 -0.799646
1427939719 0.237753 -0.8005336666666666
1429425598 0.23790333333333336 -0.7988903333333334
1430911477 0.23047700000000002 -0.7981473333333332
1432397356 0.22985233333333333 -0.7967956666666667
1433883235 0.23715766666666668 -0.7936866666666665
1435369114 0.22906866666666667 -0.7922656666666666
1436854993 0.23566633333333334 -0.790025
1438340872 0.22724100000000003 -0.786261
1439826751 0.22776766666666667 -0.783569
1441312630 0.22719233333333336 -0.7881023333333333
1442798509 0.22843666666666665 -0.790124
1444284388 0.22622733333333334 -0.7939210000000001
1445770267 0.23297733333333334 -0.7937533333333334
1447256146 0.22484133333333334 -0.7969173333333334
1448742025 0.23077666666666666 -0.7981550000000001
1450227904 0.22608266666666665 -0.7994706666666667
1451713783 0.22813033333333332 -0.799513
1453199662 0.224356 -0.7984266666666667
1454685541 0.22827233333333333 -0.7989553333333334
1456171420 0.22302633333333333 -0.7984050000000001
1457657299 0.22210566666666665 -0.7985196666666666
1459143178 0.22259099999999998 -0.7968213333333334
1460629057 0.2186693333333333 -0.7952036666666666
1462114936 0.21837266666666666 -0.7931103333333334
1463600815 0.21595466666666666 -0.7910360000000001
1465086694 0.21421833333333332 -0.7884333333333333
1466572573 0.2130283333333333 -0.7858496666666667
1468058452 0.20884100000000003 -0.782517
1469544331 0.2092643333333333 -0.7786546666666667
1471030210 0.20531433333333335 -0.7805586666666667
1472516089 0.206423 -0.78445
1474001968 0.2068296666666667 -0.7876296666666667
1475487847 0.20669700000000002 -0.7905456666666666
1476973726 0.206736 -0.7931266666666666
1478459605 0.20669700000000002 -0.794866
1479945484 0.20738900000000002 -0.7976463333333333
1481431363 0.20592733333333335 -0.7984106666666667
1482917242 0.20908666666666667 -0.7988540000000001
1484403121 0.20603800000000003 -0.7991553333333333
1485889000 0.20708766666666667 -0.798561
1487374879 0.20419766666666664 -0.7983276666666667
1488860758 0.20693899999999998 -0.7968283333333334
1490346637 0.20408266666666663 -0.7957566666666667
1491832516 0.20413866666666666 -0.7949776666666666
1493318395 0.20394333333333334 -0.7913013333333333
1494804274 0.20240033333333332 -0.7889056666666666
1496290153 0.199954 -0.7872406666666668
1497776032 0.19768466666666665 -0.7850286666666667
1499261911 0.19712166666666667 -0.7807499999999999
1500747790 0.19507766666666668 -0.7816593333333333
1502233669 0.19634366666666667 -0.7850373333333334
1503719548 0.19532800000000003 -0.7874536666666666
1505205427 0.19204500000000002 -0.790255
1506691306 0.194088 -0.7927716666666665
1508177185 0.19239099999999998 -0.7947540000000001
1509663064 0.190063 -0.7968500000000001
1511148943 0.19300400000000004 -0.7962276666666667
1512634822 0.188898 -0.799603
1514120701 0.19149333333333332 -0.7984626666666667
1515606580 0.1892223333333333 -0.7986909999999999
1517092459 0.18859666666666666 -0.7967103333333334
1518578338 0.18554 -0.7966466666666667
1520064217 0.18685633333333332 -0.793937
1521550096 0.18666800000000003 -0.7927080000000001
1523035975 0.17801466666666665 -0.791194
1524521854 0.19123 -0.7867070000000002
1526007733 0.187137 -0.7852053333333333
1527493612 0.18283333333333332 -0.78672
1528979491 0.18343266666666666 -0.7783726666666667
1530465370 0.18448233333333333 -0.7765023333333333
1531951249 0.18107333333333334 -0.7797973333333333
1533437128 0.182063 -0.7826656666666666
1534923007 0.18031033333333335 -0.7855706666666666
1536408886 0.18187066666666665 -0.7868053333333332
1537894765 0.18093233333333333 -0.790311
1539380644 0.18055633333333332 -0.7909723333333334
1540866523 0.18142566666666668 -0.79092
1542352402 0.17804966666666666 -0.7920783333333333
1543838281 0.18166400000000002 -0.7919016666666666
1545324160 0.180993 -0.7925363333333334
1546810039 0.17811033333333334 -0.7919656666666667
1548295918 0.19137300000000002 -0.7893163333333334
1549781797 0.170223 -0.791394
1551267676 0.16599966666666668 -0.7870563333333335
1552753555 0.16943266666666668 -0.7837303333333333
1554239434 0.16845066666666667 -0.7820426666666668
1555725313 0.16811233333333334 -0.7783680000000001
1557211192 0.167646 -0.7745543333333332
1558697071 0.16211433333333333 -0.7728363333333332
1560182950 0.16490133333333334 -0.768353
1561668829 0.16105166666666668 -0.7727593333333332
1563154708 0.16178266666666666 -0.7748733333333333
1564640587 0.15903233333333333 -0.7790273333333332
1566126466 0.16206733333333334 -0.7800843333333334
1567612345 0.15704533333333334 -0.7833763333333333
1569098224 0.15727633333333335 -0.7843446666666667
1570584103 0.15751766666666667 -0.785958
1572069982 0.15603566666666666 -0.7871220000000001
1573555861 0.15917 -0.7856013333333333
1575041740 0.151263 -0.7886479999999999
1576527619 0.159242 -0.786991
1578013498 0.15676566666666666 -0.7878036666666667
1579499377 0.159003 -0.7856973333333332
1580985256 0.15274366666666664 -0.7855126666666666
1582471135 0.15673199999999998 -0.7834720000000001
1583957014 0.15291166666666667 -0.7819733333333333
1585442893 0.15290499999999999 -0.778633
1586928772 0.15234233333333333 -0.7762013333333334
1588414651 0.15053766666666665 -0.7742293333333333
1589900530 0.14898599999999998 -0.7701556666666667
1591386409 0.15011933333333335 -0.7716276666666667
1592872288 0.1493 -0.7761573333333334
1594358167 0.14908233333333334 -0.7787466666666667
1595844046 0.14773866666666666 -0.7806523333333333
1597329925 0.145666 -0.7827433333333333
1598815804 0.14705833333333332 -0.7835616666666666
1600301683 0.15005166666666667 -0.7841513333333333
1601787562 0.14908233333333334 -0.7854026666666666
1603273441 0.14683966666666667 -0.7857213333333334
1604759320 0.14798066666666665 -0.7864116666666666
1606245199 0.14599766666666666 -0.7867000000000001
1607731078 0.148698 -0.7851813333333334
1609216957 0.14667366666666667 -0.7850416666666667
1610702836 0.14664266666666667 -0.7831133333333332
1612188715 0.14624466666666666 -0.781489
1613674594 0.145469 -0.778842
1615160473 0.14543133333333333 -0.7773736666666666
1616646352 0.14274466666666666 -0.7749693333333333
1618132231 0.143037 -0.7715503333333333
1619618110 0.14222366666666666 -0.7681060000000001
1621103989 0.14196733333333333 -0.7691333333333333
1622589868 0.141502 -0.773359
1624075747 0.13987933333333333 -0.774641
1625561626 0.13727199999999998 -0.7771143333333334
1627047505 0.13488166666666665 -0.7802116666666667
1628533384 0.138546 -0.779589
1630019263 0.13729166666666667 -0.7810980000000001
1631505142 0.135499 -0.7837386666666667
1632991021 0.13443233333333335 -0.7839526666666666
1634476900 0.13217233333333334 -0.7835546666666667
1635962779 0.13232266666666667 -0.7830133333333333
1637448658 0.131375 -0.7830523333333334
1638934537 0.13091566666666668 -0.7822633333333334
1640420416 0.13138066666666667 -0.7823713333333333
1641906295 0.13021233333333335 -0.779835
1643392174 0.12814166666666668 -0.7778136666666667
1644878053 0.13026833333333335 -0.7763966666666667
1646363932 0.12864633333333333 -0.7740773333333334
1647849811 0.12475099999999999 -0.7729863333333333
1649335690 0.12432700000000001 -0.7705046666666666
1650821569 0.12609066666666668 -0.7694603333333333
1652307448 0.122791 -0.773371
1653793327 0.12219133333333333 -0.7757973333333332
1655279206 0.12171466666666668 -0.7758820000000001
1656765085 0.11996766666666665 -0.7791016666666666
1658250964 0.12252433333333333 -0.7793486666666666
1659736843 0.12504166666666666 -0.7805623333333332
1661222722 0.11967666666666665 -0.7816203333333333
1662708601 0.12097866666666668 -0.7795263333333334
1664194480 0.12051 -0.7819433333333333
1665680359 0.12247800000000002 -0.7809520000000001
1667166238 0.12275666666666667 -0.7780056666666666
1668652117 0.120991 -0.7799813333333333
1670137996 0.11877866666666666 -0.777803
1671623875 0.12087066666666667 -0.7751506666666667
1673109754 0.11813366666666668 -0.7730193333333334
1674595633 0.11776166666666667 -0.7725086666666666
1676081512 0.11622700000000001 -0.7699376666666667
1677567391 0.11409166666666666 -0.7648746666666666
1679053270 0.11695333333333334 -0.7635353333333335
1680539149 0.13422666666666666 -0.7869443333333335
1682025028 0.11135466666666667 -0.7674863333333333
1683510907 0.11464666666666667 -0.7693056666666668
1684996786 0.11269866666666667 -0.7703706666666666
1686482665 0.11370133333333332 -0.7724466666666667
1687968544 0.11518433333333333 -0.775798
1689454423 0.11491433333333334 -0.7773076666666666
1690940302 0.11768033333333335 -0.77795
1692426181 0.11642966666666667 -0.7779953333333333
1693912060 0.11329366666666667 -0.7822176666666666
1695397939 0.11631499999999999 -0.7799753333333334
1696883818 0.11755733333333333 -0.7791356666666666
1698369697 0.11711066666666665 -0.7795536666666667
1699855576 0.11737366666666667 -0.7777050000000001
1701341455 0.11640566666666667 -0.7765826666666666
1702827334 0.12000933333333334 -0.7750526666666667
1704313213 0.12035733333333333 -0.770968
1705799092 0.11805166666666667 -0.7688393333333333
1707284971 0.11889633333333333 -0.7677996666666665
1708770850 0.111494 -0.765443
1710256729 0.11384299999999999 -0.762595
1711742608 0.10857666666666665 -0.7665676666666666
1713228487 0.11258666666666667 -0.7688670000000001
1714714366 0.11926533333333333 -0.7687096666666666
1716200245 0.113214 -0.7724526666666667
1717686124 0.11658766666666666 -0.7737210000000001
1719172003 0.11210766666666667 -0.7768373333333333
1720657882 0.11767533333333334 -0.7760366666666666
1722143761 0.10935133333333334 -0.7762030000000001
1723629640 0.11436166666666668 -0.7777106666666667
1725115519 0.10510900000000001 -0.7777046666666667
1726601398 0.12013533333333333 -0.7763096666666667
1728087277 0.10540733333333334 -0.7748693333333333
1729573156 0.10676733333333333 -0.772944
1731059035 0.11445166666666666 -0.772567
1732544914 0.10419366666666667 -0.7711786666666667
1734030793 0.107035 -0.7647996666666668
1735516672 0.10253266666666667 -0.766341
1737002551 0.10818066666666666 -0.7628816666666668
1738488430 0.09807300000000001 -0.7612709999999999
1739974309 0.10407566666666668 -0.756408
1741460188 0.09629733333333335 -0.7611306666666667
1742946067 0.10203166666666667 -0.7649026666666666
1744431946 0.09522000000000001 -0.7659263333333334
1745917825 0.10528766666666667 -0.7684466666666666
1747403704 0.09813966666666667 -0.7683013333333334
1748889583 0.10384966666666666 -0.7730066666666667
1750375462 0.09497833333333333 -0.7732389999999999
1751861341 0.10440733333333334 -0.7749103333333333
1753347220 0.09729266666666665 -0.7744233333333334
1754833099 0.10616566666666667 -0.7743099999999999
1756318978 0.09538600000000001 -0.776999
1757804857 0.10426733333333334 -0.775188
1759290736 0.09311699999999999 -0.7749926666666666
1760776615 0.103983 -0.7748703333333333
1762262494 0.09506433333333335 -0.769408
1763748373 0.099984 -0.7702723333333333
1765234252 0.09560433333333333 -0.7669056666666667
1766720131 0.093979 -0.7647623333333334
1768206010 0.09460933333333332 -0.7618113333333333
1769691889 0.09667466666666667 -0.7574993333333332
1771177768 0.094622 -0.759846
1772663647 0.08819833333333332 -0.763902
1774149526 0.08962766666666666 -0.766396
1775635405 0.09045833333333335 -0.7682203333333334
1777121284 0.09264933333333332 -0.771887
1778607163 0.091893 -0.7737923333333333
1780093042 0.09420066666666667 -0.7744086666666666
1781578921 0.09050399999999999 -0.774504
1783064800 0.09095199999999999 -0.7753346666666666
1784550679 0.09356233333333334 -0.7757013333333332
1786036558 0.09365333333333332 -0.7749563333333334
1787522437 0.09406966666666666 -0.7752736666666666
1789008316 0.09199433333333333 -0.7727826666666666
1790494195 0.09446166666666667 -0.7726423333333333
1791980074 0.09488233333333333 -0.7703376666666667
1793465953 0.09399133333333333 -0.7683996666666667
1794951832 0.09110033333333334 -0.765615
1796437711 0.09349 -0.7644736666666666
1797923590 0.08992766666666667 -0.7604563333333333
1799409469 0.09207599999999999 -0.7569113333333334
1800895348 0.09048566666666667 -0.7565620000000001
1802381227 0.091972 -0.760104
1803867106 0.08743233333333333 -0.7627943333333334
1805352985 0.09091899999999999 -0.7647183333333333
1806838864 0.090252 -0.7654223333333333
1808324743 0.09238500000000001 -0.7693070000000001
1809810622 0.09213533333333335 -0.7682883333333334
1811296501 0.09071133333333332 -0.77049
1812782380 0.08904966666666665 -0.7706963333333333
1814268259 0.09078433333333331 -0.7699083333333333
1815754138 0.08622633333333334 -0.7690986666666667
1817240017 0.088164 -0.7686243333333334
1818725896 0.08945433333333334 -0.7672626666666668
1820211775 0.08341833333333333 -0.7691720000000001
1821697654 0.08865033333333333 -0.7618843333333333
1823183533 0.08729733333333334 -0.760046
1824669412 0.08820933333333332 -0.7564159999999999
1826155291 0.08389633333333334 -0.7549463333333334
1827641170 0.085723 -0.7489473333333333
1829127049 0.08248766666666667 -0.7492676666666668
1830612928 0.08461 -0.7476980000000001
1832098807 0.085049 -0.7514156666666666
1833584686 0.08166366666666668 -0.7523663333333334
1835070565 0.08033299999999999 -0.753213
1836556444 0.07784133333333333 -0.7585096666666667
1838042323 0.079532 -0.7585546666666666
1839528202 0.08016966666666667 -0.7618490000000001
1841014081 0.07889733333333333 -0.7639333333333335
1842499960 0.08034066666666666 -0.766311
1843985839 0.08219666666666665 -0.763131
1845471718 0.080079 -0.7655873333333334
1846957597 0.078135 -0.7668486666666666
1848443476 0.07517233333333334 -0.7625336666666667
1849929355 0.07334833333333333 -0.7635583333333334
1851415234 0.07799 -0.7615166666666666
1852901113 0.07294266666666667 -0.7618256666666667
1854386992 0.07540633333333334 -0.7611063333333333
1855872871 0.07645466666666667 -0.7579940000000001
1857358750 0.07409166666666667 -0.7563623333333332
1858844629 0.07287233333333333 -0.7517443333333333
1860330508 0.071368 -0.7498109999999999
1861816387 0.07001266666666667 -0.7532726666666667
1863302266 0.073202 -0.7552989999999999
1864788145 0.07221833333333333 -0.7594826666666666
1866274024 0.06676900000000001 -0.7611370000000001
1867759903 0.06938633333333333 -0.7637233333333334
1869245782 0.07111433333333333 -0.7657073333333333
1870731661 0.073156 -0.7666256666666666
1872217540 0.069035 -0.7670020000000001
1873703419 0.06890366666666667 -0.7705936666666666
1875189298 0.070945 -0.7696293333333334
1876675177 0.067025 -0.7683430000000001
1878161056 0.071122 -0.7668316666666667
1879646935 0.07095733333333333 -0.7676696666666666
1881132814 0.06841733333333333 -0.7651656666666667
1882618693 0.06820033333333334 -0.7636603333333333
1884104572 0.06818066666666667 -0.7614783333333334
1885590451 0.067662 -0.7600146666666667
1887076330 0.06837033333333332 -0.7575856666666666
1888562209 0.06726566666666667 -0.7536443333333332
1890048088 0.06390233333333334 -0.7510563333333332
1891533967 0.065058 -0.753222
1893019846 0.06289299999999999 -0.7556556666666667
1894505725 0.06265566666666668 -0.7585046666666667
1895991604 0.06512166666666667 -0.7558453333333333
1897477483 0.06425 -0.7624879999999999
1898963362 0.064853 -0.7628880000000001
1900449241 0.064152 -0.7625223333333334
1901935120 0.06274099999999999 -0.763973
1903420999 0.060373 -0.7642526666666667
1904906878 0.06416866666666667 -0.7633776666666666
1906392757 0.06282066666666666 -0.7600083333333333
1907878636 0.06612566666666668 -0.7624920000000001
1909364515 0.06293433333333333 -0.7598356666666666
1910850394 0.06511333333333333 -0.7591060000000001
1912336273 0.06346800000000001 -0.7569866666666666
1913822152 0.06333033333333334 -0.7542063333333333
1915308031 0.06405 -0.7514323333333333
1916793910 0.05805966666666667 -0.7491156666666666
1918279789 0.058924 -0.7446956666666665
1919765668 0.05594866666666667 -0.744271
1921251547 0.06023733333333333 -0.7429113333333333
1922737426 0.05483266666666667 -0.7461733333333335
1924223305 0.056100000000000004 -0.7485686666666668
1925709184 0.05338099999999999 -0.7518983333333332
1927195063 0.051337 -0.7549049999999999
1928680942 0.05314766666666667 -0.7565323333333334
1930166821 0.05232166666666666 -0.7570903333333333
1931652700 0.05423633333333333 -0.758245
1933138579 0.052374000000000004 -0.7586020000000001
1934624458 0.051687333333333335 -0.7609273333333334
1936110337 0.05335433333333334 -0.758325
1937596216 0.04995633333333333 -0.7599736666666667
1939082095 0.049703000000000004 -0.7592706666666666
1940567974 0.052956333333333334 -0.758308
1942053853 0.04664166666666667 -0.7582300000000001
1943539732 0.056208 -0.754553
1945025611 0.04522233333333333 -0.7543196666666666
1946511490 0.051057 -0.7505196666666668
1947997369 0.046426 -0.7484423333333333
1949483248 0.046272 -0.7461099999999999
1950969127 0.045499000000000005 -0.7479836666666667
1952455006 0.044957 -0.7505166666666666
1953940885 0.04388533333333333 -0.7518159999999999
1955426764 0.040953333333333335 -0.7537263333333334
1956912643 0.043002000000000005 -0.7570446666666667
1958398522 0.03919466666666667 -0.7575379999999999
1959884401 0.041711 -0.7586926666666667
1961370280 0.043318 -0.7585203333333332
1962856159 0.04146366666666667 -0.7599596666666667
1964342038 0.03843033333333334 -0.7597830000000001
1965827917 0.03838566666666667 -0.758957
1967313796 0.03714933333333333 -0.75792
1968799675 0.029581999999999997 -0.7198956666666666
1970285554 0.039198666666666666 -0.7555006666666667
1971771433 0.038525333333333335 -0.755435
1973257312 0.041393 -0.7526606666666668
1974743191 0.03467866666666666 -0.7495723333333334
1976229070 0.036868000000000005 -0.7480759999999999
1977714949 0.03689766666666667 -0.744527
1979200828 0.03772833333333333 -0.7424973333333332
1980686707 0.03649766666666667 -0.7408493333333332
1982172586 0.036188 -0.743122
1983658465 0.034335333333333336 -0.7458566666666666
1985144344 0.035931000000000005 -0.7484449999999999
1986630223 0.034235666666666664 -0.7514546666666666
1988116102 0.03358 -0.753378
1989601981 0.029697333333333336 -0.757353
1991087860 0.033870333333333336 -0.7540426666666665
1992573739 0.032284 -0.7560083333333334
1994059618 0.03348 -0.7550676666666667
1995545497 0.03353233333333333 -0.7539656666666666
1997031376 0.03127233333333333 -0.7555486666666668
1998517255 0.032698333333333336 -0.7530726666666667
2000003134 0.031536666666666664 -0.7524493333333333
2001489013 0.027310666666666667 -0.7504593333333333
2002974892 0.029576666666666668 -0.7481543333333333
2004460771 0.02882433333333333 -0.7477643333333334
2005946650 0.031726 -0.7445179999999999
2007432529 0.029025 -0.7405863333333333
2008918408 0.028085666666666665 -0.7377463333333333
2010404287 0.023287333333333337 -0.738013
2011890166 0.024613 -0.741453
2013376045 0.021355666666666665 -0.7428593333333332
2014861924 0.02111266666666667 -0.7453430000000001
2016347803 0.022700666666666664 -0.7477806666666665
2017833682 0.025782666666666666 -0.747799
2019319561 0.022382 -0.7510693333333333
2020805440 0.02119233333333333 -0.7530153333333334
2022291319 0.022595333333333332 -0.753081
2023777198 0.020871 -0.753828
2025263077 0.022531 -0.75292
2026748956 0.022625666666666665 -0.7545769999999999
2028234835 0.020624666666666666 -0.7532736666666665
2029720714 0.02016633333333333 -0.7526229999999999
2031206593 0.023124333333333334 -0.7516213333333334
2032692472 0.021602 -0.7491793333333333
2034178351 0.021722666666666668 -0.7472513333333333
2035664230 0.019328666666666664 -0.7443789999999999
2037150109 0.018321 -0.7427950000000001
2038635988 0.01886133333333333 -0.7412256666666667
2040121867 0.015350999999999998 -0.7374583333333332
2041607746 0.02079766666666667 -0.7398950000000001
2043093625 0.016399 -0.7425216666666667
2044579504 0.015675333333333333 -0.7441446666666667
2046065383 0.014895666666666666 -0.7460553333333334
2047551262 0.012883333333333335 -0.74724
2049037141 0.014245666666666665 -0.7474036666666667
2050523020 0.011162 -0.7489129999999999
2052008899 0.013917333333333332 -0.7484203333333334
2053494778 0.012273 -0.7500410000000001
2054980657 0.012830333333333332 -0.7485563333333333
2056466536 0.011913666666666664 -0.7469933333333335
2057952415 0.011652333333333334 -0.7476116666666667
2059438294 0.012628666666666668 -0.7475163333333333
2060924173 0.008265999999999999 -0.744125
2062410052 0.009502333333333333 -0.7431603333333333
2063895931 0.006089000000000001 -0.739861
2065381810 0.008647 -0.7370550000000001
2066867689 0.005877333333333334 -0.7347823333333334
2068353568 0.005816000000000001 -0.7305793333333334
2069839447 0.002894666666666667 -0.7274886666666666
2071325326 0.0055639999999999995 -0.7307746666666667
2072811205 0.004779333333333333 -0.7329696666666669
2074297084 0.0043296666666666666 -0.7367146666666667
2075782963 0.000974 -0.7385746666666666
2077268842 0.005632666666666667 -0.7415660000000001
2078754721 0.0033146666666666667 -0.7419086666666667
2080240600 0.0029600000000000004 -0.7450543333333334
2081726479 0.0035636666666666664 -0.745421
2083212358 0.007817 -0.7481896666666666
2084698237 0.004945666666666667 -0.7477993333333334
2086184116 0.006143 -0.747182
2087669995 0.0021053333333333336 -0.7472003333333334
2089155874 0.007498 -0.7465536666666667
2090641753 0.007485666666666666 -0.7450070000000001
2092127632 0.008484 -0.7439753333333333
2093613511 0.005474 -0.7413660000000001
2095099390 0.0044796666666666665 -0.738334
2096585269 0.004928666666666667 -0.7371393333333334
2098071148 0.0051270000000000005 -0.7352583333333333
2099557027 0.005288333333333333 -0.731004
2101042906 0.002827 -0.7335146666666666
2102528785 0.0022216666666666665 -0.7347210000000001
2104014664 0.001771 -0.7386659999999999
2105500543 0.001141 -0.739432
2106986422 0.00248 -0.7438009999999999
2108472301 0.004148333333333333 -0.7443066666666667
2109958180 0.0036153333333333337 -0.7478793333333332
2111444059 0.0019793333333333334 -0.7458589999999999
2112929938 0.001963666666666667 -0.7481969999999999
2114415817 0.002440666666666667 -0.7495120000000001
2115901696 0.0005906666666666666 -0.7486259999999999
2117387575 0.002434 -0.7467196666666668
2118873454 0.002381666666666667 -0.7473703333333334
2120359333 0.0008633333333333332 -0.7461730000000001
2121845212 0.002219666666666667 -0.7457413333333333
2123331091 -0.0009006666666666665 -0.7429030000000001
2124816970 -0.0015916666666666668 -0.7397090000000001
2126302849 -0.0019143333333333332 -0.738077
2127788728 -0.0006376666666666667 -0.736656
2129274607 -0.0004940000000000002 -0.7337973333333334
2130760486 -0.0018663333333333333 -0.7343613333333333
2132246365 -0.006491333333333334 -0.7346786666666666
2133732244 0.0026810000000000007 -0.73971
2135218123 0.0018269999999999998 -0.7411913333333334
2136704002 -0.0011869999999999995 -0.7426153333333333
2138189881 0.0008546666666666662 -0.7438190000000001
2139675760 -0.001015666666666667 -0.7458513333333334
2141161639 -0.0014653333333333335 -0.747826
2142647518 -0.0010433333333333336 -0.7474093333333333
2144133397 -0.0055636666666666655 -0.7472653333333333
2145619276 0.0004949999999999995 -0.7490206666666667
2147105155 -0.003692000000000001 -0.7465006666666666
2148591034 -0.003254999999999999 -0.7461399999999999
2150076913 -0.006763333333333333 -0.7454686666666666
2151562792 -0.006157666666666666 -0.7450653333333334
2153048671 -0.0035079999999999994 -0.7420673333333333
2154534550 -0.0070606666666666665 -0.7398446666666666
2156020429 -0.005764000000000001 -0.7406576666666665
2157506308 -0.008449333333333331 -0.7378070000000001
2158992187 -0.018284666666666668 -0.7309793333333333
2160478066 -0.018653 -0.729823
2161963945 -0.017381999999999998 -0.7337583333333333
2163449824 -0.019006000000000002 -0.7343923333333334
2164935703 -0.02326366666666667 -0.7363436666666666
2166421582 -0.019474 -0.7411623333333334
2167907461 -0.017436999999999998 -0.7413496666666667
2169393340 -0.020855666666666665 -0.743955
2170879219 -0.020149 -0.7448130000000001
2172365098 -0.017628666666666667 -0.7458143333333332
2173850977 -0.015924999999999998 -0.7461083333333334
2175336856 -0.017582999999999998 -0.7447520000000001
2176822735 -0.017248 -0.746162
2178308614 -0.017769999999999998 -0.7442350000000001
2179794493 -0.015116333333333334 -0.7415573333333333
2181280372 -0.014667333333333333 -0.7422483333333333
2182766251 -0.013804999999999998 -0.7409973333333332
2184252130 -0.014582666666666666 -0.7394896666666666
2185738009 -0.011694333333333333 -0.7381713333333333
2187223888 -0.016023333333333334 -0.7308333333333333
2188709767 -0.014316666666666667 -0.7308850000000001
2190195646 -0.014184 -0.728093
2191681525 -0.016137333333333333 -0.7291573333333333
2193167404 -0.016563666666666668 -0.730832
2194653283 -0.014988000000000001 -0.735008
2196139162 -0.015125666666666664 -0.735319
2197625041 -0.011031 -0.7376640000000001
2199110920 -0.012667666666666667 -0.7378446666666667
2200596799 -0.01471 -0.7377496666666667
2202082678 -0.016381666666666666 -0.7385906666666667
2203568557 -0.013769666666666666 -0.739251
2205054436 -0.012446666666666667 -0.7398786666666667
2206540315 -0.012787000000000001 -0.738505
2208026194 -0.008727666666666667 -0.7270083333333334
2209512073 -0.006783999999999999 -0.7356896666666666
2210997952 -0.010506333333333335 -0.7347706666666666
2212483831 -0.009592666666666666 -0.7333003333333333
2213969710 -0.014053666666666667 -0.7303603333333334
2215455589 -0.009901 -0.7291603333333333
2216941468 -0.011787 -0.7240173333333333
2218427347 -0.012426333333333333 -0.7200106666666667
2219913226 -0.012759666666666667 -0.717044
2221399105 -0.010762 -0.7200033333333334
2222884984 -0.011881333333333334 -0.7205743333333333
2224370863 -0.011258333333333334 -0.725158
2225856742 -0.013563333333333332 -0.7266683333333334
2227342621 -0.014167 -0.726746
2228828500 -0.015765 -0.727163
2230314379 -0.012832000000000001 -0.7326543333333334
2231800258 -0.014564666666666668 -0.731537
2233286137 -0.018368333333333334 -0.7305883333333334
2234772016 -0.015273 -0.73239
2236257895 -0.017348333333333334 -0.733072
2237743774 -0.014021666666666667 -0.733257
2239229653 -0.016894 -0.7324906666666666
2240715532 -0.016081333333333333 -0.7332216666666667
2242201411 -0.017268000000000002 -0.730226
2243687290 -0.014008000000000001 -0.7293120000000001
2245173169 -0.017937666666666668 -0.725718
2246659048 -0.015785666666666667 -0.7255113333333334
2248144927 -0.016361666666666667 -0.7238306666666667
2249630806 -0.016831666666666665 -0.7207876666666667
2251116685 -0.020929666666666666 -0.7207966666666666
2252602564 -0.017218333333333335 -0.7235926666666667
2254088443 -0.017952333333333334 -0.7259413333333334
2255574322 -0.022206 -0.728317
2257060201 -0.021890666666666666 -0.7299376666666667
2258546080 -0.02029166666666667 -0.7303806666666667
2260031959 -0.021439999999999997 -0.7316283333333332
2261517838 -0.022582333333333333 -0.7303203333333332
2263003717 -0.02731 -0.7299273333333334
2264489596 -0.022107 -0.7297916666666667
2265975475 -0.02144666666666667 -0.7313436666666666
2267461354 -0.024921 -0.7293313333333332
2268947233 -0.026941666666666666 -0.7290466666666666
2270433112 -0.03794333333333333 -0.7186020000000001
2271918991 -0.028308333333333335 -0.7240489999999999
2273404870 -0.023618333333333335 -0.7243736666666667
2274890749 -0.025589333333333335 -0.7222433333333335
2276376628 -0.028373333333333334 -0.7192729999999999
2277862507 -0.027075333333333337 -0.7169583333333334
2279348386 -0.033304 -0.7149179999999999
2280834265 -0.029881 -0.7153566666666666
2282320144 -0.030519 -0.7183596666666667
2283806023 -0.03181066666666667 -0.7204066666666668
2285291902 -0.03336533333333333 -0.7214886666666667
2286777781 -0.029424666666666665 -0.7233113333333333
2288263660 -0.03448233333333334 -0.724257
2289749539 -0.030512 -0.7204653333333333
2291235418 -0.031684333333333335 -0.723716
2292721297 -0.03046233333333333 -0.7270746666666668
2294207176 -0.03161 -0.7235056666666666
2295693055 -0.024691666666666667 -0.7296223333333334
2297178934 -0.027881 -0.726914
2298664813 -0.030430333333333334 -0.724436
2300150692 -0.02676933333333333 -0.7246986666666667
2301636571 -0.03398166666666667 -0.7214546666666667
2303122450 -0.033048666666666664 -0.7205166666666667
2304608329 -0.03138266666666667 -0.718766
2306094208 -0.03354933333333333 -0.7164456666666666
2307580087 -0.03153466666666666 -0.709696
2309065966 -0.031314666666666664 -0.7125656666666668
2310551845 -0.03568966666666667 -0.711608
2312037724 -0.031665 -0.7141976666666666
2313523603 -0.03208866666666666 -0.717413
2315009482 -0.03837466666666667 -0.720336
2316495361 -0.033717 -0.7210179999999999
2317981240 -0.036847333333333336 -0.7224066666666666
2319467119 -0.031798 -0.7258143333333335
2320952998 -0.03560633333333334 -0.7259549999999999
2322438877 -0.034659333333333334 -0.7311693333333333
2323924756 -0.016914333333333333 -0.730372
2325410635 -0.03687 -0.7300736666666666
2326896514 -0.02945766666666667 -0.7280203333333333
2328382393 -0.03717500000000001 -0.7283146666666668
2329868272 -0.036505333333333334 -0.7255893333333333
2331354151 -0.037921666666666666 -0.7270426666666667
2332840030 -0.03563433333333333 -0.724933
2334325909 -0.042363000000000005 -0.7236483333333333
2335811788 -0.035006333333333334 -0.7221966666666667
2337297667 -0.03613666666666667 -0.7228403333333334
2338783546 -0.038184666666666665 -0.7188916666666666
2340269425 -0.039144000000000005 -0.7177656666666666
2341755304 -0.041555666666666664 -0.7192616666666667
2343241183 -0.04634166666666667 -0.7211993333333333
2344727062 -0.04206066666666667 -0.7267473333333334
2346212941 -0.041611 -0.7257663333333334
2347698820 -0.04202 -0.7277786666666666
2349184699 -0.051357999999999994 -0.7288516666666666
2350670578 -0.03838333333333333 -0.7294489999999999
2352156457 -0.04661733333333334 -0.7304633333333334
2353642336 -0.049196333333333335 -0.7281956666666667
2355128215 -0.04410833333333333 -0.727377
2356614094 -0.05255200000000001 -0.7289833333333333
2358099973 -0.047978999999999994 -0.7282700000000001
2359585852 -0.045698666666666665 -0.725275
2361071731 -0.04748466666666667 -0.7236336666666666
2362557610 -0.04616066666666666 -0.727307
2364043489 -0.051765000000000005 -0.718447
2365529368 -0.05256966666666666 -0.7172973333333333
2367015247 -0.05404233333333333 -0.715605
2368501126 -0.057954666666666675 -0.7139130000000001
2369987005 -0.056598666666666665 -0.7088356666666668
2371472884 -0.05798533333333333 -0.7122319999999999
2372958763 -0.05712366666666666 -0.715491
2374444642 -0.052944 -0.717469
2375930521 -0.058624 -0.7197746666666666
2377416400 -0.05205066666666666 -0.720058
2378902279 -0.05920433333333333 -0.7247303333333334
2380388158 -0.05290866666666666 -0.7219199999999999
2381874037 -0.053889 -0.724579
2383359916 -0.05157233333333333 -0.724306
2384845795 -0.052048000000000004 -0.7242346666666667
2386331674 -0.054938999999999995 -0.7241646666666667
2387817553 -0.05456666666666666 -0.7251730000000002
2389303432 -0.05499966666666667 -0.7206413333333334
2390789311 -0.053398 -0.7203203333333333
2392275190 -0.049713 -0.7177266666666666
2393761069 -0.04988733333333333 -0.7180749999999999
2395246948 -0.05108933333333334 -0.7115103333333334
2396732827 -0.050642 -0.709869
2398218706 -0.053180000000000005 -0.7038466666666667
2399704585 -0.052587 -0.7023003333333332
2401190464 -0.05493599999999999 -0.7043296666666666
2402676343 -0.05310299999999999 -0.7069896666666665
2404162222 -0.055987666666666665 -0.7114936666666667
2405648101 -0.05398733333333333 -0.7122226666666668
2407133980 -0.05887133333333333 -0.713164
2408619859 -0.05953700000000001 -0.718966
2410105738 -0.05936766666666667 -0.7202299999999999
2411591617 -0.056886 -0.7149116666666666
2413077496 -0.06158033333333333 -0.717607
2414563375 -0.059864 -0.7188819999999999
2416049254 -0.06353566666666667 -0.7198143333333333
2417535133 -0.05942633333333333 -0.7180399999999999
2419021012 -0.06195966666666667 -0.719443
2420506891 -0.06136466666666667 -0.716441
2421992770 -0.06306133333333333 -0.7182256666666667
2423478649 -0.06259066666666667 -0.7149736666666667
2424964528 -0.06452166666666666 -0.7127076666666667
2426450407 -0.084482 -0.6998943333333333
2427936286 -0.06846333333333333 -0.711249
2429422165 -0.06487766666666667 -0.7061353333333334
2430908044 -0.06731966666666668 -0.7064633333333333
2432393923 -0.07022066666666667 -0.710366
2433879802 -0.06905666666666667 -0.711385
2435365681 -0.07113599999999999 -0.7156176666666667
2436851560 -0.066809 -0.714909
2438337439 -0.07062433333333333 -0.7151556666666666
2439823318 -0.06692466666666667 -0.7163546666666667
2441309197 -0.06768300000000001 -0.7175406666666667
2442795076 -0.070796 -0.7180620000000001
2444280955 -0.06924200000000001 -0.7177366666666667
2445766834 -0.06875933333333333 -0.7153946666666666
2447252713 -0.06747366666666667 -0.715628
2448738592 -0.06979 -0.713524
2450224471 -0.07066766666666667 -0.711877
2451710350 -0.067041 -0.711175
2453196229 -0.069817 -0.7085933333333333
2454682108 -0.06799666666666666 -0.7061726666666667
2456167987 -0.06892166666666667 -0.7047146666666667
2457653866 -0.06612733333333333 -0.7029683333333333
2459139745 -0.07244133333333333 -0.6988166666666666
2460625624 -0.07122066666666667 -0.6965913333333332
2462111503 -0.070073 -0.6995656666666666
2463597382 -0.07346933333333333 -0.7032106666666667
2465083261 -0.071733 -0.7028756666666668
2466569140 -0.07492766666666667 -0.7047016666666667
2468055019 -0.07571066666666666 -0.7055440000000001
2469540898 -0.072137 -0.7058923333333333
2471026777 -0.07447266666666667 -0.7078756666666667
2472512656 -0.06542766666666666 -0.7334833333333334
2473998535 -0.07510399999999999 -0.7088716666666667
2475484414 -0.07458233333333335 -0.7091696666666666
2476970293 -0.07610966666666667 -0.7061446666666665
2478456172 -0.07416833333333334 -0.706355
2479942051 -0.07598066666666668 -0.703215
2481427930 -0.077144 -0.702743
2482913809 -0.075553 -0.7014703333333333
2484399688 -0.07629166666666666 -0.6998953333333334
2485885567 -0.07563166666666667 -0.6987333333333333
2487371446 -0.07674466666666667 -0.694531
2488857325 -0.079615 -0.6923213333333332
2490343204 -0.080904 -0.6877743333333334
2491829083 -0.078105 -0.6929516666666666
2493314962 -0.079811 -0.6940986666666666
2494800841 -0.080919 -0.6977666666666668
2496286720 -0.07918833333333333 -0.6989683333333333
2497772599 -0.079003 -0.7024336666666665
2499258478 -0.078193 -0.7034946666666667
2500744357 -0.07628166666666668 -0.706407
2502230236 -0.07507033333333334 -0.7075870000000001
2503716115 -0.076862 -0.7059103333333333
2505201994 -0.076193 -0.7070443333333333
2506687873 -0.07731466666666666 -0.7081243333333335
2508173752 -0.078048 -0.7068293333333333
2509659631 -0.06967366666666668 -0.7098716666666668
2511145510 -0.07231633333333333 -0.708678
2512631389 -0.074033 -0.7044133333333334
2514117268 -0.07218533333333334 -0.7054226666666666
2515603147 -0.07230066666666667 -0.7008053333333333
2517089026 -0.06991033333333334 -0.699296
2518574905 -0.07054266666666667 -0.697739
2520060784 -0.07293133333333333 -0.69412
2521546663 -0.07498966666666666 -0.6980843333333334
2523032542 -0.07296933333333334 -0.6965523333333333
2524518421 -0.07163633333333334 -0.7047703333333333
2526004300 -0.07495166666666665 -0.7002826666666667
2527490179 -0.07505433333333333 -0.7025753333333333
2528976058 -0.07845500000000001 -0.7054376666666666
2530461937 -0.07876533333333334 -0.7074143333333334
2531947816 -0.08053366666666667 -0.7090486666666665
2533433695 -0.080255 -0.7116086666666668
2534919574 -0.07815899999999999 -0.7048853333333334
2536405453 -0.08130966666666667 -0.705222
2537891332 -0.07973899999999999 -0.7078596666666667
2539377211 -0.08209266666666666 -0.7069396666666666
2540863090 -0.08091 -0.707268
2542348969 -0.08252 -0.704975
2543834848 -0.080493 -0.7042753333333334
2545320727 -0.08236433333333333 -0.7029173333333333
2546806606 -0.08387066666666666 -0.6993583333333334
2548292485 -0.08672633333333334 -0.6963690000000001
2549778364 -0.08305233333333333 -0.6949273333333333
2551264243 -0.08822666666666668 -0.6982473333333333
2552750122 -0.083776 -0.6993779999999999
2554236001 -0.084444 -0.7051060000000001
2555721880 -0.08546133333333333 -0.7064136666666666
2557207759 -0.08685266666666668 -0.7070933333333334
2558693638 -0.08656933333333333 -0.711246
2560179517 -0.08810566666666668 -0.7104210000000001
2561665396 -0.08916066666666667 -0.714782
2563151275 -0.09043166666666667 -0.7110366666666668
2564637154 -0.092622 -0.7096966666666668
2566123033 -0.08965766666666668 -0.709698
2567608912 -0.08973966666666666 -0.7105346666666666
2569094791 -0.09270333333333332 -0.7111196666666667
2570580670 -0.09315166666666667 -0.708584
2572066549 -0.08947699999999999 -0.7088396666666666
2573552428 -0.08095066666666667 -0.708904
2575038307 -0.090347 -0.7064583333333333
2576524186 -0.09657666666666666 -0.70412
2578010065 -0.09481100000000002 -0.698998
2579495944 -0.09508699999999999 -0.69814
2580981823 -0.09674466666666666 -0.6923856666666667
2582467702 -0.09554066666666666 -0.6972056666666666
2583953581 -0.089916 -0.7032293333333334
2585439460 -0.09321766666666668 -0.7037783333333333
2586925339 -0.09645766666666666 -0.6993933333333334
2588411218 -0.09166733333333332 -0.705569
2589897097 -0.09064866666666667 -0.7049403333333334
2591382976 -0.08636700000000001 -0.701791
2592868855 -0.095462 -0.6979463333333333
2594354734 -0.08892833333333333 -0.701367
2595840613 -0.090883 -0.704398
2597326492 -0.09392266666666667 -0.695211
2598812371 -0.08925933333333332 -0.695922
2600298250 -0.08912266666666667 -0.6856430000000001
2601784129 -0.09459633333333334 -0.689498
2603270008 -0.08903833333333333 -0.68646
2604755887 -0.091781 -0.6827246666666666
2606241766 -0.09342600000000001 -0.6803426666666667
2607727645 -0.09185166666666666 -0.6734273333333333
2609213524 -0.08874033333333335 -0.6727836666666667
2610699403 -0.09607133333333333 -0.6729936666666667
2612185282 -0.08953266666666666 -0.6760596666666667
2613671161 -0.09018933333333333 -0.679002
2615157040 -0.09379833333333333 -0.678694
2616642919 -0.09641266666666666 -0.6785063333333333
2618128798 -0.09493633333333333 -0.6807463333333335
2619614677 -0.09123566666666666 -0.6832076666666668
2621100556 -0.09040966666666667 -0.6850003333333333
2622586435 -0.09613766666666668 -0.6787116666666666
2624072314 -0.094675 -0.6813553333333333
2625558193 -0.09684966666666667 -0.683666
2627044072 -0.08901700000000001 -0.6846316666666666
2628529951 -0.094582 -0.682878
2630015830 -0.097227 -0.6808566666666667
2631501709 -0.09493266666666667 -0.678799
2632987588 -0.09917866666666668 -0.6750003333333333
2634473467 -0.09121233333333334 -0.6797070000000001
2635959346 -0.091476 -0.6751903333333334
2637445225 -0.09399033333333333 -0.676338
2638931104 -0.09642533333333332 -0.6713293333333334
2640416983 -0.09901633333333333 -0.6676443333333334
2641902862 -0.09695 -0.6756966666666667
2643388741 -0.09577000000000001 -0.6813250000000001
2644874620 -0.094526 -0.6793903333333334
2646360499 -0.094186 -0.6825199999999999
2647846378 -0.10197033333333334 -0.6844906666666667
2649332257 -0.09725600000000001 -0.6904796666666666
2650818136 -0.094266 -0.6942616666666667
2652304015 -0.099277 -0.6890743333333335
2653789894 -0.10087366666666668 -0.6921886666666667
2655275773 -0.09797833333333333 -0.6947293333333334
2656761652 -0.09968233333333333 -0.6963383333333333
2658247531 -0.099246 -0.692679
2659733410 -0.09445833333333332 -0.6938749999999999
2661219289 -0.10334733333333335 -0.6946553333333334
2662705168 -0.10004866666666667 -0.692085
2664191047 -0.09640066666666665 -0.6932826666666667
2665676926 -0.10197400000000001 -0.6903236666666667
2667162805 -0.10779766666666668 -0.6855166666666667
2668648684 -0.09856866666666668 -0.6915623333333333
2670134563 -0.10326 -0.68866
2671620442 -0.10156533333333333 -0.689007
2673106321 -0.10569866666666666 -0.6913093333333333
2674592200 -0.101877 -0.6944926666666666
2676078079 -0.09995799999999999 -0.6982296666666666
2677563958 -0.10017933333333333 -0.6969470000000001
2679049837 -0.09923166666666668 -0.6985976666666667
2680535716 -0.09607566666666667 -0.7003183333333333
2682021595 -0.09605399999999999 -0.6968843333333332
2683507474 -0.09435699999999998 -0.6994946666666667
2684993353 -0.09675833333333334 -0.6974239999999999
2686479232 -0.09672866666666667 -0.6932796666666666
2687965111 -0.09770933333333333 -0.7024039999999999
2689450990 -0.09299 -0.6962456666666667
2690936869 -0.09588566666666666 -0.6938453333333333
2692422748 -0.09558300000000002 -0.6922306666666667
2693908627 -0.08917333333333333 -0.6870053333333334
2695394506 -0.09352466666666666 -0.6878726666666667
2696880385 -0.09658366666666666 -0.6822176666666667
2698366264 -0.09813333333333334 -0.679409
2699852143 -0.09759766666666665 -0.6762646666666666
2701338022 -0.09705333333333332 -0.6803689999999999
2702823901 -0.09037566666666667 -0.677274
2704309780 -0.09356533333333333 -0.6829326666666667
2705795659 -0.09198833333333334 -0.6849533333333334
2707281538 -0.09576633333333333 -0.6880233333333333
2708767417 -0.09466366666666666 -0.6860713333333334
2710253296 -0.087055 -0.6879333333333332
2711739175 -0.08913433333333333 -0.6875656666666666
2713225054 -0.08327633333333333 -0.6875166666666667
2714710933 -0.083307 -0.6854743333333334
2716196812 -0.08350266666666667 -0.6866113333333335
2717682691 -0.08278733333333334 -0.684539
2719168570 -0.08760366666666668 -0.6843803333333334
2720654449 -0.08268466666666667 -0.6830060000000001
2722140328 -0.08982699999999999 -0.681257
2723626207 -0.07931166666666666 -0.6796183333333333
2725112086 -0.08141333333333334 -0.6749536666666667
2726597965 -0.080119 -0.6698026666666667
2728083844 -0.081742 -0.6689930000000001
2729569723 -0.08189599999999998 -0.6636366666666667
2731055602 -0.07389933333333333 -0.6689176666666667
2732541481 -0.093158 -0.669239
2734027360 -0.09487266666666667 -0.6751033333333334
2735513239 -0.09092533333333334 -0.6773363333333333
2736999118 -0.09603033333333333 -0.6788606666666667
2738484997 -0.09407833333333333 -0.6839236666666667
2739970876 -0.08530933333333333 -0.6844166666666668
2741456755 -0.10180800000000001 -0.6846626666666666
2742942634 -0.10476333333333332 -0.6874180000000001
2744428513 -0.10945133333333334 -0.6912389999999999
2745914392 -0.104419 -0.688082
2747400271 -0.10676066666666667 -0.6895746666666667
2748886150 -0.10720833333333334 -0.689118
2750372029 -0.103823 -0.6898646666666667
2751857908 -0.11126066666666667 -0.68738
2753343787 -0.11331000000000001 -0.6912050000000001
2754829666 -0.111557 -0.6875646666666667
2756315545 -0.11099033333333334 -0.6908879999999998
2757801424 -0.10934966666666666 -0.6864666666666667
2759287303 -0.11358066666666666 -0.6837953333333333
2760773182 -0.11160633333333332 -0.6865156666666666
2762259061 -0.11133766666666667 -0.6888646666666668
2763744940 -0.11222766666666667 -0.6906806666666667
2765230819 -0.11012833333333334 -0.6927173333333334
2766716698 -0.10638466666666667 -0.6984473333333333
2768202577 -0.11217133333333335 -0.6970286666666666
2769688456 -0.10983033333333335 -0.6978703333333333
2771174335 -0.11110266666666667 -0.6979446666666668
2772660214 -0.10840433333333332 -0.6981253333333334
2774146093 -0.10063433333333334 -0.6932470000000001
2775631972 -0.10578899999999998 -0.6947883333333333
2777117851 -0.10731133333333333 -0.6954943333333333
2778603730 -0.09770966666666665 -0.6912676666666666
2780089609 -0.10452733333333335 -0.6954976666666667
2781575488 -0.10217266666666668 -0.6912846666666667
2783061367 -0.100688 -0.6873963333333334
2784547246 -0.097333 -0.6848053333333333
2786033125 -0.09889133333333333 -0.6858879999999999
2787519004 -0.09956366666666668 -0.6791743333333334
2789004883 -0.09956633333333333 -0.6751976666666666
2790490762 -0.103439 -0.6756383333333332
2791976641 -0.10153366666666667 -0.6719703333333333
2793462520 -0.108375 -0.6807793333333333
2794948399 -0.10648533333333332 -0.6779803333333333
2796434278 -0.09903433333333334 -0.680069
2797920157 -0.10933766666666667 -0.6871176666666666
2799406036 -0.10840066666666666 -0.6857976666666667
2800891915 -0.10507166666666667 -0.6872846666666667
2802377794 -0.11171133333333333 -0.6883386666666667
2803863673 -0.10658033333333333 -0.6856813333333333
2805349552 -0.11597400000000001 -0.6869856666666666
2806835431 -0.11182700000000001 -0.6851206666666667
2808321310 -0.11414433333333333 -0.6869860000000001
2809807189 -0.11339500000000001 -0.683037
2811293068 -0.10854666666666667 -0.6811006666666666
2812778947 -0.10930466666666666 -0.687115
2814264826 -0.114495 -0.6806793333333333
2815750705 -0.11188133333333333 -0.6772856666666667
2817236584 -0.11778066666666666 -0.6773716666666667
2818722463 -0.118624 -0.6774446666666667
2820208342 -0.11442333333333332 -0.6732536666666666
2821694221 -0.11275666666666667 -0.6757143333333334
2823180100 -0.11212733333333331 -0.6807206666666668
2824665979 -0.11386599999999998 -0.6829276666666667
2826151858 -0.11772466666666666 -0.6831983333333334
2827637737 -0.113479 -0.6846363333333333
2829123616 -0.12108033333333333 -0.6824486666666667
2830609495 -0.11388366666666666 -0.6823676666666668
2832095374 -0.11742399999999999 -0.6831269999999999
2833581253 -0.113884 -0.685146
2835067132 -0.10931799999999998 -0.6815510000000001
2836553011 -0.109132 -0.6835906666666666
2838038890 -0.11397666666666667 -0.6768556666666666
2839524769 -0.110678 -0.6716993333333333
2841010648 -0.11467733333333334 -0.6765903333333333
2842496527 -0.10824533333333335 -0.6738353333333332
2843982406 -0.11316766666666667 -0.6714716666666667
2845468285 -0.10988466666666667 -0.6674410000000001
2846954164 -0.114086 -0.6650326666666667
2848440043 -0.11206900000000002 -0.6583736666666667
2849925922 -0.11193499999999999 -0.6568983333333334
2851411801 -0.11032933333333333 -0.6549736666666667
2852897680 -0.11747133333333333 -0.6603500000000001
2854383559 -0.11531366666666666 -0.6623646666666666
2855869438 -0.11501066666666666 -0.661939
2857355317 -0.121035 -0.6649326666666666
2858841196 -0.11765166666666667 -0.6659320000000001
2860327075 -0.11528533333333334 -0.6678073333333333
2861812954 -0.11411133333333334 -0.6702976666666668
2863298833 -0.11159666666666668 -0.6695336666666666
2864784712 -0.11168333333333332 -0.6721233333333334
2866270591 -0.11752866666666667 -0.6696423333333333
2867756470 -0.11108933333333333 -0.6683833333333333
2869242349 -0.11500866666666666 -0.672635
2870728228 -0.102265 -0.6678246666666667
2872214107 -0.104973 -0.6678826666666667
2873699986 -0.09782366666666666 -0.6666569999999999
2875185865 -0.10070766666666668 -0.6664973333333334
2876671744 -0.094676 -0.6647236666666666
2878157623 -0.097962 -0.6624346666666666
2879643502 -0.09778633333333332 -0.6608443333333334
2881129381 -0.10756933333333334 -0.6556556666666666
2882615260 -0.11128466666666666 -0.658334
2884101139 -0.11042300000000001 -0.6632016666666667
2885587018 -0.11381266666666667 -0.6626723333333332
2887072897 -0.113669 -0.664267
2888558776 -0.10698999999999999 -0.6661243333333333
2890044655 -0.11362333333333334 -0.668332
2891530534 -0.11456066666666666 -0.6686726666666667
2893016413 -0.11364366666666666 -0.6673346666666666
2894502292 -0.11568099999999999 -0.670281
2895988171 -0.11175166666666668 -0.6699923333333334
2897474050 -0.11893266666666667 -0.667411
2898959929 -0.11353033333333333 -0.6689919999999999
2900445808 -0.11479600000000001 -0.6702689999999999
2901931687 -0.11272733333333333 -0.6675493333333332
2903417566 -0.11686200000000001 -0.666521
2904903445 -0.11327799999999999 -0.665706
2906389324 -0.11022933333333333 -0.6625773333333335
2907875203 -0.11270333333333334 -0.6597183333333333
2909361082 -0.11142800000000001 -0.6594163333333334
2910846961 -0.11400500000000001 -0.6592063333333334
2912332840 -0.11500133333333333 -0.6604226666666667
2913818719 -0.117097 -0.660949
2915304598 -0.117217 -0.6654423333333334
2916790477 -0.11726933333333334 -0.6642233333333333
2918276356 -0.117357 -0.6662859999999999
2919762235 -0.11883733333333334 -0.6671133333333333
2921248114 -0.12068000000000001 -0.6664726666666666
2922733993 -0.11995533333333334 -0.6679729999999999
2924219872 -0.11352033333333333 -0.6655593333333334
2925705751 -0.12231333333333334 -0.6655003333333332
2927191630 -0.12243233333333332 -0.6669223333333333
2928677509 -0.12356466666666667 -0.664374
2930163388 -0.121958 -0.6632033333333334
2931649267 -0.12401833333333334 -0.662613
2933135146 -0.12609800000000002 -0.6594889999999999
2934621025 -0.12399866666666666 -0.6610353333333333
2936106904 -0.123681 -0.6551463333333333
2937592783 -0.128046 -0.6541763333333334
2939078662 -0.12909866666666667 -0.65264
2940564541 -0.13089733333333334 -0.6517529999999999
2942050420 -0.13132633333333335 -0.6550826666666667
2943536299 -0.128987 -0.655874
2945022178 -0.12983966666666666 -0.656139
2946508057 -0.130332 -0.6589856666666667
2947993936 -0.12842333333333333 -0.6590103333333334
2949479815 -0.12766400000000003 -0.6619806666666667
2950965694 -0.12903066666666665 -0.662598
2952451573 -0.13012466666666667 -0.6612863333333333
2953937452 -0.130154 -0.665506
2955423331 -0.13068166666666667 -0.662465
2956909210 -0.12637366666666666 -0.6621946666666666
2958395089 -0.12845933333333334 -0.6615056666666667
2959880968 -0.12857533333333335 -0.6604296666666666
2961366847 -0.13020566666666666 -0.6569676666666666
2962852726 -0.12770966666666667 -0.6558316666666667
2964338605 -0.12420300000000001 -0.6590256666666666
2965824484 -0.12553 -0.6527246666666667
2967310363 -0.12626199999999999 -0.6484976666666667
2968796242 -0.12461466666666667 -0.6482346666666666
2970282121 -0.126686 -0.6464673333333334
2971768000 -0.12493266666666665 -0.6491663333333334
2973253879 -0.127769 -0.6490653333333333
2974739758 -0.12252633333333333 -0.6568033333333333
2976225637 -0.1314226666666667 -0.651731
2977711516 -0.12093433333333332 -0.6537856666666667
2979197395 -0.13033066666666668 -0.6527343333333334
2980683274 -0.12336799999999999 -0.6587519999999999
2982169153 -0.12883133333333333 -0.6534786666666667
2983655032 -0.11972766666666666 -0.6590600000000001
2985140911 -0.12380566666666666 -0.6549166666666667
2986626790 -0.12020566666666666 -0.6547833333333334
2988112669 -0.12457 -0.6488646666666668
2989598548 -0.11810233333333335 -0.6526646666666666
2991084427 -0.12444166666666667 -0.647645
2992570306 -0.11685466666666668 -0.6489406666666667
2994056185 -0.12311833333333333 -0.6424546666666666
2995542064 -0.114547 -0.6452556666666667
2997027943 -0.118905 -0.6429213333333332
2998513822 -0.11364 -0.6392353333333333
2999999701 -0.12136799999999999 -0.633035
