# HZ S RI R 50
10000 0.9195366666666667 -0.11268333333333332
1495879 0.6822833333333334 1.2158593333333334
2981758 0.5772036666666667 0.688841
4467637 0.5808176666666666 0.326729
5953516 0.6505073333333332 0.137526
7439395 0.743632 0.011573333333333333
8925274 1.056275 -0.06360966666666666
10411153 1.0972229999999998 0.03723266666666667
11897032 1.0854686666666666 0.16885399999999998
13382911 1.0181216666666668 0.2922696666666667
14868790 0.9158620000000001 0.38092466666666663
16354669 0.8025806666666667 0.42759366666666665
17840548 0.6989263333333332 0.4452833333333333
19326427 0.6088356666666667 0.435068
20812306 0.5355733333333333 0.41670266666666667
22298185 0.47663700000000003 0.393051
23784064 0.428715 0.36599699999999996
25269943 0.389578 0.34293033333333334
26755822 0.3583513333333333 0.3154673333333333
28241701 0.332515 0.29200899999999996
29727580 0.316918 0.2863306666666667
31213459 0.32112199999999996 0.25498266666666664
32699338 0.337766 0.24046933333333334
34185217 0.3528543333333333 0.22684366666666667
35671096 0.36860266666666663 0.21133566666666667
37156975 0.383632 0.19212966666666667
38642854 0.39753 0.17535
40128733 0.411896 0.15262533333333336
41614612 0.4244306666666667 0.14100066666666666
43100491 0.4379676666666667 0.11898166666666667
44586370 0.45148066666666664 0.10072166666666667
46072249 0.4649193333333333 0.07726733333333334
47558128 0.479648 0.06044333333333333
49044007 0.4960906666666667 0.043485666666666666
50529886 0.5149453333333334 0.029040999999999997
52015765 0.5364093333333334 -0.00041533333333333336
53501644 0.565603 -0.019052666666666666
54987523 0.6031746666666667 -0.04372966666666667
56473402 0.6563019999999999 -0.08139266666666667
57959281 0.7445256666666666 -0.09781333333333332
59445160 0.9018673333333332 -0.076422
60931039 0.997146 -0.04575066666666667
62416918 1.0007416666666666 -0.05465133333333333
63902797 1.0035490000000002 -0.06443966666666666
65388676 1.006674 -0.07386666666666666
66874555 1.0104246666666665 -0.04519366666666667
68360434 1.0025876666666667 -0.15364166666666668
69846313 1.0131846666666666 -0.047289000000000005
71332192 1.0151219999999999 -0.04161666666666667
72818071 1.0150283333333334 -0.08593533333333332
74303950 1.0155936666666667 -0.07708966666666667
75789829 1.0173713333333332 -0.010384000000000001
77275708 1.0156626666666666 -0.018951
78761587 1.0151103333333333 -0.013139999999999999
80247466 1.0086413333333333 -0.13032366666666664
81733345 1.0109343333333332 -0.08242733333333334
83219224 1.0085979999999999 -0.09380999999999999
84705103 1.00222 -0.11779533333333332
86190982 1.004494 0.006617666666666667
87676861 0.9969376666666667 -0.10928
89162740 0.9947940000000001 -0.084072
90648619 0.9933339999999999 -0.10279100000000001
92134498 0.9973906666666666 -0.08883333333333333
93620377 1.0022659999999999 -0.069992
95106256 1.0025436666666667 -0.096784
96592135 1.00492 -0.09569899999999999
98078014 1.0080280000000001 -0.09097366666666666
99563893 1.0093956666666668 -0.088038
101049772 1.0107933333333332 -0.10147500000000002
102535651 1.010365 -0.10320666666666667
104021530 1.0098423333333333 -0.10414033333333333
105507409 1.0106169999999999 -0.10434666666666666
106993288 1.0107929999999998 -0.105993
108479167 1.008427 -0.105998
109965046 1.0075709999999998 -0.10741833333333332
111450925 1.0064766666666667 -0.108007
112936804 1.0042820000000001 -0.108885
114422683 1.0017663333333333 -0.108502
115908562 0.9982933333333334 -0.11022566666666667
117394441 0.9951686666666667 -0.11031766666666666
118880320 0.9912169999999999 -0.11089066666666668
120366199 0.9888746666666667 -0.11333366666666667
121852078 0.9933393333333332 -0.11485833333333333
123337957 0.9966753333333332 -0.11604633333333332
124823836 1.000303 -0.117973
126309715 1.004087 -0.12057766666666665
127795594 1.0068273333333335 -0.12142599999999999
129281473 1.0087056666666667 -0.124112
130767352 1.0118783333333334 -0.12454633333333333
132253231 1.0133 -0.12432066666666668
133739110 1.01537 -0.12650333333333333
135224989 0.9991206666666667 -0.13784866666666665
136710868 0.9997996666666666 -0.13819666666666666
138196747 0.9988886666666668 -0.138983
139682626 0.9986276666666667 -0.13974333333333333
141168505 0.998265 -0.14050566666666667
142654384 0.995964 -0.13996566666666665
144140263 0.9949503333333333 -0.14044033333333333
145626142 0.9921179999999999 -0.1409986666666667
147112021 0.989542 -0.140612
148597900 0.9869140000000001 -0.14129366666666668
150083779 0.9841646666666666 -0.139906
151569658 0.9871976666666668 -0.141743
153055537 0.9905546666666667 -0.14464066666666667
154541416 0.9930883333333332 -0.14617066666666667
156027295 0.9946959999999999 -0.14740166666666665
157513174 0.998446 -0.14865166666666665
158999053 0.9980060000000001 -0.15095899999999998
160484932 0.9989496666666667 -0.151526
161970811 1.000736 -0.15331899999999998
163456690 1.0007863333333333 -0.153821
164942569 1.0018019999999999 -0.15408600000000003
166428448 1.0000106666666666 -0.15610366666666667
167914327 0.9992303333333333 -0.15639433333333333
169400206 0.9981863333333333 -0.15819833333333333
170886085 0.9972353333333333 -0.15838200000000002
172371964 1.004897 -0.15277533333333335
173857843 0.9929853333333334 -0.160564
175343722 0.989758 -0.161432
176829601 0.985623 -0.16331433333333334
178315480 0.9826626666666666 -0.16408066666666665
179801359 0.9786643333333332 -0.1654526666666667
181287238 0.981306 -0.16718566666666668
182773117 0.9850136666666667 -0.16964800000000002
184258996 0.9876386666666667 -0.17079366666666665
185744875 0.9897956666666667 -0.1730136666666667
187230754 0.9921116666666666 -0.17440333333333335
188716633 0.9942636666666665 -0.17470399999999997
190202512 0.9950366666666667 -0.17666633333333334
191688391 0.9963206666666666 -0.17779866666666666
193174270 0.9966050000000001 -0.17944866666666667
194660149 0.9971483333333334 -0.18085833333333334
196146028 0.9960126666666667 -0.18080466666666664
197631907 0.9953799999999999 -0.18262233333333333
199117786 0.993753 -0.18353133333333335
200603665 0.9919530000000001 -0.18445733333333333
202089544 0.989887 -0.18513900000000003
203575423 0.9882903333333334 -0.1863073333333333
205061302 0.984264 -0.188926
206547181 0.980963 -0.18943433333333334
208033060 0.9772660000000001 -0.190851
209518939 0.973613 -0.19216533333333333
211004818 0.974297 -0.19443133333333332
212490697 0.9780656666666666 -0.19669333333333336
213976576 0.981131 -0.19817566666666667
215462455 0.9840106666666667 -0.19931566666666667
216948334 0.986243 -0.20134866666666665
218434213 0.9881823333333334 -0.20243766666666665
219920092 0.9902463333333333 -0.20421166666666665
221405971 0.9900903333333334 -0.20629533333333336
222891850 0.9919060000000001 -0.20582133333333333
224377729 0.9917760000000001 -0.20735933333333334
225863608 1.0428676666666667 -0.19506700000000002
227349487 0.9904136666666666 -0.20884166666666668
228835366 0.988933 -0.21027566666666667
230321245 0.9865713333333334 -0.210906
231807124 0.9857809999999999 -0.21193133333333333
233293003 0.9815186666666667 -0.21423133333333333
234778882 0.9785283333333333 -0.21581366666666665
236264761 0.9747089999999999 -0.21659266666666666
237750640 0.9707560000000001 -0.217095
239236519 0.9658923333333335 -0.21930533333333335
240722398 0.9660869999999999 -0.220695
242208277 0.9692533333333332 -0.2240683333333333
243694156 0.973506 -0.22477433333333333
245180035 0.976379 -0.22669933333333334
246665914 0.9787066666666666 -0.228797
248151793 0.9812539999999998 -0.229939
249637672 0.982995 -0.23211733333333331
251123551 0.9843906666666666 -0.23264699999999996
252609430 0.9847936666666667 -0.23434966666666668
254095309 0.9844513333333333 -0.23523933333333336
255581188 0.984226 -0.23483766666666664
257067067 0.983291 -0.23673833333333336
258552946 0.982009 -0.23751333333333333
260038825 0.9798830000000001 -0.238899
261524704 0.9774053333333333 -0.23990266666666668
263010583 0.97483 -0.24124733333333334
264496462 0.9711773333333333 -0.242179
265982341 0.967651 -0.24197000000000002
267468220 0.9627036666666667 -0.24405166666666667
268954099 0.9584793333333333 -0.24487166666666668
270439978 0.9559340000000001 -0.246565
271925857 0.9594553333333332 -0.24981033333333336
273411736 0.9637466666666668 -0.25157633333333335
274897615 0.9666996666666666 -0.2530223333333333
276383494 0.969852 -0.256166
277869373 0.9717356666666667 -0.25811466666666666
279355252 0.9736729999999999 -0.2590426666666667
280841131 0.9757276666666668 -0.26114733333333334
282327010 0.976878 -0.2616906666666667
283812889 0.9763696666666667 -0.261825
285298768 0.9769399999999999 -0.26245266666666667
286784647 0.9755696666666666 -0.264871
288270526 0.9744913333333334 -0.2664976666666667
289756405 0.9722466666666666 -0.266093
291242284 0.9699403333333333 -0.26692533333333335
292728163 0.9672686666666667 -0.2668493333333333
294214042 0.9641476666666667 -0.2686793333333333
295699921 0.9599673333333333 -0.26849433333333333
297185800 0.9557983333333334 -0.269628
298671679 0.9500616666666667 -0.27037700000000003
300157558 0.9462616666666666 -0.2677136666666666
301643437 0.951066 -0.27143599999999996
303129316 0.9557516666666667 -0.27415266666666666
304615195 0.958816 -0.27733366666666665
306101074 0.961267 -0.27970466666666666
307586953 0.9636603333333333 -0.28123533333333334
309072832 0.965713 -0.28257333333333334
310558711 0.9663363333333334 -0.2850823333333334
312044590 0.9684006666666667 -0.28506166666666666
313530469 0.9687296666666666 -0.28709866666666667
315016348 0.9687696666666666 -0.2876283333333333
316502227 0.9676300000000001 -0.2873793333333334
317988106 0.9666656666666666 -0.28920900000000005
319473985 0.9645666666666667 -0.28900433333333336
320959864 0.9630256666666667 -0.289547
322445743 0.9602513333333332 -0.29081466666666667
323931622 0.9569570000000001 -0.289504
325417501 0.952267 -0.2916113333333334
326903380 0.9490996666666667 -0.29097666666666666
328389259 0.9439636666666665 -0.2909916666666667
329875138 0.9381953333333333 -0.29113266666666665
331361017 0.941461 -0.29405333333333333
332846896 0.944305 -0.2987126666666666
334332775 0.9473213333333333 -0.30090466666666665
335818654 0.9507823333333333 -0.30276366666666665
337304533 0.9527193333333334 -0.3062396666666667
338790412 0.9538646666666667 -0.307796
340276291 0.9542699999999998 -0.30846999999999997
341762170 0.9559073333333332 -0.31165333333333334
343248049 0.955456 -0.3118113333333334
344733928 0.955673 -0.31321366666666667
346219807 0.9542393333333333 -0.314066
347705686 0.953176 -0.314463
349191565 0.950895 -0.3157703333333333
350677444 0.9487646666666668 -0.3159013333333333
352163323 0.945777 -0.31584133333333336
353649202 0.9429153333333332 -0.31663166666666664
355135081 0.9389323333333334 -0.3158896666666667
356620960 0.9344083333333333 -0.31594666666666665
358106839 0.9289756666666666 -0.31733433333333333
359592718 0.9242876666666667 -0.317375
361078597 0.9240743333333333 -0.32018199999999997
362564476 0.928525 -0.3228163333333333
364050355 0.9323026666666667 -0.3253536666666667
365536234 0.9342856666666667 -0.32865466666666665
367022113 0.935921 -0.33157366666666666
368507992 0.9355366666666667 -0.3383153333333333
369993871 0.9392116666666667 -0.3349546666666667
371479750 0.9403073333333333 -0.33756699999999995
372965629 0.9404533333333333 -0.33793266666666666
374451508 0.9409456666666666 -0.3389853333333333
375937387 0.940258 -0.339623
377423266 0.939454 -0.340359
378909145 0.9373049999999999 -0.34029533333333334
380395024 0.9358263333333333 -0.3422233333333333
381880903 0.933104 -0.34145733333333333
383366782 0.9306066666666667 -0.340619
384852661 0.9104450000000001 -0.35607799999999995
386338540 0.9243383333333334 -0.33968166666666666
387824419 0.9192873333333335 -0.33992666666666665
389310298 0.9141623333333334 -0.3401253333333334
390796177 0.913847 -0.3414626666666667
392282056 0.9172673333333333 -0.34484699999999996
393767935 0.9194553333333334 -0.34850733333333334
395253814 0.921949 -0.3499840000000001
396739693 0.9242456666666666 -0.3538076666666667
398225572 0.9257453333333333 -0.355655
399711451 0.9266403333333333 -0.3576806666666667
401197330 0.9266160000000001 -0.3582106666666667
402683209 0.9278396666666667 -0.3604433333333334
404169088 0.928295 -0.3608116666666667
405654967 0.92706 -0.36135866666666666
407140846 0.9261840000000001 -0.36228733333333335
408626725 0.9254273333333334 -0.3630063333333333
410112604 0.9231073333333333 -0.3632333333333333
411598483 0.921965 -0.36342433333333335
413084362 0.9178373333333333 -0.36309966666666665
414570241 0.9155289999999999 -0.36305600000000005
416056120 0.9118463333333334 -0.36302799999999996
417541999 0.90853 -0.3612866666666667
419027878 0.9030706666666667 -0.3614853333333334
420513757 0.901571 -0.3616363333333333
421999636 0.9036240000000001 -0.36639666666666665
423485515 0.9065576666666667 -0.3684163333333333
424971394 0.9090173333333333 -0.37145633333333333
426457273 0.9093433333333333 -0.37322900000000003
427943152 0.911743 -0.37575733333333333
429429031 0.9122340000000001 -0.37856966666666664
430914910 0.9121600000000001 -0.37986133333333333
432400789 0.913382 -0.38298133333333334
433886668 0.9132763333333332 -0.3822843333333334
435372547 0.9123946666666667 -0.3840213333333333
436858426 0.9122576666666666 -0.3845083333333333
438344305 0.912078 -0.38512066666666667
439830184 0.909334 -0.385971
441316063 0.908186 -0.38524433333333336
442801942 0.9046773333333333 -0.38603733333333334
444287821 0.9015386666666667 -0.3865966666666667
445773700 0.8983656666666667 -0.38595833333333335
447259579 0.8952453333333333 -0.38563600000000003
448745458 0.8900956666666667 -0.3856366666666667
450231337 0.8875373333333334 -0.3808013333333333
451717216 0.8923996666666666 -0.3836523333333333
453203095 0.8942169999999999 -0.38761699999999993
454688974 0.8957146666666667 -0.38884366666666664
456174853 0.897239 -0.391969
457660732 0.900162 -0.392727
459146611 0.9008803333333333 -0.3964619999999999
460632490 0.9016033333333332 -0.397854
462118369 0.9008153333333334 -0.398796
463604248 0.901112 -0.40077566666666664
465090127 0.9003673333333334 -0.401408
466576006 0.9004196666666666 -0.4011166666666666
468061885 0.8988633333333333 -0.4015233333333333
469547764 0.9458253333333332 -0.39910466666666666
471033643 0.8951966666666666 -0.4019176666666667
472519522 0.8919676666666666 -0.4020006666666667
474005401 0.88979 -0.401982
475491280 0.8865456666666667 -0.40160533333333337
476977159 0.8817463333333334 -0.4008293333333333
478463038 0.8777483333333334 -0.4015133333333334
479948917 0.8735160000000001 -0.3993516666666667
481434796 0.8761523333333333 -0.402342
482920675 0.8789503333333334 -0.405245
484406554 0.8817413333333333 -0.4077893333333333
485892433 0.8831829999999999 -0.4097463333333333
487378312 0.8847616666666666 -0.41395399999999993
488864191 0.8857826666666666 -0.41461233333333336
490350070 0.8869306666666668 -0.4164113333333333
491835949 0.887055 -0.4177663333333334
493321828 0.8875856666666667 -0.417883
494807707 0.8870610000000001 -0.4184313333333334
496293586 0.8866010000000001 -0.41909466666666667
497779465 0.885601 -0.420143
499265344 0.8871953333333332 -0.41625833333333334
500751223 0.8847503333333333 -0.41631899999999994
502237102 0.8829516666666667 -0.41629166666666667
503722981 0.8808613333333334 -0.4142053333333333
505208860 0.877136 -0.4148243333333334
506694739 0.8740436666666667 -0.414187
508180618 0.8660276666666666 -0.4200283333333333
509666497 0.8649476666666667 -0.4139006666666667
511152376 0.8626973333333333 -0.4217686666666667
512638255 0.8686250000000001 -0.41938000000000003
514124134 0.86759 -0.42667933333333335
515610013 0.8732266666666667 -0.42463766666666664
517095892 0.8712380000000001 -0.4316183333333334
518581771 0.8759203333333333 -0.42793299999999995
520067650 0.8730630000000001 -0.4349693333333334
521553529 0.877927 -0.43020166666666665
523039408 0.8744613333333332 -0.4369166666666666
524525287 0.877242 -0.4333563333333333
526011166 0.8735676666666666 -0.438161
527497045 0.8752810000000001 -0.43389533333333336
528982924 0.8708653333333333 -0.43807100000000004
530468803 0.8719036666666667 -0.43551366666666663
531954682 0.8665866666666666 -0.439128
533440561 0.86685 -0.43330699999999994
534926440 0.8603783333333332 -0.4378396666666666
536412319 0.8599166666666666 -0.43350133333333335
537898198 0.8513006666666666 -0.43844666666666665
539384077 0.8514413333333334 -0.43301233333333333
540869956 0.8475933333333333 -0.4378956666666667
542355835 0.849239 -0.44137633333333337
543841714 0.8530086666666667 -0.44262700000000005
545327593 0.854623 -0.44315366666666667
546813472 0.8553863333333332 -0.44593499999999997
548299351 0.857514 -0.4450093333333333
549785230 0.858477 -0.4458703333333333
551271109 0.858049 -0.44694033333333333
552756988 0.8574526666666666 -0.448127
554242867 0.8584456666666668 -0.4469826666666667
555728746 0.8570356666666666 -0.44654599999999994
557214625 0.8552203333333334 -0.44599900000000003
558700504 0.8546036666666668 -0.44422233333333333
560186383 0.8501356666666666 -0.4451703333333333
561672262 0.8473196666666668 -0.4433513333333334
563158141 0.8434196666666667 -0.4438216666666667
564644020 0.8394546666666667 -0.44205099999999997
566129899 0.8361926666666667 -0.439602
567615778 0.8312893333333333 -0.439255
569101657 0.8259856666666666 -0.43816499999999997
570587536 0.8239786666666666 -0.440005
572073415 0.8259596666666665 -0.4437946666666666
573559294 0.8288713333333334 -0.4474123333333333
575045173 0.83137 -0.4502616666666666
576531052 0.8323510000000001 -0.45478066666666667
578016931 0.833468 -0.4581056666666667
579502810 0.8340116666666666 -0.45954266666666665
580988689 0.8349863333333333 -0.46323933333333334
582474568 0.8357086666666667 -0.46470866666666666
583960447 0.8348803333333334 -0.4660326666666667
585446326 0.834409 -0.468939
586932205 0.8342183333333333 -0.4698196666666667
588418084 0.8311326666666666 -0.47083933333333333
589903963 0.8298393333333335 -0.47205233333333335
591389842 0.8277899999999999 -0.4740173333333333
592875721 0.8260010000000001 -0.473759
594361600 0.8226786666666666 -0.47529366666666667
595847479 0.8191503333333333 -0.474923
597333358 0.8154766666666667 -0.473388
598819237 0.8121206666666666 -0.47444
600305116 0.8082046666666667 -0.4748286666666666
601790995 0.8107343333333334 -0.47986
603276874 0.8138136666666668 -0.4814243333333333
604762753 0.8159193333333333 -0.4869933333333334
606248632 0.8193590000000001 -0.4878456666666667
607734511 0.8195496666666666 -0.4904893333333334
609220390 0.8220813333333333 -0.4920143333333334
610706269 0.8223633333333332 -0.49498333333333333
612192148 0.8230606666666667 -0.49530499999999994
613678027 0.8227673333333333 -0.49598499999999995
615163906 0.822925 -0.49621133333333334
616649785 0.8222046666666666 -0.49727066666666664
618135664 0.822324 -0.496585
619621543 0.8198823333333333 -0.4983516666666667
621107422 0.816914 -0.4971236666666667
622593301 0.8159313333333333 -0.495944
624079180 0.8126570000000001 -0.4952013333333333
625565059 0.8083613333333334 -0.4951696666666667
627050938 0.8057586666666666 -0.49366933333333335
628536817 0.8011413333333334 -0.49148499999999995
630022696 0.797349 -0.4910043333333333
631508575 0.7984406666666666 -0.4948053333333333
632994454 0.8007386666666667 -0.4987363333333333
634480333 0.803671 -0.5020756666666667
635966212 0.8051146666666668 -0.5042953333333333
637452091 0.8065286666666668 -0.5070933333333333
638937970 0.80911 -0.5090210000000001
640423849 0.8091183333333333 -0.510355
641909728 0.8084776666666667 -0.5118173333333335
643395607 0.8099646666666667 -0.5123076666666667
644881486 0.8088456666666667 -0.513637
646367365 0.8039233333333334 -0.5168936666666667
647853244 0.8078546666666666 -0.513313
649339123 0.8063263333333334 -0.5118983333333333
650825002 0.8028833333333334 -0.5139246666666667
652310881 0.8012566666666667 -0.5119756666666667
653796760 0.7997236666666666 -0.510359
655282639 0.7958646666666667 -0.5102433333333333
656768518 0.7940256666666666 -0.5077586666666666
658254397 0.789883 -0.5054780000000001
659740276 0.7843606666666666 -0.503677
661226155 0.7852686666666667 -0.5057523333333334
662712034 0.7868923333333333 -0.5107523333333334
664197913 0.7883473333333333 -0.513467
665683792 0.7903759999999999 -0.5153683333333333
667169671 0.7923543333333333 -0.518315
668655550 0.7932976666666667 -0.5199953333333333
670141429 0.7954496666666667 -0.5198736666666667
671627308 0.7976783333333333 -0.5211723333333333
673113187 0.7955553333333333 -0.5222413333333332
674599066 0.7968183333333334 -0.5210653333333334
676084945 0.7980063333333334 -0.5201383333333333
677570824 0.795932 -0.5206883333333333
679056703 0.7933873333333334 -0.5207966666666667
680542582 0.7927513333333334 -0.5210223333333334
682028461 0.7911623333333333 -0.5193513333333333
683514340 0.7875366666666667 -0.5181926666666667
685000219 0.7845616666666667 -0.5171276666666667
686486098 0.7859766666666667 -0.508613
687971977 0.777882 -0.5138996666666666
689457856 0.773888 -0.5111196666666666
690943735 0.7737616666666667 -0.5126339999999999
692429614 0.7744736666666666 -0.5164730000000001
693915493 0.7760553333333333 -0.5195326666666666
695401372 0.7774770000000001 -0.521159
696887251 0.7795726666666667 -0.5240973333333333
698373130 0.7772359999999999 -0.5281963333333334
699859009 0.7766026666666667 -0.5294763333333333
701344888 0.7775816666666667 -0.5314636666666667
702830767 0.7779666666666666 -0.5337743333333332
704316646 0.7759313333333333 -0.5354496666666666
705802525 0.7770926666666668 -0.5329946666666666
707288404 0.7756566666666668 -0.5353203333333333
708774283 0.7714723333333334 -0.5358856666666667
710260162 0.7706 -0.5367286666666667
711746041 0.768509 -0.5354816666666666
713231920 0.765987 -0.5357123333333335
714717799 0.7620076666666665 -0.5351913333333332
716203678 0.7607079999999998 -0.533904
717689557 0.75666 -0.5332916666666666
719175436 0.751074 -0.532472
720661315 0.7499603333333335 -0.53351
722147194 0.7499476666666668 -0.5395483333333333
723633073 0.7526943333333334 -0.539926
725118952 0.754649 -0.5436666666666666
726604831 0.7566586666666666 -0.5458166666666667
728090710 0.7572243333333333 -0.5481603333333332
729576589 0.757857 -0.550253
731062468 0.757964 -0.5514709999999999
732548347 0.7602160000000001 -0.5528580000000001
734034226 0.7572756666666667 -0.5533893333333334
735520105 0.7573613333333333 -0.552956
737005984 0.758288 -0.5538183333333334
738491863 0.7553866666666668 -0.5531510000000001
739977742 0.7542463333333332 -0.554965
741463621 0.7515086666666667 -0.5553426666666667
742949500 0.7500466666666666 -0.5531036666666667
744435379 0.7468986666666667 -0.5527266666666666
745921258 0.7461503333333334 -0.5499546666666667
747407137 0.740066 -0.5507543333333333
748893016 0.7378103333333333 -0.54846
750378895 0.7347916666666667 -0.5486466666666666
751864774 0.7368126666666667 -0.5510706666666666
753350653 0.7384403333333335 -0.553292
754836532 0.7403263333333333 -0.5564423333333334
756322411 0.739861 -0.5601266666666667
757808290 0.741585 -0.5609156666666667
759294169 0.7412856666666666 -0.5627163333333334
760780048 0.7421546666666666 -0.5635223333333333
762265927 0.7424940000000001 -0.5629806666666667
763751806 0.7424233333333333 -0.5663816666666667
765237685 0.7404319999999999 -0.566977
766723564 0.7392893333333334 -0.5666386666666666
768209443 0.738404 -0.5665973333333333
769695322 0.7355236666666668 -0.5673826666666667
771181201 0.7337046666666667 -0.5665366666666668
772667080 0.7320933333333333 -0.5657473333333334
774152959 0.728894 -0.5642816666666666
775638838 0.7257406666666667 -0.563673
777124717 0.7222823333333334 -0.5631413333333334
778610596 0.7175076666666667 -0.5604473333333333
780096475 0.713372 -0.5618303333333333
781582354 0.6992026666666668 -0.5740673333333334
783068233 0.7178249999999999 -0.5672626666666667
784554112 0.7209933333333333 -0.568766
786039991 0.7223293333333333 -0.5724140000000001
787525870 0.7216706666666667 -0.5750266666666667
789011749 0.7249099999999999 -0.5763126666666666
790497628 0.7243050000000001 -0.576822
791983507 0.7279593333333333 -0.576233
793469386 0.7253229999999999 -0.5793573333333334
794955265 0.7257243333333334 -0.5785816666666667
796441144 0.7238356666666667 -0.5787706666666667
797927023 0.7243993333333334 -0.5784463333333334
799412902 0.7226906666666667 -0.5770866666666666
800898781 0.721764 -0.5769313333333334
802384660 0.7198516666666667 -0.575519
803870539 0.7153006666666667 -0.5758456666666667
805356418 0.7146816666666668 -0.5732766666666667
806842297 0.7117783333333333 -0.5727903333333333
808328176 0.7073586666666666 -0.5697013333333333
809814055 0.7039719999999999 -0.5686256666666667
811299934 0.70513 -0.5715816666666668
812785813 0.7055136666666667 -0.5747273333333334
814271692 0.7069663333333334 -0.5782993333333334
815757571 0.7085856666666667 -0.580327
817243450 0.7089913333333334 -0.5827233333333334
818729329 0.7107033333333334 -0.5857216666666667
820215208 0.7103283333333333 -0.5873583333333334
821701087 0.7099596666666667 -0.5893913333333333
823186966 0.7101139999999999 -0.5903943333333334
824672845 0.7178436666666667 -0.5861173333333333
826158724 0.707912 -0.5916206666666666
827644603 0.7080486666666667 -0.5922693333333333
829130482 0.7057703333333333 -0.591021
830616361 0.7028933333333333 -0.5924146666666666
832102240 0.7021669999999999 -0.5906246666666667
833588119 0.6938646666666667 -0.5952476666666666
835073998 0.695299 -0.5901040000000001
836559877 0.6921430000000001 -0.5889756666666667
838045756 0.6895876666666667 -0.5878213333333334
839531635 0.6843596666666666 -0.5865313333333333
841017514 0.6833866666666667 -0.5890876666666667
842503393 0.6859313333333333 -0.5916466666666667
843989272 0.687462 -0.595208
845475151 0.6890136666666667 -0.5974836666666666
846961030 0.6901363333333334 -0.6012066666666667
848446909 0.6911026666666666 -0.602329
849932788 0.6909139999999999 -0.604202
851418667 0.6917393333333334 -0.605655
852904546 0.692835 -0.6060186666666667
854390425 0.690587 -0.6083746666666666
855876304 0.6913323333333333 -0.6073919999999999
857362183 0.6907603333333334 -0.6060313333333335
858848062 0.6886963333333332 -0.606997
860333941 0.6873313333333334 -0.606186
861819820 0.6847893333333334 -0.6047159999999999
863305699 0.6834033333333333 -0.603152
864791578 0.6809206666666667 -0.6013443333333334
866277457 0.6770126666666667 -0.5998286666666667
867763336 0.6729283333333332 -0.598627
869249215 0.6706023333333334 -0.595726
870735094 0.6670623333333333 -0.5976793333333333
872220973 0.6692676666666667 -0.601728
873706852 0.6720453333333333 -0.604427
875192731 0.6718989999999999 -0.6073183333333333
876678610 0.6724133333333334 -0.6103266666666667
878164489 0.6735846666666667 -0.611556
879650368 0.673418 -0.6151886666666666
881136247 0.6744796666666666 -0.6152650000000001
882622126 0.673836 -0.616963
884108005 0.6755586666666668 -0.6159516666666667
885593884 0.673758 -0.6170770000000001
887079763 0.6732366666666666 -0.6172153333333333
888565642 0.6711653333333333 -0.6173646666666667
890051521 0.6704066666666667 -0.6165903333333334
891537400 0.6693823333333334 -0.6152843333333333
893023279 0.6654986666666667 -0.614701
894509158 0.6633113333333334 -0.6136543333333334
895995037 0.6610856666666666 -0.6095406666666666
897480916 0.6577873333333333 -0.6079389999999999
898966795 0.6545470000000001 -0.6057546666666667
900452674 0.6496896666666667 -0.6074386666666667
901938553 0.6527923333333333 -0.6096446666666667
903424432 0.6541939999999999 -0.6125086666666667
904910311 0.6560746666666667 -0.6136126666666666
906396190 0.6556863333333333 -0.6173686666666667
907882069 0.6576893333333333 -0.6180633333333333
909367948 0.6550839999999999 -0.6227453333333334
910853827 0.6579090000000001 -0.6240530000000001
912339706 0.6566043333333332 -0.6266583333333333
913825585 0.655873 -0.6272093333333333
915311464 0.6533370000000001 -0.6256303333333334
916797343 0.654241 -0.6275069999999999
918283222 0.6546173333333334 -0.6252996666666667
919769101 0.67112 -0.6196616666666667
921254980 0.6512576666666667 -0.6238896666666668
922740859 0.6467236666666668 -0.6233160000000001
924226738 0.645279 -0.6211666666666666
925712617 0.6429300000000001 -0.620835
927198496 0.67738 -0.6471353333333334
928684375 0.636247 -0.6164170000000001
930170254 0.6329276666666667 -0.61598
931656133 0.6345393333333333 -0.6179323333333334
933142012 0.6367283333333333 -0.6207683333333334
934627891 0.637466 -0.624377
936113770 0.637775 -0.6276623333333333
937599649 0.639753 -0.6283786666666666
939085528 0.6400636666666667 -0.6305160000000001
940571407 0.640519 -0.6329946666666667
942057286 0.6403629999999999 -0.6338926666666667
943543165 0.6399576666666666 -0.6337969999999999
945029044 0.6406013333333332 -0.6344326666666668
946514923 0.6385956666666667 -0.6355700000000001
948000802 0.6401663333333333 -0.6347843333333333
949486681 0.639595 -0.6335213333333334
950972560 0.6372753333333333 -0.6335653333333333
952458439 0.6366606666666667 -0.631153
953944318 0.6353376666666667 -0.629346
955430197 0.6329713333333333 -0.6272570000000001
956916076 0.630969 -0.626027
958401955 0.6274366666666666 -0.6241490000000001
959887834 0.6257303333333333 -0.6202803333333334
961373713 0.626256 -0.6244286666666666
962859592 0.6269743333333334 -0.6265593333333334
964345471 0.6277870000000001 -0.6286323333333333
965831350 0.627246 -0.6315586666666667
967317229 0.6272266666666667 -0.6353073333333333
968803108 0.6276986666666666 -0.6364996666666667
970288987 0.6292233333333334 -0.637877
971774866 0.628697 -0.6389263333333334
973260745 0.6283436666666666 -0.6402433333333333
974746624 0.6264949999999999 -0.6407513333333333
976232503 0.6267076666666667 -0.6400666666666667
977718382 0.5924656666666667 -0.6334736666666666
979204261 0.6248573333333333 -0.6390536666666667
980690140 0.6235306666666666 -0.6402823333333333
982176019 0.6195269999999999 -0.6399940000000001
983661898 0.619924 -0.6375706666666666
985147777 0.616258 -0.6377039999999999
986633656 0.6154993333333333 -0.6356606666666668
988119535 0.6120776666666666 -0.6339063333333333
989605414 0.6099503333333334 -0.6320463333333333
991091293 0.6067276666666667 -0.6361726666666666
992577172 0.6087026666666667 -0.636772
994063051 0.6095626666666666 -0.6384363333333334
995548930 0.6102156666666666 -0.6415646666666667
997034809 0.6105093333333333 -0.644079
998520688 0.6107826666666667 -0.6444369999999999
1000006567 0.6124926666666667 -0.6454399999999999
1001492446 0.6115849999999999 -0.6460776666666667
1002978325 0.6109683333333332 -0.6479119999999999
1004464204 0.6118636666666667 -0.6472349999999999
1005950083 0.6087393333333333 -0.648065
1007435962 0.609047 -0.6467966666666666
1008921841 0.6072466666666667 -0.6469603333333334
1010407720 0.6059503333333333 -0.6453463333333334
1011893599 0.6054353333333333 -0.6436726666666667
1013379478 0.6027663333333334 -0.6440683333333334
1014865357 0.6015776666666667 -0.6407546666666667
1016351236 0.5987096666666667 -0.6402273333333334
1017837115 0.596394 -0.6376553333333334
1019322994 0.5940186666666666 -0.635439
1020808873 0.5923346666666668 -0.6369946666666667
1022294752 0.5924516666666667 -0.6403716666666667
1023780631 0.5921023333333334 -0.6434386666666666
1025266510 0.593916 -0.64556
1026752389 0.5938836666666667 -0.6474656666666666
1028238268 0.5974266666666667 -0.6479239999999999
1029724147 0.5950509999999999 -0.6505426666666666
1031210026 0.594642 -0.6508966666666667
1032695905 0.5959223333333333 -0.6515786666666666
1034181784 0.592641 -0.6535956666666666
1035667663 0.5939866666666666 -0.6527513333333334
1037153542 0.5940866666666667 -0.6519923333333333
1038639421 0.5916183333333334 -0.6528243333333333
1040125300 0.5917096666666667 -0.651293
1041611179 0.589941 -0.6505803333333333
1043097058 0.586521 -0.6514246666666667
1044582937 0.584639 -0.6495346666666667
1046068816 0.581433 -0.6482663333333334
1047554695 0.5783903333333335 -0.647067
1049040574 0.5750463333333333 -0.6458703333333333
1050526453 0.5755316666666667 -0.6439026666666666
1052012332 0.575726 -0.6477336666666668
1053498211 0.5769430000000001 -0.650559
1054984090 0.578229 -0.6537016666666667
1056469969 0.5793173333333334 -0.6559023333333333
1057955848 0.5790986666666668 -0.6575613333333333
1059441727 0.5792716666666666 -0.659223
1060927606 0.5824276666666667 -0.658333
1062413485 0.5801493333333333 -0.6601703333333333
1063899364 0.5810446666666667 -0.6606473333333334
1065385243 0.5793983333333333 -0.6624246666666668
1066871122 0.5778776666666667 -0.662443
1068357001 0.6152726666666667 -0.6768053333333333
1069842880 0.5787256666666667 -0.6597276666666666
1071328759 0.5774193333333334 -0.6586863333333334
1072814638 0.5710240000000001 -0.659342
1074300517 0.5720139999999999 -0.6571703333333333
1075786396 0.5680346666666666 -0.6566066666666667
1077272275 0.567301 -0.6548733333333333
1078758154 0.5641863333333332 -0.653112
1080244033 0.5601936666666666 -0.652555
1081729912 0.5607266666666667 -0.654763
1083215791 0.5645356666666667 -0.657174
1084701670 0.5645433333333334 -0.6597543333333332
1086187549 0.5659643333333334 -0.6618013333333334
1087673428 0.566473 -0.663444
1089159307 0.5667146666666666 -0.6646393333333334
1090645186 0.5681083333333333 -0.6662466666666667
1092131065 0.5684866666666667 -0.6657179999999999
1093616944 0.56674 -0.6672736666666667
1095102823 0.5667323333333333 -0.6682286666666667
1096588702 0.5764406666666667 -0.6629700000000001
1098074581 0.5632156666666667 -0.6682603333333333
1099560460 0.5620243333333333 -0.6677750000000001
1101046339 0.559001 -0.6657916666666667
1102532218 0.5591530000000001 -0.6639623333333334
1104018097 0.5565243333333333 -0.6625126666666666
1105503976 0.555729 -0.6600843333333334
1106989855 0.553668 -0.6579856666666667
1108475734 0.5487903333333333 -0.6579583333333333
1109961613 0.5438293333333334 -0.6558689999999999
1111447492 0.5463686666666666 -0.6576529999999999
1112933371 0.547813 -0.6606339999999999
1114419250 0.5494476666666667 -0.6643673333333333
1115905129 0.5503216666666667 -0.6674056666666667
1117391008 0.5500973333333333 -0.669292
1118876887 0.551431 -0.6705276666666666
1120362766 0.5497163333333334 -0.6726796666666667
1121848645 0.551433 -0.6750246666666667
1123334524 0.551867 -0.673237
1124820403 0.5516986666666667 -0.6775316666666665
1126306282 0.5497113333333333 -0.6769769999999999
1127792161 0.5283859999999999 -0.671764
1129278040 0.5475203333333333 -0.6731759999999999
1130763919 0.5460583333333333 -0.6748053333333334
1132249798 0.5445993333333333 -0.6716690000000001
1133735677 0.5435696666666666 -0.6720466666666667
1135221556 0.5397613333333333 -0.6707493333333333
1136707435 0.5379986666666667 -0.6678753333333334
1138193314 0.5342446666666666 -0.6664
1139679193 0.531024 -0.6638103333333333
1141165072 0.5304563333333334 -0.665593
1142650951 0.532304 -0.6701643333333335
1144136830 0.5357986666666666 -0.670579
1145622709 0.5339653333333333 -0.6752303333333334
1147108588 0.5322646666666667 -0.6788873333333334
1148594467 0.5346463333333333 -0.6796509999999999
1150080346 0.5364136666666667 -0.6803223333333333
1151566225 0.5353266666666666 -0.6813059999999999
1153052104 0.5364573333333332 -0.6814043333333334
1154537983 0.5352406666666667 -0.683264
1156023862 0.5335686666666666 -0.681905
1157509741 0.5320393333333333 -0.6823563333333333
1158995620 0.5312446666666667 -0.6817836666666667
1160481499 0.5313033333333333 -0.6798736666666668
1161967378 0.5269426666666667 -0.6798063333333334
1163453257 0.52578 -0.6771433333333334
1164939136 0.5240323333333333 -0.6748513333333334
1166425015 0.5187516666666666 -0.6748500000000001
1167910894 0.5141783333333333 -0.672503
1169396773 0.5148873333333334 -0.668005
1170882652 0.5128756666666666 -0.6703836666666666
1172368531 0.5108316666666667 -0.6737313333333335
1173854410 0.5146466666666667 -0.6752906666666666
1175340289 0.5150396666666667 -0.6782823333333333
1176826168 0.5133899999999999 -0.6809233333333333
1178312047 0.51375 -0.6827196666666667
1179797926 0.5138026666666666 -0.6850399999999999
1181283805 0.5157229999999999 -0.684389
1182769684 0.514132 -0.6861306666666667
1184255563 0.514174 -0.6856983333333334
1185741442 0.5141043333333334 -0.6858206666666667
1187227321 0.5111913333333332 -0.6869213333333333
1188713200 0.5103226666666667 -0.6833033333333334
1190199079 0.509281 -0.6836030000000001
1191684958 0.5060656666666666 -0.6830693333333332
1193170837 0.5048636666666667 -0.6799846666666666
1194656716 0.49941033333333334 -0.6796296666666667
1196142595 0.4991223333333334 -0.6775213333333333
1197628474 0.4961526666666667 -0.6746933333333334
1199114353 0.4929603333333333 -0.6715636666666667
1200600232 0.48946666666666666 -0.6724030000000001
1202086111 0.49306133333333335 -0.6755843333333332
1203571990 0.490111 -0.6808923333333333
1205057869 0.4928713333333333 -0.6824526666666667
1206543748 0.493468 -0.6853320000000002
1208029627 0.492887 -0.6873636666666667
1209515506 0.49597699999999995 -0.688227
1211001385 0.4952746666666667 -0.6910060000000001
1212487264 0.49454933333333334 -0.6917356666666667
1213973143 0.49440033333333333 -0.692681
1215459022 0.4938483333333334 -0.693346
1216944901 0.49678266666666665 -0.6904006666666667
1218430780 0.49287666666666663 -0.6921930000000001
1219916659 0.4913906666666667 -0.6917126666666666
1221402538 0.49245200000000006 -0.6876306666666666
1222888417 0.49024533333333337 -0.6871676666666667
1224374296 0.488976 -0.6854279999999999
1225860175 0.48794266666666664 -0.6818656666666666
1227346054 0.4845916666666667 -0.6791870000000001
1228831933 0.507659 -0.6805746666666668
1230317812 0.47922933333333334 -0.6755546666666667
1231803691 0.48127366666666666 -0.679323
1233289570 0.47957366666666673 -0.6819353333333334
1234775449 0.48135633333333333 -0.684684
1236261328 0.48232800000000003 -0.6854796666666667
1237747207 0.4835776666666667 -0.6883116666666668
1239233086 0.4824026666666667 -0.6900426666666667
1240718965 0.48418300000000003 -0.6900196666666667
1242204844 0.48328233333333337 -0.6917726666666667
1243690723 0.48206 -0.6929346666666666
1245176602 0.481879 -0.6907816666666667
1246662481 0.4823036666666667 -0.6920646666666667
1248148360 0.4819846666666667 -0.6892676666666667
1249634239 0.48248533333333327 -0.6870146666666667
1251120118 0.48084599999999994 -0.685768
1252605997 0.4794503333333333 -0.6841373333333333
1254091876 0.4766916666666667 -0.6843130000000001
1255577755 0.474346 -0.6797156666666666
1257063634 0.474076 -0.6754523333333333
1258549513 0.4710906666666666 -0.6732706666666667
1260035392 0.46690000000000004 -0.6699693333333334
1261521271 0.4659056666666667 -0.673779
1263007150 0.46634899999999996 -0.677615
1264493029 0.4670403333333333 -0.678963
1265978908 0.47045033333333336 -0.6810443333333334
1267464787 0.46601866666666664 -0.6857623333333334
1268950666 0.46563466666666664 -0.6869543333333333
1270436545 0.4637736666666667 -0.6873079999999999
1271922424 0.465787 -0.6896226666666667
1273408303 0.46425999999999995 -0.6914583333333333
1274894182 0.46245899999999995 -0.6900826666666666
1276380061 0.4625966666666666 -0.6898433333333333
1277865940 0.46243300000000004 -0.690961
1279351819 0.4604633333333334 -0.6899406666666668
1280837698 0.45971466666666666 -0.6882763333333334
1282323577 0.452907 -0.68948
1283809456 0.45764166666666667 -0.6850103333333334
1285295335 0.453745 -0.686012
1286781214 0.4521490000000001 -0.6831976666666666
1288267093 0.45074366666666665 -0.6817549999999999
1289752972 0.44941800000000004 -0.679026
1291238851 0.445282 -0.6807913333333334
1292724730 0.4476003333333333 -0.686168
1294210609 0.4473493333333333 -0.6880586666666666
1295696488 0.447702 -0.6885216666666668
1297182367 0.44815699999999997 -0.690103
1298668246 0.45029600000000003 -0.6929353333333333
1300154125 0.45057600000000003 -0.6919456666666667
1301640004 0.44939466666666666 -0.69571
1303125883 0.4512623333333334 -0.6944379999999999
1304611762 0.44982833333333333 -0.6942403333333332
1306097641 0.4505786666666666 -0.6949516666666667
1307583520 0.45257 -0.6939776666666666
1309069399 0.4488993333333333 -0.6945486666666666
1310555278 0.44795633333333335 -0.6913233333333334
1312041157 0.4497436666666667 -0.690462
1313527036 0.450318 -0.690133
1315012915 0.44720466666666664 -0.6864303333333334
1316498794 0.4469573333333334 -0.6841533333333333
1317984673 0.4445713333333334 -0.6828223333333333
1319470552 0.443195 -0.6805853333333333
1320956431 0.4430253333333334 -0.682216
1322442310 0.4451946666666666 -0.684365
1323928189 0.44254 -0.6878096666666668
1325414068 0.44467866666666667 -0.6879586666666667
1326899947 0.44354333333333334 -0.6908713333333333
1328385826 0.4450366666666667 -0.6926443333333333
1329871705 0.44440933333333327 -0.694308
1331357584 0.4455656666666667 -0.6949973333333334
1332843463 0.44305600000000006 -0.695822
1334329342 0.44530166666666665 -0.6967566666666668
1335815221 0.44329100000000005 -0.6999873333333334
1337301100 0.4436503333333333 -0.6988116666666667
1338786979 0.44289033333333333 -0.6982590000000001
1340272858 0.4404106666666667 -0.699591
1341758737 0.4429746666666667 -0.6957343333333333
1343244616 0.43984533333333337 -0.6961643333333334
1344730495 0.437599 -0.696055
1346216374 0.4379153333333334 -0.6915779999999999
1347702253 0.436828 -0.693132
1349188132 0.43175199999999997 -0.6899563333333333
1350674011 0.43158633333333335 -0.6911376666666668
1352159890 0.430126 -0.6925246666666666
1353645769 0.43080633333333335 -0.696275
1355131648 0.43175366666666665 -0.695059
1356617527 0.42958366666666664 -0.6977913333333333
1358103406 0.42824100000000004 -0.6994413333333332
1359589285 0.42960033333333336 -0.6981803333333333
1361075164 0.4285833333333333 -0.6997386666666666
1362561043 0.427375 -0.7010033333333333
1364046922 0.4247536666666667 -0.701571
1365532801 0.421994 -0.7019129999999999
1367018680 0.42187033333333335 -0.7011989999999999
1368504559 0.42341199999999996 -0.6999456666666667
1369990438 0.4183466666666667 -0.6982189999999999
1371476317 0.416825 -0.6976003333333334
1372962196 0.413333 -0.6946553333333334
1374448075 0.41145566666666666 -0.695046
1375933954 0.4106323333333333 -0.6938799999999999
1377419833 0.40588033333333334 -0.6932436666666667
1378905712 0.39854033333333333 -0.6921896666666667
1380391591 0.40024166666666666 -0.691043
1381877470 0.402161 -0.693397
1383363349 0.4013896666666667 -0.6974766666666667
1384849228 0.4016786666666667 -0.6982386666666667
1386335107 0.4060246666666667 -0.7005509999999999
1387820986 0.4022246666666667 -0.703252
1389306865 0.4103503333333333 -0.7014633333333333
1390792744 0.4067806666666667 -0.7040213333333334
1392278623 0.40864900000000004 -0.7049726666666666
1393764502 0.406795 -0.7056316666666667
1395250381 0.41136533333333336 -0.7029756666666667
1396736260 0.4116323333333334 -0.7037516666666667
1398222139 0.40982999999999997 -0.7025980000000001
1399708018 0.409791 -0.7020373333333333
1401193897 0.409551 -0.7036873333333333
1402679776 0.40900166666666665 -0.699332
1404165655 0.40522233333333335 -0.6984843333333334
1405651534 0.40731566666666663 -0.6958456666666667
1407137413 0.4050736666666667 -0.6945303333333334
1408623292 0.39479966666666666 -0.6927093333333333
1410109171 0.40307833333333337 -0.6882036666666665
1411595050 0.40254666666666666 -0.693024
1413080929 0.40410666666666667 -0.6972626666666667
1414566808 0.40306966666666666 -0.6989713333333333
1416052687 0.4112113333333333 -0.7001020000000001
1417538566 0.40832699999999994 -0.7030279999999999
1419024445 0.4095863333333334 -0.7048163333333334
1420510324 0.4098490000000001 -0.7063196666666668
1421996203 0.40967333333333333 -0.7076759999999999
1423482082 0.40986100000000003 -0.7073116666666667
1424967961 0.41176866666666667 -0.7074509999999999
1426453840 0.413101 -0.7075616666666665
1427939719 0.4114843333333333 -0.707929
1429425598 0.412433 -0.7066706666666667
1430911477 0.4098273333333333 -0.7059646666666667
1432397356 0.4120796666666667 -0.702531
1433883235 0.4103846666666667 -0.7020643333333334
1435369114 0.40815166666666663 -0.701151
1436854993 0.38456333333333337 -0.6793113333333333
1438340872 0.40218333333333334 -0.6954123333333332
1439826751 0.399859 -0.6937700000000001
1441312630 0.40072066666666667 -0.6950706666666666
1442798509 0.401774 -0.697997
1444284388 0.4061343333333333 -0.6996903333333333
1445770267 0.4033993333333334 -0.7033386666666667
1447256146 0.40231666666666666 -0.7053013333333333
1448742025 0.40347700000000003 -0.7054566666666666
1450227904 0.405181 -0.705499
1451713783 0.40306833333333336 -0.706664
1453199662 0.4023999999999999 -0.707588
1454685541 0.40353100000000003 -0.7063673333333332
1456171420 0.40095133333333327 -0.7070963333333333
1457657299 0.4008960000000001 -0.7051286666666666
1459143178 0.39910833333333334 -0.7047316666666666
1460629057 0.395586 -0.7031143333333333
1462114936 0.3954956666666667 -0.7020156666666666
1463600815 0.3925263333333333 -0.7001430000000001
1465086694 0.3900616666666667 -0.6977806666666666
1466572573 0.386831 -0.695856
1468058452 0.3817723333333333 -0.6951413333333334
1469544331 0.3816306666666667 -0.691058
1471030210 0.38068133333333326 -0.6930893333333333
1472516089 0.3828913333333333 -0.695786
1474001968 0.38371099999999997 -0.6987420000000001
1475487847 0.3840416666666666 -0.7015206666666667
1476973726 0.3844256666666666 -0.703639
1478459605 0.38555266666666665 -0.705594
1479945484 0.3864606666666666 -0.7068260000000001
1481431363 0.3881856666666666 -0.7067296666666666
1482917242 0.38677999999999996 -0.7088596666666667
1484403121 0.3863533333333333 -0.709639
1485889000 0.38843266666666665 -0.7082263333333333
1487374879 0.3873596666666667 -0.7076543333333333
1488860758 0.38643800000000006 -0.7066880000000001
1490346637 0.38568600000000003 -0.7063829999999999
1491832516 0.38246433333333335 -0.7049146666666667
1493318395 0.383335 -0.702296
1494804274 0.38063433333333335 -0.7008983333333333
1496290153 0.37904833333333326 -0.6988166666666666
1497776032 0.37595700000000004 -0.695697
1499261911 0.37164866666666674 -0.6928643333333334
1500747790 0.3726403333333333 -0.6940759999999999
1502233669 0.37353033333333335 -0.696705
1503719548 0.37075199999999997 -0.6990853333333332
1505205427 0.37335866666666667 -0.701781
1506691306 0.3743356666666666 -0.70388
1508177185 0.37274266666666667 -0.7068150000000001
1509663064 0.37128633333333333 -0.7089323333333333
1511148943 0.3710816666666667 -0.709312
1512634822 0.3726306666666667 -0.7079376666666667
1514120701 0.3716006666666667 -0.710905
1515606580 0.3709563333333334 -0.7099073333333333
1517092459 0.37034933333333336 -0.7099786666666666
1518578338 0.36923700000000004 -0.7087280000000001
1520064217 0.3643 -0.708272
1521550096 0.35490266666666664 -0.672257
1523035975 0.36964966666666665 -0.703213
1524521854 0.3676093333333333 -0.7012006666666667
1526007733 0.36136999999999997 -0.6993246666666666
1527493612 0.3657333333333333 -0.6951490000000001
1528979491 0.38092366666666666 -0.697637
1530465370 0.3610533333333333 -0.691596
1531951249 0.36234733333333335 -0.6961833333333334
1533437128 0.3628476666666667 -0.6981470000000001
1534923007 0.36232899999999996 -0.7007716666666667
1536408886 0.3575413333333333 -0.7050373333333333
1537894765 0.35704500000000006 -0.7076273333333334
1539380644 0.35719666666666666 -0.7093246666666667
1540866523 0.3629636666666667 -0.7076293333333333
1542352402 0.3631856666666667 -0.7067939999999999
1543838281 0.364183 -0.7070946666666665
1545324160 0.363767 -0.7077490000000001
1546810039 0.3624026666666667 -0.7055389999999999
1548295918 0.3555443333333333 -0.7078653333333333
1549781797 0.3564063333333333 -0.7073853333333333
1551267676 0.3510503333333334 -0.7060076666666667
1552753555 0.3502286666666667 -0.7025803333333333
1554239434 0.35020199999999996 -0.6995276666666667
1555725313 0.3470796666666667 -0.697082
1557211192 0.3438866666666667 -0.6942886666666667
1558697071 0.34103666666666665 -0.6921653333333334
1560182950 0.3391573333333333 -0.6893509999999999
1561668829 0.340978 -0.6920459999999999
1563154708 0.3409196666666667 -0.6961816666666666
1564640587 0.33969333333333335 -0.6992146666666667
1566126466 0.342864 -0.6996586666666667
1567612345 0.3415706666666667 -0.7039213333333333
1569098224 0.341022 -0.704453
1570584103 0.33836266666666664 -0.7074363333333332
1572069982 0.3399663333333333 -0.7076253333333332
1573555861 0.3418873333333334 -0.7080276666666667
1575041740 0.340208 -0.7087179999999998
1576527619 0.3389343333333333 -0.7093956666666666
1578013498 0.3412543333333333 -0.7079230000000001
1579499377 0.3371943333333333 -0.7072233333333333
1580985256 0.33587300000000003 -0.706963
1582471135 0.3388906666666667 -0.7040056666666668
1583957014 0.33479233333333336 -0.7035346666666668
1585442893 0.335309 -0.7002233333333333
1586928772 0.33144 -0.6999103333333333
1588414651 0.3305243333333333 -0.6959146666666666
1589900530 0.327599 -0.693744
1591386409 0.3298933333333333 -0.6957126666666666
1592872288 0.3285443333333333 -0.7000023333333333
1594358167 0.33027666666666666 -0.701304
1595844046 0.3289936666666667 -0.703818
1597329925 0.33114366666666667 -0.704754
1598815804 0.3289413333333333 -0.7072283333333332
1600301683 0.3296693333333333 -0.7081683333333334
1601787562 0.33022633333333334 -0.7090133333333334
1603273441 0.32836366666666666 -0.709855
1604759320 0.3277403333333333 -0.71075
1606245199 0.3297116666666667 -0.7089816666666667
1607731078 0.329131 -0.70788
1609216957 0.33155433333333334 -0.7070766666666667
1610702836 0.325919 -0.707281
1612188715 0.328944 -0.7050153333333333
1613674594 0.32753566666666667 -0.703359
1615160473 0.32274833333333336 -0.7029933333333332
1616646352 0.324327 -0.6982956666666666
1618132231 0.32197533333333334 -0.6967650000000001
1619618110 0.3205516666666666 -0.6931266666666667
1621103989 0.32133233333333333 -0.6942280000000002
1622589868 0.3181893333333334 -0.6985299999999999
1624075747 0.31951199999999996 -0.7005933333333334
1625561626 0.318372 -0.7027066666666668
1627047505 0.3177016666666667 -0.7051673333333334
1628533384 0.3191013333333333 -0.7051449999999999
1630019263 0.3169713333333333 -0.7079746666666665
1631505142 0.3185923333333333 -0.709203
1632991021 0.319065 -0.7081763333333333
1634476900 0.31627366666666673 -0.7095083333333333
1635962779 0.3156256666666667 -0.7105070000000001
1637448658 0.31436900000000007 -0.7101786666666667
1638934537 0.313988 -0.710417
1640420416 0.31280766666666665 -0.7095613333333333
1641906295 0.31024066666666666 -0.7082769999999999
1643392174 0.3113396666666666 -0.7055370000000001
1644878053 0.3083203333333333 -0.7049773333333333
1646363932 0.3109596666666667 -0.7001933333333333
1647849811 0.3053513333333333 -0.7004756666666667
1649335690 0.30358066666666667 -0.6984186666666666
1650821569 0.30597066666666667 -0.6961763333333334
1652307448 0.3017533333333334 -0.7000883333333334
1653793327 0.3035383333333333 -0.7028926666666666
1655279206 0.30160566666666666 -0.7063626666666667
1656765085 0.302396 -0.707504
1658250964 0.3024816666666667 -0.7084736666666668
1659736843 0.303754 -0.7078963333333332
1661222722 0.3030553333333333 -0.7097976666666668
1662708601 0.3025003333333333 -0.7091853333333334
1664194480 0.30263899999999994 -0.709566
1665680359 0.30218133333333336 -0.7094719999999999
1667166238 0.3025123333333333 -0.7078539999999999
1668652117 0.30057 -0.708545
1670137996 0.30036766666666664 -0.7067486666666666
1671623875 0.29842266666666667 -0.7056436666666667
1673109754 0.300831 -0.7023453333333333
1674595633 0.294186 -0.7011310000000001
1676081512 0.3098013333333333 -0.701183
1677567391 0.2947473333333333 -0.6959273333333332
1679053270 0.2917126666666667 -0.6938596666666667
1680539149 0.2910373333333333 -0.6932596666666667
1682025028 0.27691233333333337 -0.6684593333333333
1683510907 0.292943 -0.6986793333333333
1684996786 0.29088699999999995 -0.70253
1686482665 0.29472433333333337 -0.7031200000000001
1687968544 0.2932776666666667 -0.705533
1689454423 0.294964 -0.7060273333333335
1690940302 0.295676 -0.7062003333333333
1692426181 0.29676933333333333 -0.7078203333333334
1693912060 0.29414633333333334 -0.7100196666666667
1695397939 0.29409 -0.7084863333333334
1696883818 0.29202066666666665 -0.71016
1698369697 0.296539 -0.7067019999999999
1699855576 0.294569 -0.7065643333333332
1701341455 0.29643166666666665 -0.7030469999999999
1702827334 0.293862 -0.7036763333333335
1704313213 0.29556066666666664 -0.7011373333333334
1705799092 0.29447466666666666 -0.6998916666666667
1707284971 0.28976633333333335 -0.6981473333333333
1708770850 0.29022966666666666 -0.6940983333333334
1710256729 0.290146 -0.6912183333333334
1711742608 0.29076433333333335 -0.6932956666666668
1713228487 0.2891936666666666 -0.697312
1714714366 0.2916586666666667 -0.6988963333333333
1716200245 0.2880506666666667 -0.7023623333333333
1717686124 0.29047233333333333 -0.7048880000000001
1719172003 0.2900563333333333 -0.7051936666666666
1720657882 0.28880766666666663 -0.7049246666666668
1722143761 0.2905583333333333 -0.704555
1723629640 0.29220666666666667 -0.7044736666666666
1725115519 0.292155 -0.7036826666666668
1726601398 0.289937 -0.7019786666666666
1728087277 0.2908093333333333 -0.7033316666666667
1729573156 0.2880323333333334 -0.703214
1731059035 0.28763666666666665 -0.7012956666666668
1732544914 0.284254 -0.6999026666666667
1734030793 0.28633933333333333 -0.6969333333333333
1735516672 0.2803123333333333 -0.6909930000000001
1737002551 0.28061200000000003 -0.6941036666666666
1738488430 0.2779643333333333 -0.6898743333333334
1739974309 0.27588966666666664 -0.687843
1741460188 0.27529766666666666 -0.691272
1742946067 0.27619366666666667 -0.6946836666666666
1744431946 0.2777353333333334 -0.6972336666666666
1745917825 0.277653 -0.698837
1747403704 0.27900200000000003 -0.70117
1748889583 0.27796966666666667 -0.7025516666666668
1750375462 0.27606400000000003 -0.7042326666666666
1751861341 0.278478 -0.7045273333333334
1753347220 0.27987766666666664 -0.704044
1754833099 0.2783056666666666 -0.7062276666666666
1756318978 0.2800376666666667 -0.7047569999999999
1757804857 0.2782036666666667 -0.704525
1759290736 0.277829 -0.7040616666666667
1760776615 0.27784400000000004 -0.7029616666666666
1762262494 0.276832 -0.7016943333333333
1763748373 0.2744236666666667 -0.7015856666666668
1765234252 0.27200166666666664 -0.6984509999999999
1766720131 0.2716256666666667 -0.6951946666666666
1768206010 0.2722543333333333 -0.6939489999999999
1769691889 0.26982600000000007 -0.690455
1771177768 0.26821999999999996 -0.6926633333333333
1772663647 0.2699396666666667 -0.695684
1774149526 0.271195 -0.697956
1775635405 0.27230099999999996 -0.7000126666666667
1777121284 0.27030333333333334 -0.7020620000000001
1778607163 0.272841 -0.703339
1780093042 0.27303700000000003 -0.70447
1781578921 0.27201033333333335 -0.706268
1783064800 0.27240533333333333 -0.7064296666666667
1784550679 0.2723233333333333 -0.7071783333333332
1786036558 0.2738966666666667 -0.705407
1787522437 0.27499 -0.7073079999999999
1789008316 0.27292866666666665 -0.7065266666666666
1790494195 0.270944 -0.7024886666666667
1791980074 0.271828 -0.7027329999999999
1793465953 0.27054633333333333 -0.7014813333333333
1794951832 0.270118 -0.6981616666666667
1796437711 0.26794566666666664 -0.6965793333333333
1797923590 0.26621066666666665 -0.692475
1799409469 0.2656083333333333 -0.68798
1800895348 0.270945 -0.6877923333333333
1802381227 0.26704333333333335 -0.6917783333333333
1803867106 0.26317233333333334 -0.696106
1805352985 0.26274966666666666 -0.6968723333333333
1806838864 0.2654856666666667 -0.6983123333333333
1808324743 0.269974 -0.7007720000000001
1809810622 0.26558166666666666 -0.7000233333333333
1811296501 0.26851200000000003 -0.7000026666666667
1812782380 0.26608666666666664 -0.7005393333333333
1814268259 0.26684566666666665 -0.6994326666666666
1815754138 0.266696 -0.6995046666666666
1817240017 0.26625733333333335 -0.699306
1818725896 0.26589599999999997 -0.6987556666666667
1820211775 0.26494166666666663 -0.6953923333333334
1821697654 0.2648896666666667 -0.6939916666666667
1823183533 0.264747 -0.693631
1824669412 0.2603546666666667 -0.6895853333333334
1826155291 0.25867766666666664 -0.685768
1827641170 0.2576893333333333 -0.683942
1829127049 0.249146 -0.6825643333333332
1830612928 0.25237266666666663 -0.6809066666666667
1832098807 0.25115266666666664 -0.6841659999999999
1833584686 0.2543233333333333 -0.6881623333333332
1835070565 0.25335266666666667 -0.6906143333333333
1836556444 0.254226 -0.6924486666666666
1838042323 0.2519706666666666 -0.6941620000000001
1839528202 0.2525566666666667 -0.694544
1841014081 0.254594 -0.6949693333333333
1842499960 0.2531063333333334 -0.6984136666666666
1843985839 0.2520113333333333 -0.6979669999999999
1845471718 0.254384 -0.69773
1846957597 0.252511 -0.6962646666666666
1848443476 0.254827 -0.6978843333333332
1849929355 0.2501526666666667 -0.6948053333333334
1851415234 0.24543133333333333 -0.6974216666666667
1852901113 0.24870133333333333 -0.6957473333333333
1854386992 0.247084 -0.6945146666666666
1855872871 0.248293 -0.6900786666666666
1857358750 0.24469966666666665 -0.6876923333333335
1858844629 0.243453 -0.6859236666666667
1860330508 0.244332 -0.6838906666666666
1861816387 0.24564766666666668 -0.687144
1863302266 0.24229699999999998 -0.6915206666666666
1864788145 0.24499233333333334 -0.692506
1866274024 0.24253166666666667 -0.6963286666666667
1867759903 0.245837 -0.6973566666666667
1869245782 0.24459666666666666 -0.6986076666666667
1870731661 0.24404533333333334 -0.7005366666666667
1872217540 0.2445453333333333 -0.6994686666666667
1873703419 0.246471 -0.6998920000000001
1875189298 0.24293233333333333 -0.700943
1876675177 0.2452053333333333 -0.7003510000000001
1878161056 0.24527933333333332 -0.7004290000000001
1879646935 0.243802 -0.6979516666666666
1881132814 0.24366500000000002 -0.6989333333333333
1882618693 0.24215566666666666 -0.7025726666666667
1884104572 0.2413076666666667 -0.6946143333333333
1885590451 0.241942 -0.6913433333333332
1887076330 0.23787933333333333 -0.6910253333333333
1888562209 0.23809499999999997 -0.6863026666666667
1890048088 0.2363133333333333 -0.684467
1891533967 0.23618399999999998 -0.6866126666666666
1893019846 0.236487 -0.6891173333333334
1894505725 0.2398863333333333 -0.6923143333333334
1895991604 0.23956266666666667 -0.689564
1897477483 0.23637566666666665 -0.694476
1898963362 0.238671 -0.6951216666666666
1900449241 0.23723999999999998 -0.6968003333333334
1901935120 0.23865633333333333 -0.6961193333333333
1903420999 0.23946533333333334 -0.6968606666666667
1904906878 0.23630533333333334 -0.6963243333333334
1906392757 0.2370566666666667 -0.6944143333333334
1907878636 0.23905033333333336 -0.6931943333333334
1909364515 0.23689466666666667 -0.6917779999999999
1910850394 0.23682533333333333 -0.6903
1912336273 0.23663233333333333 -0.6891883333333334
1913822152 0.2360393333333333 -0.6869146666666667
1915308031 0.23289733333333337 -0.6832976666666667
1916793910 0.23160533333333336 -0.6820049999999999
1918279789 0.22772033333333333 -0.6793343333333333
1919765668 0.22873633333333332 -0.6764533333333334
1921251547 0.22813333333333333 -0.6764623333333333
1922737426 0.22892899999999997 -0.6803653333333334
1924223305 0.2253373333333333 -0.684114
1925709184 0.22522200000000003 -0.685895
1927195063 0.229334 -0.6905123333333334
1928680942 0.230642 -0.6887806666666666
1930166821 0.22411599999999998 -0.6895303333333334
1931652700 0.230692 -0.6883653333333334
1933138579 0.227376 -0.6920666666666667
1934624458 0.22640266666666667 -0.6907703333333334
1936110337 0.22570933333333335 -0.6922596666666667
1937596216 0.22679666666666667 -0.6915083333333333
1939082095 0.22123366666666666 -0.6919383333333333
1940567974 0.22219599999999998 -0.691674
1942053853 0.21964233333333336 -0.6906636666666667
1943539732 0.22116499999999997 -0.6881849999999999
1945025611 0.219858 -0.6870113333333333
1946511490 0.22226766666666667 -0.6848130000000001
1947997369 0.218985 -0.682211
1949483248 0.2145706666666667 -0.6798173333333333
1950969127 0.21883766666666668 -0.680093
1952455006 0.21812166666666669 -0.6816559999999999
1953940885 0.22133933333333333 -0.6849646666666667
1955426764 0.21694000000000002 -0.6865483333333332
1956912643 0.2149633333333333 -0.6881553333333333
1958398522 0.215537 -0.6919556666666667
1959884401 0.218961 -0.6899576666666668
1961370280 0.21656833333333333 -0.691122
1962856159 0.22072933333333333 -0.689836
1964342038 0.21529433333333334 -0.692221
1965827917 0.218286 -0.6908090000000001
1967313796 0.190944 -0.6659583333333333
1968799675 0.21809599999999998 -0.6900336666666668
1970285554 0.215705 -0.6887916666666666
1971771433 0.21262100000000003 -0.688012
1973257312 0.21398966666666666 -0.6856589999999999
1974743191 0.21380966666666668 -0.6829813333333333
1976229070 0.20732966666666666 -0.680521
1977714949 0.20272966666666667 -0.6784913333333332
1979200828 0.20829066666666665 -0.6764420000000001
1980686707 0.20457133333333333 -0.6770893333333333
1982172586 0.207492 -0.6794446666666666
1983658465 0.20586433333333334 -0.6801606666666666
1985144344 0.20762366666666668 -0.682951
1986630223 0.20772933333333332 -0.684771
1988116102 0.20812566666666665 -0.6861323333333332
1989601981 0.213828 -0.6825073333333332
1991087860 0.20784 -0.6876563333333333
1992573739 0.205292 -0.6880736666666666
1994059618 0.206869 -0.687064
1995545497 0.20527166666666666 -0.6880106666666667
1997031376 0.20775333333333332 -0.6856246666666667
1998517255 0.205054 -0.6871900000000001
2000003134 0.20488566666666666 -0.6861306666666667
2001489013 0.20569199999999999 -0.6829763333333333
2002974892 0.202098 -0.683895
2004460771 0.20412233333333332 -0.6810233333333334
2005946650 0.20190633333333333 -0.6805370000000001
2007432529 0.19791566666666668 -0.6761053333333334
2008918408 0.19886800000000002 -0.6732079999999999
2010404287 0.19943433333333335 -0.6722663333333333
2011890166 0.19884333333333334 -0.6734743333333334
2013376045 0.194904 -0.6782016666666667
2014861924 0.19768266666666667 -0.6791826666666667
2016347803 0.196277 -0.6841223333333333
2017833682 0.19613866666666666 -0.6842943333333333
2019319561 0.19709666666666667 -0.6848870000000001
2020805440 0.206839 -0.6890476666666666
2022291319 0.19740833333333332 -0.6876316666666668
2023777198 0.199801 -0.6864060000000002
2025263077 0.19713899999999998 -0.6878583333333333
2026748956 0.199924 -0.6886616666666666
2028234835 0.196373 -0.6879996666666667
2029720714 0.19690666666666667 -0.686639
2031206593 0.1955606666666667 -0.6892013333333332
2032692472 0.19746866666666665 -0.6828806666666667
2034178351 0.19531333333333334 -0.6828949999999999
2035664230 0.19075966666666666 -0.68079
2037150109 0.19307966666666665 -0.6779733333333334
2038635988 0.19112666666666667 -0.6761783333333332
2040121867 0.19182733333333335 -0.672503
2041607746 0.19302233333333332 -0.6770693333333334
2043093625 0.18974133333333335 -0.6776633333333333
2044579504 0.19229266666666667 -0.6796380000000001
2046065383 0.19154833333333332 -0.6811253333333332
2047551262 0.19279933333333332 -0.6812983333333333
2049037141 0.18988400000000002 -0.683188
2050523020 0.19335666666666665 -0.6827703333333334
2052008899 0.19005433333333333 -0.6841843333333334
2053494778 0.19457899999999997 -0.6828963333333332
2054980657 0.191245 -0.681924
2056466536 0.19229933333333335 -0.6823290000000001
2057952415 0.18684599999999998 -0.6819159999999999
2059438294 0.19204100000000002 -0.6794209999999999
2060924173 0.1843153333333333 -0.6798113333333333
2062410052 0.18803233333333333 -0.6784089999999999
2063895931 0.181082 -0.6757033333333333
2065381810 0.18834766666666666 -0.6726323333333332
2066867689 0.18155066666666664 -0.670753
2068353568 0.18284866666666666 -0.6681466666666666
2069839447 0.177961 -0.6665213333333333
2071325326 0.18042933333333333 -0.668425
2072811205 0.17828266666666667 -0.6690916666666666
2074297084 0.18243566666666666 -0.6746466666666667
2075782963 0.17947466666666667 -0.6759056666666666
2077268842 0.18183233333333335 -0.677406
2078754721 0.18084333333333333 -0.6801383333333334
2080240600 0.18578766666666668 -0.6799616666666667
2081726479 0.17742966666666668 -0.6823986666666667
2083212358 0.18666166666666664 -0.6819283333333334
2084698237 0.1822693333333333 -0.6838096666666668
2086184116 0.18661833333333333 -0.6827633333333333
2087669995 0.18108366666666664 -0.682174
2089155874 0.18596100000000002 -0.6816993333333333
2090641753 0.18194033333333334 -0.6808886666666666
2092127632 0.1847903333333333 -0.6774893333333333
2093613511 0.18230033333333331 -0.6777716666666667
2095099390 0.18093800000000002 -0.675373
2096585269 0.17864566666666667 -0.6728806666666666
2098071148 0.176739 -0.6697396666666666
2099557027 0.18028866666666668 -0.6666773333333333
2101042906 0.17796266666666669 -0.6694429999999999
2102528785 0.17737666666666665 -0.6718493333333333
2104014664 0.17621699999999998 -0.6760503333333334
2105500543 0.17951566666666666 -0.6777103333333333
2106986422 0.17725933333333332 -0.6776599999999999
2108472301 0.17800333333333332 -0.679876
2109958180 0.17887466666666665 -0.6818893333333333
2111444059 0.1808563333333333 -0.681933
2112929938 0.178916 -0.6810513333333335
2114415817 0.17905333333333331 -0.6847
2115901696 0.1769656666666667 -0.6845793333333333
2117387575 0.18130100000000002 -0.6816270000000001
2118873454 0.17975166666666667 -0.68289
2120359333 0.173463 -0.680956
2121845212 0.18306066666666668 -0.6802873333333332
2123331091 0.18619299999999997 -0.6783443333333333
2124816970 0.17871766666666666 -0.6759903333333334
2126302849 0.18492799999999998 -0.6745199999999999
2127788728 0.178172 -0.671011
2129274607 0.17889999999999998 -0.6687593333333334
2130760486 0.18536133333333335 -0.6684403333333333
2132246365 0.17791066666666666 -0.6722073333333333
2133732244 0.17807233333333336 -0.673638
2135218123 0.17613033333333336 -0.6761146666666665
2136704002 0.17439400000000002 -0.6767153333333332
2138189881 0.180959 -0.678708
2139675760 0.18084 -0.6807436666666667
2141161639 0.17289766666666664 -0.6824303333333334
2142647518 0.179079 -0.6813340000000001
2144133397 0.16380399999999998 -0.681112
2145619276 0.18399833333333335 -0.6821
2147105155 0.16567433333333334 -0.680559
2148591034 0.17482066666666665 -0.6803293333333333
2150076913 0.168444 -0.6801583333333333
2151562792 0.16663499999999998 -0.6775220000000001
2153048671 0.16375900000000002 -0.6791193333333334
2154534550 0.16426966666666667 -0.6748956666666667
2156020429 0.16210100000000002 -0.674313
2157506308 0.15898733333333334 -0.6732803333333334
2158992187 0.15603399999999998 -0.6683396666666667
2160478066 0.15741566666666665 -0.6706543333333332
2161963945 0.158442 -0.6719076666666667
2163449824 0.157434 -0.6750346666666666
2164935703 0.159037 -0.675554
2166421582 0.15733666666666668 -0.6784973333333332
2167907461 0.15873600000000002 -0.6789999999999999
2169393340 0.15726300000000001 -0.6810166666666667
2170879219 0.16276966666666667 -0.6801573333333334
2172365098 0.16087866666666664 -0.6826813333333334
2173850977 0.16199333333333332 -0.681279
2175336856 0.159681 -0.682798
2176822735 0.17848866666666666 -0.707859
2178308614 0.163468 -0.681006
2179794493 0.16257333333333332 -0.6816616666666667
2181280372 0.162878 -0.6785763333333333
2182766251 0.16076566666666667 -0.6792696666666665
2184252130 0.165211 -0.6771533333333334
2185738009 0.16143266666666667 -0.6733376666666667
2187223888 0.160972 -0.6700240000000001
2188709767 0.16397266666666668 -0.6672513333333333
2190195646 0.15877033333333335 -0.6658976666666666
2191681525 0.159122 -0.668951
2193167404 0.16111733333333336 -0.6702293333333333
2194653283 0.15991166666666667 -0.6712116666666667
2196139162 0.16270866666666667 -0.6732656666666667
2197625041 0.16287300000000002 -0.6762070000000001
2199110920 0.164444 -0.6757283333333333
2200596799 0.16173133333333334 -0.6768166666666667
2202082678 0.16013133333333335 -0.6765806666666667
2203568557 0.164469 -0.6770136666666667
2205054436 0.16644033333333333 -0.676824
2206540315 0.16189366666666669 -0.675463
2208026194 0.163048 -0.6559133333333332
2209512073 0.163493 -0.6734089999999999
2210997952 0.16393333333333335 -0.6724610000000001
2212483831 0.16161533333333333 -0.6692480000000001
2213969710 0.163667 -0.6674256666666668
2215455589 0.164076 -0.6656256666666667
2216941468 0.16234433333333334 -0.662159
2218427347 0.15767166666666665 -0.6573453333333333
2219913226 0.15983833333333333 -0.6557940000000001
2221399105 0.16030966666666666 -0.6600133333333332
2222884984 0.15724466666666667 -0.6614156666666666
2224370863 0.161721 -0.6621976666666667
2225856742 0.15999300000000002 -0.6650726666666668
2227342621 0.15657066666666666 -0.6682570000000001
2228828500 0.15802966666666665 -0.6687873333333334
2230314379 0.16143933333333332 -0.6698876666666668
2231800258 0.157214 -0.6698436666666666
2233286137 0.15935633333333335 -0.6710753333333334
2234772016 0.15707466666666667 -0.6707200000000001
2236257895 0.15645666666666666 -0.6692796666666666
2237743774 0.15825599999999998 -0.6712183333333334
2239229653 0.15707833333333335 -0.6690809999999999
2240715532 0.15336233333333335 -0.6684046666666665
2242201411 0.15597433333333333 -0.6677613333333334
2243687290 0.15626600000000002 -0.6660843333333334
2245173169 0.15730566666666668 -0.6664596666666667
2246659048 0.156033 -0.6641026666666666
2248144927 0.15479666666666667 -0.662165
2249630806 0.15571533333333332 -0.658786
2251116685 0.154976 -0.659115
2252602564 0.15090666666666666 -0.660108
2254088443 0.15474066666666667 -0.6625053333333333
2255574322 0.150147 -0.6662446666666667
2257060201 0.15276666666666666 -0.6657510000000001
2258546080 0.15302466666666667 -0.6668126666666666
2260031959 0.15361899999999998 -0.6688156666666667
2261517838 0.15046400000000001 -0.666816
2263003717 0.14849299999999999 -0.6674113333333334
2264489596 0.15106433333333333 -0.6660183333333334
2265975475 0.14922833333333332 -0.6667056666666666
2267461354 0.14884833333333333 -0.6657336666666667
2268947233 0.157556 -0.6671849999999999
2270433112 0.14996166666666666 -0.6636716666666667
2271918991 0.14652433333333334 -0.6651006666666667
2273404870 0.143073 -0.6621566666666666
2274890749 0.14421633333333334 -0.6604506666666666
2276376628 0.14300666666666667 -0.6582826666666667
2277862507 0.14374966666666666 -0.6562896666666668
2279348386 0.14030533333333334 -0.6538823333333332
2280834265 0.14052966666666666 -0.6534133333333333
2282320144 0.14046566666666668 -0.6545233333333332
2283806023 0.14334833333333333 -0.6584286666666667
2285291902 0.14412833333333333 -0.659294
2286777781 0.14203433333333335 -0.65735
2288263660 0.1427463333333333 -0.661697
2289749539 0.14551899999999998 -0.6631463333333333
2291235418 0.14003166666666667 -0.6621079999999999
2292721297 0.146491 -0.6610353333333334
2294207176 0.142645 -0.6633203333333334
2295693055 0.143213 -0.6608303333333333
2297178934 0.14077066666666668 -0.6611503333333334
2298664813 0.13995166666666667 -0.6585053333333334
2300150692 0.14423266666666668 -0.658516
2301636571 0.14372566666666667 -0.658207
2303122450 0.14462966666666666 -0.6560323333333334
2304608329 0.1417206666666667 -0.6555003333333334
2306094208 0.140728 -0.6544693333333332
2307580087 0.14218333333333333 -0.6478933333333333
2309065966 0.13513866666666666 -0.6493476666666668
2310551845 0.1353386666666667 -0.6498183333333333
2312037724 0.13433499999999998 -0.6533626666666666
2313523603 0.14168433333333333 -0.653689
2315009482 0.13834366666666667 -0.65632
2316495361 0.13746133333333332 -0.65822
2317981240 0.14019166666666666 -0.6592593333333333
2319467119 0.14285766666666666 -0.662175
2320952998 0.14171366666666665 -0.6599433333333334
2322438877 0.14230433333333334 -0.6606709999999999
2323924756 0.14619766666666667 -0.6633279999999999
2325410635 0.1446626666666667 -0.6633963333333334
2326896514 0.141336 -0.6632026666666667
2328382393 0.13966333333333333 -0.6617983333333334
2329868272 0.13911333333333334 -0.6635226666666667
2331354151 0.14353966666666665 -0.6713840000000001
2332840030 0.14123433333333332 -0.6637616666666667
2334325909 0.14399199999999998 -0.66272
2335811788 0.13893199999999997 -0.6611283333333334
2337297667 0.13872066666666663 -0.6570473333333333
2338783546 0.13898633333333335 -0.6563803333333333
2340269425 0.135038 -0.6553066666666667
2341755304 0.137382 -0.6586989999999999
2343241183 0.13381600000000002 -0.660427
2344727062 0.138831 -0.65871
2346212941 0.135732 -0.6633193333333334
2347698820 0.13838433333333333 -0.6630913333333334
2349184699 0.136957 -0.6662036666666666
2350670578 0.13584033333333334 -0.6670303333333334
2352156457 0.1373096666666667 -0.663731
2353642336 0.136332 -0.6671276666666667
2355128215 0.131107 -0.6676763333333332
2356614094 0.13325466666666666 -0.666286
2358099973 0.12878900000000001 -0.6683983333333333
2359585852 0.13272733333333334 -0.6640830000000001
2361071731 0.128695 -0.665327
2362557610 0.12826133333333334 -0.6614333333333334
2364043489 0.12775166666666668 -0.6566376666666666
2365529368 0.12532100000000002 -0.661833
2367015247 0.12594766666666668 -0.6557623333333333
2368501126 0.125158 -0.6544423333333333
2369987005 0.11950099999999998 -0.6524776666666666
2371472884 0.122843 -0.6578553333333333
2372958763 0.11953366666666666 -0.657254
2374444642 0.12108633333333334 -0.662918
2375930521 0.12514 -0.6612193333333333
2377416400 0.125687 -0.6634113333333334
2378902279 0.12243266666666668 -0.6642793333333333
2380388158 0.130881 -0.6612163333333333
2381874037 0.12735866666666665 -0.6632866666666666
2383359916 0.129128 -0.6647046666666666
2384845795 0.12691999999999998 -0.6620523333333334
2386331674 0.12915866666666667 -0.6638006666666667
2387817553 0.124873 -0.6624956666666667
2389303432 0.125652 -0.659069
2390789311 0.126916 -0.6590973333333333
2392275190 0.1289796666666667 -0.6558353333333333
2393761069 0.1250163333333333 -0.6543066666666667
2395246948 0.12480066666666667 -0.6538526666666667
2396732827 0.120992 -0.6539656666666667
2398218706 0.12229533333333335 -0.6497986666666667
2399704585 0.122964 -0.6437506666666667
2401190464 0.12039066666666666 -0.6476473333333334
2402676343 0.12392733333333333 -0.6502033333333334
2404162222 0.11983166666666667 -0.6516413333333334
2405648101 0.121625 -0.6548133333333334
2407133980 0.12510833333333335 -0.655252
2408619859 0.119685 -0.655709
2410105738 0.12157166666666668 -0.6615209999999999
2411591617 0.12344833333333334 -0.6583083333333333
2413077496 0.12106933333333332 -0.6578963333333333
2414563375 0.12284766666666667 -0.6591140000000001
2416049254 0.11958733333333334 -0.6631616666666666
2417535133 0.09052233333333333 -0.648049
2419021012 0.11439433333333333 -0.6613756666666667
2420506891 0.12130766666666666 -0.6588216666666665
2421992770 0.115547 -0.6623089999999999
2423478649 0.115842 -0.6587476666666667
2424964528 0.11199433333333335 -0.656376
2426450407 0.11115933333333333 -0.6542979999999999
2427936286 0.11215566666666667 -0.6502906666666667
2429422165 0.11098633333333334 -0.65304
2430908044 0.113979 -0.6522006666666668
2432393923 0.10989700000000001 -0.6536743333333334
2433879802 0.10798199999999998 -0.6549303333333333
2435365681 0.11152133333333332 -0.6564566666666667
2436851560 0.10811166666666666 -0.6582483333333333
2438337439 0.11133266666666668 -0.6603993333333333
2439823318 0.11004033333333334 -0.6596063333333334
2441309197 0.11375233333333334 -0.6596860000000001
2442795076 0.111182 -0.6583616666666666
2444280955 0.11251633333333333 -0.6634856666666668
2445766834 0.11220166666666669 -0.6590766666666666
2447252713 0.111512 -0.6577646666666667
2448738592 0.109671 -0.6596136666666667
2450224471 0.11042233333333333 -0.6562009999999999
2451710350 0.11220599999999999 -0.6542733333333333
2453196229 0.110364 -0.6510273333333333
2454682108 0.10706133333333334 -0.6515623333333335
2456167987 0.10888633333333335 -0.6482249999999999
2457653866 0.10756700000000001 -0.6427643333333334
2459139745 0.106224 -0.6409656666666667
2460625624 0.10713966666666667 -0.6415443333333334
2462111503 0.10462866666666666 -0.6429906666666666
2463597382 0.10862433333333332 -0.6468933333333333
2465083261 0.10603 -0.6472209999999999
2466569140 0.10470000000000002 -0.6488046666666667
2468055019 0.10439433333333333 -0.649396
2469540898 0.105018 -0.6511193333333334
2471026777 0.117834 -0.661236
2472512656 0.103592 -0.6455460000000001
2473998535 0.10699666666666667 -0.6531513333333333
2475484414 0.10508466666666667 -0.6520763333333334
2476970293 0.10507633333333333 -0.6526243333333334
2478456172 0.10365999999999999 -0.65137
2479942051 0.10334966666666667 -0.651011
2481427930 0.10336433333333334 -0.6499673333333332
2482913809 0.10269100000000002 -0.6487919999999999
2484399688 0.10143433333333333 -0.6458226666666667
2485885567 0.10126566666666666 -0.6442
2487371446 0.099478 -0.6440736666666668
2488857325 0.09822733333333333 -0.6382893333333334
2490343204 0.098536 -0.636603
2491829083 0.097622 -0.6400476666666667
2493314962 0.09756433333333332 -0.6434536666666667
2494800841 0.09949133333333333 -0.645001
2496286720 0.09950366666666667 -0.6484850000000001
2497772599 0.09873799999999999 -0.6499553333333333
2499258478 0.10319466666666666 -0.6505236666666666
2500744357 0.09998766666666666 -0.6513909999999999
2502230236 0.10143166666666666 -0.6512093333333333
2503716115 0.10283666666666667 -0.65324
2505201994 0.10645166666666667 -0.6534406666666667
2506687873 0.10556466666666668 -0.6533686666666667
2508173752 0.10932833333333332 -0.6541086666666667
2509659631 0.10596266666666666 -0.6506956666666667
2511145510 0.10574633333333333 -0.651478
2512631389 0.105228 -0.6488943333333334
2514117268 0.10563199999999999 -0.6466123333333332
2515603147 0.11018633333333334 -0.6449980000000001
2517089026 0.10557266666666666 -0.6426729999999999
2518574905 0.10798966666666666 -0.6417293333333334
2520060784 0.10465633333333334 -0.6381560000000001
2521546663 0.10498999999999999 -0.6423856666666666
2523032542 0.1035 -0.64147
2524518421 0.105199 -0.6444843333333333
2526004300 0.10372066666666667 -0.6467216666666668
2527490179 0.10407666666666666 -0.6473503333333332
2528976058 0.10484633333333333 -0.649352
2530461937 0.10331333333333333 -0.651123
2531947816 0.10293533333333334 -0.653078
2533433695 0.09778033333333332 -0.6505566666666667
2534919574 0.10211766666666666 -0.6562709999999999
2536405453 0.10140866666666666 -0.6521633333333333
2537891332 0.101224 -0.6516573333333333
2539377211 0.10343100000000001 -0.6496316666666667
2540863090 0.097872 -0.6534253333333333
2542348969 0.09904066666666667 -0.6492406666666667
2543834848 0.10000633333333335 -0.6478696666666667
2545320727 0.10058066666666667 -0.6456586666666667
2546806606 0.09254433333333334 -0.6445193333333333
2548292485 0.09725 -0.6441373333333333
2549778364 0.09522933333333333 -0.6410666666666667
2551264243 0.09471800000000001 -0.6432266666666666
2552750122 0.09395333333333333 -0.645733
2554236001 0.09417633333333335 -0.643299
2555721880 0.095412 -0.6474973333333333
2557207759 0.09330100000000001 -0.6512366666666667
2558693638 0.09391333333333333 -0.6551283333333333
2560179517 0.096113 -0.6559503333333333
2561665396 0.091003 -0.6537523333333333
2563151275 0.09163699999999998 -0.6553810000000001
2564637154 0.09386766666666668 -0.6547336666666667
2566123033 0.09120033333333333 -0.6580473333333333
2567608912 0.09266333333333332 -0.6564679999999999
2569094791 0.07796133333333333 -0.6497973333333333
2570580670 0.090039 -0.6522616666666666
2572066549 0.091156 -0.6542686666666667
2573552428 0.08758500000000001 -0.6537603333333334
2575038307 0.09149366666666665 -0.653196
2576524186 0.091095 -0.650586
2578010065 0.08265266666666667 -0.6465523333333333
2579495944 0.087629 -0.6476886666666667
2580981823 0.085551 -0.6506006666666667
2582467702 0.08767933333333333 -0.6466810000000001
2583953581 0.08826366666666667 -0.6486076666666666
2585439460 0.08671433333333334 -0.650674
2586925339 0.08738900000000001 -0.6512756666666667
2588411218 0.08837433333333333 -0.6486826666666666
2589897097 0.08870466666666667 -0.6478856666666667
2591382976 0.09028766666666667 -0.6480763333333334
2592868855 0.09033233333333335 -0.6494106666666667
2594354734 0.09040933333333334 -0.6456176666666668
2595840613 0.08504466666666667 -0.644804
2597326492 0.09056933333333334 -0.644954
2598812371 0.08941500000000001 -0.6422103333333333
2600298250 0.08789066666666667 -0.6422553333333334
2601784129 0.08711399999999998 -0.6379769999999999
2603270008 0.08651033333333331 -0.6337513333333333
2604755887 0.089663 -0.6327153333333334
2606241766 0.08973633333333332 -0.6342213333333334
2607727645 0.08781300000000002 -0.625651
2609213524 0.08845066666666666 -0.6241849999999999
2610699403 0.08076066666666666 -0.622218
2612185282 0.08425133333333333 -0.623442
2613671161 0.08380666666666668 -0.6288166666666667
2615157040 0.08613733333333333 -0.6319016666666667
2616642919 0.08546633333333332 -0.6294406666666666
2618128798 0.08238433333333334 -0.6314053333333333
2619614677 0.08875333333333334 -0.6325153333333333
2621100556 0.08416 -0.6324310000000001
2622586435 0.074425 -0.6410763333333334
2624072314 0.08404033333333333 -0.6354463333333333
2625558193 0.08460433333333332 -0.6319113333333334
2627044072 0.07903366666666667 -0.6330156666666668
2628529951 0.08448933333333335 -0.631007
2630015830 0.08644366666666668 -0.6306599999999999
2631501709 0.082887 -0.6286123333333333
2632987588 0.08217133333333333 -0.6277116666666668
2634473467 0.08307533333333333 -0.6269563333333332
2635959346 0.07795133333333333 -0.6266626666666667
2637445225 0.08039299999999999 -0.6238483333333333
2638931104 0.07866366666666667 -0.6227680000000001
2640416983 0.075209 -0.6188916666666667
2641902862 0.07832666666666667 -0.624491
2643388741 0.08105866666666667 -0.6257046666666667
2644874620 0.07768033333333334 -0.6297820000000001
2646360499 0.07927033333333333 -0.632157
2647846378 0.07835433333333332 -0.6348429999999999
2649332257 0.07477833333333334 -0.6327550000000001
2650818136 0.07537233333333333 -0.6355183333333333
2652304015 0.07607733333333333 -0.635769
2653789894 0.08243133333333334 -0.637685
2655275773 0.07425433333333332 -0.639984
2656761652 0.07831466666666669 -0.6435746666666666
2658247531 0.081852 -0.6410013333333334
2659733410 0.079694 -0.641112
2661219289 0.078899 -0.6417696666666667
2662705168 0.07526866666666666 -0.6371146666666666
2664191047 0.06992766666666667 -0.637581
2665676926 0.07697266666666666 -0.6369646666666666
2667162805 0.07359233333333333 -0.6359826666666667
2668648684 0.07172166666666667 -0.6335733333333333
2670134563 0.07178833333333333 -0.63505
2671620442 0.07302499999999999 -0.6356206666666667
2673106321 0.07631866666666667 -0.6373146666666666
2674592200 0.07651200000000001 -0.6414823333333334
2676078079 0.08165766666666667 -0.6439213333333332
2677563958 0.07949733333333334 -0.6429876666666666
2679049837 0.08067433333333333 -0.643107
2680535716 0.076078 -0.6422396666666667
2682021595 0.080983 -0.6464089999999999
2683507474 0.07731666666666666 -0.6430726666666667
2684993353 0.07893466666666667 -0.6449666666666668
2686479232 0.07934000000000001 -0.641752
2687965111 0.07677166666666667 -0.6424506666666666
2689450990 0.07988666666666666 -0.6397793333333334
2690936869 0.08334599999999999 -0.6378
2692422748 0.081556 -0.6357966666666667
2693908627 0.08135566666666667 -0.6335093333333334
2695394506 0.08558033333333333 -0.631314
2696880385 0.08293666666666667 -0.629123
2698366264 0.07942333333333333 -0.6266776666666667
2699852143 0.07910666666666667 -0.6239063333333333
2701338022 0.07190033333333333 -0.6261996666666666
2702823901 0.079484 -0.6286243333333333
2704309780 0.08021233333333333 -0.6314356666666666
2705795659 0.07916466666666666 -0.6322193333333334
2707281538 0.08428166666666666 -0.6317940000000001
2708767417 0.08084233333333334 -0.632088
2710253296 0.08684166666666666 -0.633773
2711739175 0.08770066666666666 -0.6328316666666667
2713225054 0.08761433333333334 -0.6343896666666666
2714710933 0.096839 -0.6308706666666667
2716196812 0.08912133333333333 -0.630827
2717682691 0.08722800000000001 -0.6297403333333333
2719168570 0.09239933333333333 -0.6280523333333333
2720654449 0.08258133333333334 -0.6260496666666667
2722140328 0.08911533333333332 -0.6263013333333333
2723626207 0.09455199999999998 -0.6380826666666667
2725112086 0.08909966666666667 -0.621501
2726597965 0.09226600000000001 -0.6181233333333334
2728083844 0.08728999999999999 -0.6191166666666666
2729569723 0.08480666666666666 -0.6131283333333334
2731055602 0.08319700000000001 -0.614154
2732541481 0.08080666666666665 -0.6196816666666667
2734027360 0.08225233333333333 -0.6224153333333334
2735513239 0.078498 -0.6243123333333334
2736999118 0.08134466666666666 -0.626845
2738484997 0.07730166666666667 -0.6293626666666666
2739970876 0.07571866666666667 -0.632889
2741456755 0.070519 -0.6324543333333333
2742942634 0.07511533333333333 -0.6351133333333334
2744428513 0.07546233333333334 -0.634311
2745914392 0.06568733333333333 -0.6382483333333333
2747400271 0.07219366666666667 -0.6384433333333334
2748886150 0.07530466666666667 -0.6400666666666667
2750372029 0.06921166666666666 -0.6391749999999999
2751857908 0.065623 -0.6403679999999999
2753343787 0.068147 -0.6396933333333333
2754829666 0.06684000000000001 -0.638302
2756315545 0.06717566666666666 -0.6389083333333333
2757801424 0.060401666666666666 -0.636686
2759287303 0.06646833333333334 -0.6360373333333333
2760773182 0.061954 -0.638391
2762259061 0.06387966666666667 -0.6407093333333334
2763744940 0.06738033333333333 -0.6416396666666667
2765230819 0.06835 -0.6438026666666667
2766716698 0.06904699999999998 -0.6464240000000001
2768202577 0.07057766666666666 -0.643288
2769688456 0.06633466666666667 -0.6452066666666667
2771174335 0.06793333333333333 -0.645936
2772660214 0.06516566666666666 -0.651082
2774146093 0.06963833333333333 -0.6456230000000001
2775631972 0.07348366666666667 -0.6438566666666667
2777117851 0.09277066666666667 -0.6510403333333333
2778603730 0.07305066666666667 -0.642059
2780089609 0.07384866666666666 -0.643772
2781575488 0.072398 -0.6412526666666667
2783061367 0.066672 -0.642185
2784547246 0.06791 -0.6365606666666667
2786033125 0.073023 -0.6358443333333333
2787519004 0.06888466666666666 -0.634151
2789004883 0.06808833333333333 -0.6292266666666667
2790490762 0.07162600000000001 -0.6267463333333333
2791976641 0.06924300000000001 -0.6298933333333334
2793462520 0.07364866666666665 -0.628466
2794948399 0.06964366666666667 -0.6352403333333334
2796434278 0.07087366666666667 -0.6320366666666667
2797920157 0.068212 -0.6371663333333334
2799406036 0.06414533333333333 -0.6352716666666667
2800891915 0.07133766666666667 -0.6411153333333334
2802377794 0.06626566666666667 -0.6371873333333333
2803863673 0.06484733333333333 -0.6368393333333333
2805349552 0.06979400000000001 -0.6375133333333333
2806835431 0.06753466666666667 -0.6380443333333333
2808321310 0.06465633333333333 -0.6416846666666667
2809807189 0.06758966666666667 -0.6333826666666665
2811293068 0.061946 -0.6376216666666666
2812778947 0.059124666666666666 -0.6358980000000001
2814264826 0.061505333333333335 -0.634343
2815750705 0.061389 -0.6350286666666666
2817236584 0.06245800000000001 -0.6297116666666667
2818722463 0.058328 -0.6314316666666667
2820208342 0.060019666666666666 -0.6252166666666668
2821694221 0.06136333333333333 -0.6281193333333334
2823180100 0.060545666666666664 -0.6309553333333334
2824665979 0.06314233333333334 -0.6348919999999999
2826151858 0.057695666666666666 -0.6326243333333333
2827637737 0.05940666666666666 -0.637124
2829123616 0.06135499999999999 -0.634975
2830609495 0.061315666666666664 -0.63808
2832095374 0.060614 -0.6359473333333333
2833581253 0.06123766666666667 -0.6326729999999999
2835067132 0.061585 -0.6373326666666667
2836553011 0.05858866666666667 -0.6341806666666666
2838038890 0.06523533333333333 -0.635528
2839524769 0.06318366666666667 -0.6320956666666667
2841010648 0.057659666666666665 -0.6261773333333333
2842496527 0.06307933333333333 -0.6284773333333333
2843982406 0.05769433333333334 -0.624105
2845468285 0.056594 -0.6212896666666666
2846954164 0.062227 -0.618883
2848440043 0.05897233333333333 -0.6129883333333334
2849925922 0.057022333333333335 -0.6081146666666667
2851411801 0.059063333333333336 -0.606184
2852897680 0.05691966666666667 -0.6150463333333333
2854383559 0.060062666666666674 -0.6123816666666667
2855869438 0.055769000000000006 -0.6166330000000001
2857355317 0.061262333333333335 -0.6187003333333334
2858841196 0.059657666666666664 -0.616964
2860327075 0.06516933333333334 -0.62021
2861812954 0.06014033333333333 -0.623115
2863298833 0.061884999999999996 -0.623186
2864784712 0.059164 -0.6251433333333334
2866270591 0.06074866666666667 -0.6236866666666666
2867756470 0.060174000000000005 -0.6219536666666666
2869242349 0.059949 -0.6238156666666667
2870728228 0.07015 -0.6021673333333333
2872214107 0.06503566666666667 -0.6194576666666668
2873699986 0.06143133333333334 -0.6192433333333333
2875185865 0.06125066666666667 -0.6119876666666667
2876671744 0.06544033333333334 -0.6140736666666666
2878157623 0.06112066666666666 -0.6078450000000001
2879643502 0.06268233333333334 -0.608019
2881129381 0.06285933333333334 -0.6100319999999999
2882615260 0.06408399999999999 -0.6104426666666667
2884101139 0.060324333333333334 -0.6126466666666667
2885587018 0.060879666666666665 -0.6167116666666667
2887072897 0.06409333333333332 -0.6189356666666667
2888558776 0.059730666666666675 -0.6180146666666667
2890044655 0.06196533333333334 -0.618655
2891530534 0.057106333333333335 -0.6209603333333334
2893016413 0.06048066666666666 -0.6200263333333332
2894502292 0.05931733333333333 -0.621265
2895988171 0.06218233333333334 -0.622014
2897474050 0.05931233333333333 -0.6215703333333333
2898959929 0.06256766666666667 -0.6197666666666666
2900445808 0.060546333333333334 -0.618897
2901931687 0.060206666666666665 -0.61959
2903417566 0.05831033333333333 -0.617784
2904903445 0.05780066666666667 -0.6152003333333335
2906389324 0.059481666666666676 -0.6152319999999999
2907875203 0.05896200000000001 -0.6123419999999999
2909361082 0.057591 -0.611427
2910846961 0.06074499999999999 -0.6105986666666666
2912332840 0.055804 -0.6134953333333333
2913818719 0.057567 -0.614726
2915304598 0.053064 -0.6155943333333335
2916790477 0.052916333333333336 -0.6172936666666667
2918276356 0.05616366666666667 -0.6182439999999999
2919762235 0.05237933333333333 -0.6201976666666666
2921248114 0.053329666666666664 -0.6189316666666668
2922733993 0.05312366666666666 -0.619917
2924219872 0.04008799999999999 -0.6125803333333334
2925705751 0.050808 -0.61935
2927191630 0.051233 -0.6195406666666666
2928677509 0.049638999999999996 -0.61973
2930163388 0.048334999999999996 -0.6188263333333334
2931649267 0.04827499999999999 -0.6175816666666666
2933135146 0.04513999999999999 -0.6149296666666667
2934621025 0.043554 -0.6164076666666666
2936106904 0.04294066666666666 -0.613252
2937592783 0.04123733333333333 -0.6115363333333333
2939078662 0.04160766666666667 -0.6067963333333334
2940564541 0.039412 -0.6089853333333334
2942050420 0.03837533333333334 -0.6108316666666667
2943536299 0.038889 -0.6139373333333333
2945022178 0.042500333333333334 -0.61346
2946508057 0.04104033333333334 -0.6162589999999999
2947993936 0.03988466666666667 -0.616299
2949479815 0.04025666666666666 -0.6187576666666667
2950965694 0.043264000000000004 -0.618896
2952451573 0.04472966666666667 -0.6160206666666667
2953937452 0.040451666666666664 -0.6194139999999999
2955423331 0.042281000000000006 -0.618206
2956909210 0.044256 -0.618052
2958395089 0.04290166666666667 -0.6143913333333334
2959880968 0.04313166666666666 -0.6149366666666667
2961366847 0.044201333333333336 -0.6139976666666667
2962852726 0.04312766666666667 -0.614535
2964338605 0.04303733333333334 -0.610029
2965824484 0.04698833333333333 -0.6101716666666667
2967310363 0.045592333333333325 -0.6075849999999999
2968796242 0.045987 -0.6017936666666667
2970282121 0.045752999999999995 -0.600915
2971768000 0.04491233333333333 -0.6036426666666667
2973253879 0.043230333333333336 -0.6052756666666667
2974739758 0.042896666666666666 -0.612443
2976225637 0.04487833333333333 -0.6084373333333333
2977711516 0.04190433333333333 -0.6073576666666667
2979197395 0.04534933333333333 -0.6098163333333334
2980683274 0.046114333333333334 -0.6138456666666666
2982169153 0.04588166666666666 -0.6132723333333333
2983655032 0.043644666666666665 -0.610035
2985140911 0.048907 -0.6121016666666667
2986626790 0.048299666666666664 -0.610674
2988112669 0.05172866666666667 -0.6055623333333333
2989598548 0.049544000000000005 -0.6061199999999999
2991084427 0.050821666666666675 -0.6066753333333333
2992570306 0.046746666666666666 -0.5999966666666667
2994056185 0.04619366666666667 -0.6012276666666667
2995542064 0.049111666666666665 -0.5994076666666667
2997027943 0.050307333333333336 -0.5946903333333333
2998513822 0.047289 -0.595809
2999999701 0.049242 -0.5913623333333333
