# HZ S RI R 50
10000 0.9889203333333333 -0.036491666666666665
1495879 0.8164600000000001 1.3456869999999999
2981758 0.5773133333333333 0.6888126666666667
4467637 0.5808133333333333 0.32694633333333334
5953516 0.6505353333333334 0.13789633333333332
7439395 0.7431886666666667 0.012574333333333333
8925274 1.0573823333333332 -0.062271
10411153 1.0973416666666667 0.03658633333333334
11897032 1.0866113333333332 0.16854899999999998
13382911 1.0200223333333331 0.2927326666666667
14868790 0.916721 0.3816546666666667
16354669 0.8039756666666666 0.42903633333333335
17840548 0.6990993333333333 0.4446583333333333
19326427 0.6099696666666667 0.43791966666666665
20812306 0.5360066666666666 0.42029866666666665
22298185 0.47633 0.39566666666666667
23784064 0.4285286666666667 0.369528
25269943 0.3896823333333333 0.3431843333333333
26755822 0.35797999999999996 0.318436
28241701 0.33150566666666664 0.2948746666666667
29727580 0.309743 0.27214266666666664
31213459 0.320332 0.25792233333333336
32699338 0.336838 0.243251
34185217 0.35246666666666665 0.22990733333333335
35671096 0.3679273333333333 0.21417
37156975 0.382948 0.19554733333333332
38642854 0.397332 0.1790433333333333
40128733 0.41174099999999997 0.15638933333333335
41614612 0.4246923333333333 0.14465799999999998
43100491 0.43812433333333334 0.123002
44586370 0.4514566666666666 0.10471599999999999
46072249 0.46526766666666663 0.08128966666666666
47558128 0.4799063333333334 0.06482666666666666
49044007 0.4967453333333333 0.048156
50529886 0.515469 0.03390633333333334
52015765 0.537652 0.0047543333333333335
53501644 0.5666573333333335 -0.013299333333333335
54987523 0.6044323333333333 -0.037305333333333336
56473402 0.6577666666666667 -0.074333
57959281 0.7459683333333333 -0.088598
59445160 0.9039476666666667 -0.063782
60931039 0.9987520000000001 -0.03119766666666667
62416918 1.0022276666666665 -0.039967
63902797 1.0046656666666667 -0.048507
65388676 1.0083673333333334 -0.05722866666666667
66874555 1.0105083333333333 -0.053413999999999996
68360434 1.006201 -0.13701299999999997
69846313 1.015067 -0.029576333333333333
71332192 1.016231 -0.024915999999999997
72818071 1.016143 -0.068436
74303950 1.0174083333333332 -0.059568666666666666
75789829 1.016743 0.009443
77275708 1.0175103333333333 -0.0004583333333333333
78761587 1.0161813333333332 0.006228666666666667
80247466 1.0114486666666667 -0.109659
81733345 1.0127276666666667 -0.06145
83219224 1.0101986666666667 -0.07213966666666666
84705103 1.0060296666666666 -0.09767533333333334
86190982 1.004302 0.027996333333333335
87676861 0.9994233333333332 -0.08849033333333334
89162740 0.9967799999999999 -0.063012
90648619 0.9959483333333333 -0.080762
92134498 0.99896 -0.07911733333333333
93620377 1.004059 -0.046523
95106256 1.0048286666666666 -0.07352833333333335
96592135 1.007367 -0.071645
98078014 1.0103323333333334 -0.06720433333333334
99563893 1.0117209999999999 -0.06380633333333334
101049772 1.0123976666666668 -0.07661133333333334
102535651 1.013585 -0.07764433333333333
104021530 1.0132709999999998 -0.07913866666666668
105507409 1.0130266666666667 -0.07786433333333333
106993288 1.0129253333333335 -0.07932933333333335
108479167 1.0122223333333336 -0.08004066666666668
109965046 1.011232 -0.08042266666666666
111450925 1.0090193333333335 -0.080756
112936804 1.006964 -0.08128400000000001
114422683 1.0044603333333333 -0.08051133333333334
115908562 1.0020536666666666 -0.08226800000000001
117394441 0.998172 -0.08202233333333332
118880320 0.995054 -0.08248533333333334
120366199 0.992264 -0.08354266666666665
121852078 0.9961636666666666 -0.08531633333333334
123337957 1.0003753333333334 -0.087345
124823836 1.0045400000000002 -0.08776166666666667
126309715 1.0074663333333334 -0.08827733333333333
127795594 1.010675 -0.09090933333333333
129281473 1.012975 -0.09071833333333335
130767352 1.0156786666666666 -0.09277866666666668
132253231 1.0176143333333332 -0.09306866666666667
133739110 1.0196413333333334 -0.09466000000000001
135224989 1.0035803333333333 -0.10531666666666667
136710868 1.0043253333333333 -0.10553066666666666
138196747 1.003919 -0.10581233333333333
139682626 1.0033106666666667 -0.106006
141168505 1.001994 -0.10592566666666668
142654384 1.00112 -0.10532366666666666
144140263 0.9997806666666667 -0.10569466666666666
145626142 0.997362 -0.10595466666666666
147112021 0.994419 -0.10642966666666666
148597900 0.9919573333333332 -0.10583133333333333
150083779 0.9889226666666667 -0.105704
151569658 0.9921493333333333 -0.10808466666666666
153055537 0.9950163333333334 -0.108942
154541416 0.9984449999999999 -0.11007966666666667
156027295 0.9998476666666667 -0.11129733333333335
157513174 1.00303 -0.11246166666666667
158999053 1.0034243333333335 -0.11447233333333333
160484932 1.0061853333333335 -0.11434166666666667
161970811 1.0063886666666668 -0.11459866666666667
163456690 1.0069086666666667 -0.11623800000000001
164942569 1.0067266666666665 -0.11686400000000001
166428448 1.0076833333333333 -0.11766766666666666
167914327 1.0050723333333333 -0.11751433333333333
169400206 1.0046913333333334 -0.117988
170886085 1.0028076666666665 -0.11944866666666666
172371964 1.0009219999999999 -0.119321
173857843 0.998457 -0.120319
175343722 0.996679 -0.12081933333333333
176829601 0.9922876666666666 -0.12191733333333334
178315480 0.9899433333333333 -0.12349700000000001
179801359 0.9863493333333334 -0.12438199999999999
181287238 0.9882083333333332 -0.12518066666666666
182773117 0.9913150000000001 -0.12761699999999998
184258996 0.9945913333333333 -0.12873133333333334
185744875 0.997325 -0.12961066666666668
187230754 0.9989976666666666 -0.13073733333333334
188716633 1.0010556666666668 -0.13158999999999998
190202512 1.002638 -0.13266333333333333
191688391 1.0031533333333333 -0.133276
193174270 1.004396 -0.13430466666666666
194660149 1.0045166666666667 -0.13507566666666668
196146028 1.0040173333333335 -0.136015
197631907 1.0032196666666666 -0.13685166666666665
199117786 1.0025009999999999 -0.136545
200603665 1.000751 -0.13812566666666667
202089544 0.9979533333333334 -0.13953566666666664
203575423 0.996391 -0.14067366666666667
205061302 0.9930136666666667 -0.14187533333333333
206547181 0.989629 -0.14256733333333332
208033060 0.9861763333333333 -0.1439216666666667
209518939 0.9822573333333334 -0.14486333333333332
211004818 0.9832453333333332 -0.14613866666666667
212490697 0.987772 -0.147917
213976576 0.99015 -0.14968599999999999
215462455 0.9934496666666667 -0.150825
216948334 0.9957180000000001 -0.15238366666666667
218434213 0.9983356666666667 -0.152707
219920092 0.9993416666666667 -0.15320133333333333
221405971 1.0006043333333334 -0.15374933333333332
222891850 1.0019369999999999 -0.15444066666666667
224377729 1.001977 -0.15625033333333335
225863608 1.0015843333333334 -0.15587066666666669
227349487 1.0003823333333333 -0.1565656666666667
228835366 0.9993786666666667 -0.15650466666666665
230321245 0.9971326666666668 -0.15987266666666666
231807124 0.9965283333333333 -0.15918933333333332
233293003 0.9923436666666666 -0.16158366666666665
234778882 0.9893886666666667 -0.16121500000000002
236264761 0.9855266666666668 -0.16284733333333334
237750640 0.9818406666666667 -0.164231
239236519 0.9776573333333333 -0.165262
240722398 0.9774456666666667 -0.16720100000000002
242208277 0.9815659999999999 -0.1686386666666667
243694156 0.9852966666666667 -0.17036099999999998
245180035 0.9883356666666666 -0.1715023333333333
246665914 0.9913036666666667 -0.17281833333333332
248151793 0.9935896666666667 -0.17423266666666667
249637672 0.9956186666666667 -0.1746886666666667
251123551 0.9960216666666666 -0.17518566666666666
252609430 0.9966529999999999 -0.17701666666666668
254095309 0.9973483333333334 -0.177025
255581188 0.9966586666666667 -0.17718066666666665
257067067 0.9960973333333333 -0.178654
258552946 0.994894 -0.17909
260038825 0.9932383333333332 -0.17971100000000004
261524704 0.9914040000000001 -0.17958300000000002
263010583 0.9881440000000001 -0.18130666666666664
264496462 0.9850523333333333 -0.18189166666666667
265982341 0.9812553333333334 -0.18291433333333332
267468220 0.9770286666666667 -0.18437366666666666
268954099 0.973018 -0.1854893333333333
270439978 0.9697903333333334 -0.18626466666666666
271925857 0.9748496666666666 -0.18900833333333333
273411736 0.978313 -0.19075066666666665
274897615 0.9828593333333333 -0.19251866666666664
276383494 0.9847266666666666 -0.19434200000000001
277869373 0.9874686666666667 -0.195922
279355252 0.9900776666666666 -0.19620866666666667
280841131 0.9906573333333334 -0.197605
282327010 0.9909983333333333 -0.19842066666666666
283812889 0.9928376666666666 -0.19832633333333335
285298768 0.99254 -0.19954366666666667
286784647 0.9917693333333334 -0.19948166666666667
288270526 0.9905996666666667 -0.199758
289756405 0.989199 -0.20136833333333334
291242284 0.986278 -0.20174433333333333
292728163 0.9844713333333334 -0.20180033333333333
294214042 0.9808873333333333 -0.20312633333333333
295699921 0.9764956666666667 -0.20368366666666668
297185800 0.9726283333333333 -0.20385666666666666
298671679 0.968121 -0.205164
300157558 0.96433 -0.20489966666666667
301643437 0.96789 -0.2077093333333333
303129316 0.971872 -0.209659
304615195 0.9752673333333334 -0.211202
306101074 0.9788526666666666 -0.213593
307586953 0.9821603333333333 -0.21492366666666665
309072832 0.98421 -0.216521
310558711 0.9853606666666667 -0.21739233333333333
312044590 0.986319 -0.21833233333333335
313530469 0.98757 -0.22025266666666665
315016348 0.9874263333333332 -0.219835
316502227 0.987043 -0.219429
317988106 0.9832003333333335 -0.22528299999999998
319473985 0.9852576666666666 -0.22132333333333334
320959864 0.9813973333333333 -0.22163200000000002
322445743 0.9886339999999999 -0.19960766666666666
323931622 0.9771116666666666 -0.22153166666666668
325417501 0.97268 -0.22205299999999997
326903380 0.9690073333333333 -0.2222303333333333
328389259 0.9633213333333334 -0.22242933333333334
329875138 0.9584109999999999 -0.22253066666666665
331361017 0.9607363333333333 -0.22448933333333332
332846896 0.9644896666666667 -0.22769633333333336
334332775 0.9684879999999999 -0.23040833333333333
335818654 0.9709336666666667 -0.23301800000000003
337304533 0.9731153333333333 -0.23379066666666667
338790412 0.9756653333333333 -0.23608099999999999
340276291 0.9770676666666667 -0.23755466666666666
341762170 0.977561 -0.2379406666666667
343248049 0.977554 -0.23897233333333331
344733928 0.9768473333333333 -0.24014433333333332
346219807 0.9777033333333334 -0.23872766666666667
347705686 0.975775 -0.240572
349191565 0.9745386666666667 -0.24152366666666666
350677444 0.9705473333333333 -0.241843
352163323 0.9695156666666667 -0.24178233333333332
353649202 0.9658336666666667 -0.24209333333333335
355135081 0.9610243333333334 -0.2431836666666667
356620960 0.9578380000000001 -0.24301566666666666
358106839 0.9539563333333333 -0.24241900000000002
359592718 0.9465896666666667 -0.24373233333333333
361078597 0.9510200000000001 -0.241111
362564476 0.9527166666666665 -0.248745
364050355 0.9558963333333333 -0.25168033333333334
365536234 0.9588473333333333 -0.2536146666666667
367022113 0.9607573333333334 -0.2551783333333333
368507992 0.9633436666666667 -0.25717933333333337
369993871 0.965059 -0.25820233333333337
371479750 0.9653206666666666 -0.2590386666666667
372965629 0.966225 -0.2611656666666667
374451508 0.9669996666666667 -0.2616426666666667
375937387 0.9661400000000001 -0.26185033333333335
377423266 0.9655686666666666 -0.2627616666666666
378909145 0.9639570000000001 -0.2616826666666667
380395024 0.9780293333333333 -0.244815
381880903 0.9596863333333333 -0.2629626666666667
383366782 0.9578056666666667 -0.261256
384852661 0.9548039999999999 -0.26142333333333334
386338540 0.9506456666666666 -0.2622116666666667
387824419 0.9461833333333334 -0.26142
389310298 0.9411299999999999 -0.26186233333333336
390796177 0.9408776666666667 -0.26261700000000004
392282056 0.9440766666666667 -0.2658706666666667
393767935 0.9474326666666667 -0.2681576666666667
395253814 0.9502 -0.269817
396739693 0.952144 -0.272056
398225572 0.9540253333333334 -0.27437633333333333
399711451 0.9554149999999999 -0.2759836666666666
401197330 0.9570353333333333 -0.2769796666666667
402683209 0.9568206666666667 -0.2771323333333333
404169088 0.9567726666666667 -0.2793733333333333
405654967 0.9573349999999999 -0.2788816666666667
407140846 0.9563596666666667 -0.2788753333333333
408626725 0.9550123333333334 -0.28020533333333336
410112604 0.953472 -0.2794143333333334
411598483 0.9517406666666667 -0.27938033333333334
413084362 0.949126 -0.27979533333333334
414570241 0.9456073333333332 -0.2788273333333333
416056120 0.9413516666666668 -0.2795126666666667
417541999 0.9376926666666666 -0.27854566666666664
419027878 0.9339029999999999 -0.2786766666666667
420513757 0.9313016666666667 -0.2794743333333333
421999636 0.934718 -0.2822443333333334
423485515 0.9379676666666668 -0.2841626666666667
424971394 0.9403206666666666 -0.28685900000000003
426457273 0.9425406666666666 -0.28828933333333334
427943152 0.9436309999999999 -0.290235
429429031 0.945509 -0.29411000000000004
430914910 0.9459416666666666 -0.2941346666666667
432400789 0.947454 -0.29496700000000003
433886668 0.9467253333333333 -0.29613433333333333
435372547 0.947711 -0.29595733333333335
436858426 0.9466393333333333 -0.2967956666666666
438344305 0.9456416666666666 -0.2975123333333334
439830184 0.9442729999999999 -0.29817266666666664
441316063 0.9425033333333334 -0.296812
442801942 0.9389336666666667 -0.29871
444287821 0.9367533333333333 -0.2982643333333333
445773700 0.9328283333333333 -0.2977893333333333
447259579 0.929313 -0.2967503333333334
448745458 0.9250806666666667 -0.2966516666666667
450231337 0.9222076666666666 -0.29660099999999995
451717216 0.9254156666666665 -0.2984193333333333
453203095 0.9299926666666667 -0.300148
454688974 0.9314906666666666 -0.30357566666666663
456174853 0.9322913333333332 -0.30561733333333335
457660732 0.935238 -0.3067046666666667
459146611 0.9365873333333333 -0.3087276666666667
460632490 0.936443 -0.3097623333333333
462118369 0.938041 -0.31011
463604248 0.9384873333333333 -0.31117066666666665
465090127 0.9374353333333333 -0.31155933333333335
466576006 0.9371603333333334 -0.3103533333333333
468061885 0.9355656666666667 -0.31203566666666666
469547764 0.933742 -0.3126603333333333
471033643 0.968368 -0.2959056666666667
472519522 0.9295110000000001 -0.3111093333333333
474005401 0.9274546666666666 -0.31248899999999996
475491280 0.9228426666666666 -0.3128056666666667
476977159 0.9200783333333332 -0.3124
478463038 0.9154656666666666 -0.3104496666666667
479948917 0.9087033333333334 -0.31563
481434796 0.9135386666666666 -0.31392766666666666
482920675 0.9174993333333333 -0.31596033333333334
484406554 0.920422 -0.31819633333333336
485892433 0.922031 -0.320358
487378312 0.9241130000000001 -0.32179433333333335
488864191 0.925808 -0.32296600000000003
490350070 0.9254596666666667 -0.32409166666666667
491835949 0.9266536666666667 -0.325013
493321828 0.9281866666666666 -0.32505866666666666
494807707 0.9281943333333333 -0.32592666666666664
496293586 0.9279003333333334 -0.32746533333333333
497779465 0.9253796666666667 -0.32843300000000003
499265344 0.924602 -0.327561
500751223 0.9227 -0.32752133333333333
502237102 0.9200889999999999 -0.3273266666666666
503722981 0.9174363333333333 -0.32637466666666665
505208860 0.9152473333333333 -0.3257113333333333
506694739 0.9105796666666667 -0.326548
508180618 0.9068309999999999 -0.32654733333333336
509666497 0.9027626666666667 -0.325008
511152376 0.9044603333333333 -0.32752433333333336
512638255 0.9072686666666666 -0.3310126666666666
514124134 0.909783 -0.33292266666666664
515610013 0.9119636666666667 -0.33481
517095892 0.9137813333333334 -0.33690299999999995
518581771 0.9158013333333334 -0.337865
520067650 0.9155530000000001 -0.34006333333333333
521553529 0.9179050000000001 -0.3392056666666667
523039408 0.9177583333333333 -0.34081366666666674
524525287 0.9166026666666668 -0.34042599999999995
526011166 0.9177223333333333 -0.34165700000000004
527497045 0.9163646666666666 -0.34148533333333336
528982924 0.9147686666666667 -0.34134233333333336
530468803 0.9124983333333333 -0.3414426666666666
531954682 0.911187 -0.34283366666666665
533440561 0.9229316666666666 -0.315532
534926440 0.9059406666666666 -0.3398543333333333
536412319 0.9009646666666667 -0.34041566666666667
537898198 0.8973873333333332 -0.34196099999999996
539384077 0.8931610000000001 -0.33977666666666667
540869956 0.8926483333333334 -0.34242466666666665
542355835 0.8948483333333334 -0.3433866666666667
543841714 0.8976106666666667 -0.3453213333333333
545327593 0.899798 -0.34599433333333335
546813472 0.900764 -0.346876
548299351 0.9023596666666668 -0.346584
549785230 0.9044606666666666 -0.34609500000000004
551271109 0.9033473333333334 -0.34764333333333336
552756988 0.9046556666666667 -0.34737100000000004
554242867 0.9036276666666666 -0.34812466666666664
555728746 0.9035556666666666 -0.34659666666666666
557214625 0.900871 -0.3464156666666667
558700504 0.8994396666666665 -0.3454986666666667
560186383 0.8971953333333333 -0.345068
561672262 0.893891 -0.34488633333333335
563158141 0.89132 -0.34265666666666666
564644020 0.8871936666666667 -0.3433096666666666
566129899 0.8827156666666666 -0.34209566666666663
567615778 0.8771366666666666 -0.341277
569101657 0.8733650000000001 -0.34097533333333335
570587536 0.8710956666666667 -0.34073899999999996
572073415 0.873263 -0.3469123333333333
573559294 0.8758713333333333 -0.34950300000000006
575045173 0.877892 -0.3509146666666667
576531052 0.8803093333333333 -0.35367533333333334
578016931 0.882406 -0.35686733333333337
579502810 0.883646 -0.36035633333333333
580988689 0.8850223333333332 -0.3619676666666667
582474568 0.885495 -0.36333366666666667
583960447 0.886177 -0.3642
585446326 0.8853683333333334 -0.36656466666666665
586932205 0.885226 -0.36829333333333336
588418084 0.8828833333333334 -0.3693836666666666
589903963 0.8825183333333332 -0.369632
591389842 0.881441 -0.3698223333333333
592875721 0.8790979999999999 -0.3706233333333333
594361600 0.875696 -0.3714393333333333
595847479 0.8723366666666665 -0.3725233333333334
597333358 0.8713470000000001 -0.368606
598819237 0.8624566666666666 -0.37789599999999995
600305116 0.8615883333333333 -0.37353033333333335
601790995 0.8644596666666667 -0.37693233333333337
603276874 0.8686470000000001 -0.37851966666666664
604762753 0.871629 -0.38236433333333336
606248632 0.8751366666666667 -0.38363233333333335
607734511 0.8762150000000001 -0.3855746666666667
609220390 0.8784706666666667 -0.386787
610706269 0.8790446666666667 -0.38905666666666666
612192148 0.8804083333333333 -0.3907883333333333
613678027 0.8804249999999999 -0.3918356666666667
615163906 0.878889 -0.391298
616649785 0.8790353333333334 -0.393089
618135664 0.8784219999999999 -0.39217399999999997
619621543 0.8376123333333334 -0.3714733333333333
621107422 0.8758719999999999 -0.3916556666666667
622593301 0.873884 -0.3905813333333333
624079180 0.8695243333333335 -0.3909226666666667
625565059 0.8673156666666667 -0.38814
627050938 0.8628233333333334 -0.38858166666666666
628536817 0.831119 -0.39739066666666667
630022696 0.853854 -0.38574933333333333
631508575 0.8582700000000001 -0.3882459999999999
632994454 0.8615046666666667 -0.3932346666666666
634480333 0.8645683333333333 -0.394314
635966212 0.8657520000000001 -0.39736733333333335
637452091 0.8669186666666665 -0.3998536666666667
638937970 0.868224 -0.4004236666666667
640423849 0.8705809999999999 -0.40035333333333334
641909728 0.871026 -0.40222966666666665
643395607 0.87048 -0.4050243333333334
644881486 0.871336 -0.4046556666666667
646367365 0.8704403333333333 -0.4042136666666667
647853244 0.870526 -0.4035166666666667
649339123 0.8694646666666667 -0.40451033333333336
650825002 0.866742 -0.4029113333333334
652310881 0.8636963333333334 -0.4042703333333333
653796760 0.8607800000000001 -0.401769
655282639 0.858459 -0.4016503333333333
656768518 0.855279 -0.399175
658254397 0.8516033333333333 -0.398652
659740276 0.8461156666666666 -0.39915933333333337
661226155 0.8473986666666667 -0.3989236666666667
662712034 0.8520746666666668 -0.40209
664197913 0.8529726666666667 -0.40620100000000003
665683792 0.8558926666666666 -0.4064493333333333
667169671 0.8575530000000001 -0.40770033333333333
668655550 0.856074 -0.4108786666666666
670141429 0.8584303333333333 -0.4086483333333333
671627308 0.8599493333333333 -0.4109163333333334
673113187 0.8628763333333334 -0.4100516666666667
674599066 0.8614519999999999 -0.4114793333333333
676084945 0.8599563333333333 -0.41275233333333333
677570824 0.860703 -0.41074666666666665
679056703 0.8594216666666666 -0.4093523333333334
680542582 0.8571246666666665 -0.410151
682028461 0.8552779999999999 -0.40841666666666665
683514340 0.8525473333333333 -0.40630499999999997
685000219 0.8494716666666666 -0.40492533333333336
686486098 0.844161 -0.403371
687971977 0.8426466666666667 -0.40069533333333335
689457856 0.837271 -0.398083
690943735 0.8366709999999999 -0.40221033333333334
692429614 0.8391106666666667 -0.4055093333333333
693915493 0.8400503333333335 -0.40798666666666666
695401372 0.8431946666666666 -0.41081066666666666
696887251 0.84497 -0.413418
698373130 0.8438689999999999 -0.41607433333333327
699859009 0.8459836666666667 -0.41740266666666664
701344888 0.8451493333333332 -0.418452
702830767 0.8451503333333333 -0.4193716666666667
704316646 0.8463220000000001 -0.420884
705802525 0.8456009999999999 -0.4209073333333333
707288404 0.8446453333333332 -0.422028
708774283 0.8424710000000001 -0.42327066666666663
710260162 0.840755 -0.42299233333333336
711746041 0.837062 -0.42305566666666666
713231920 0.8342033333333334 -0.4229796666666667
714717799 0.8331846666666666 -0.4227343333333333
716203678 0.8301506666666666 -0.4227573333333334
717689557 0.8243163333333333 -0.421517
719175436 0.8215149999999999 -0.421117
720661315 0.8202433333333333 -0.42250933333333335
722147194 0.8222833333333334 -0.4259456666666666
723633073 0.8237616666666666 -0.429745
725118952 0.8246943333333334 -0.432456
726604831 0.8279676666666665 -0.4328976666666667
728090710 0.8301916666666668 -0.434102
729576589 0.8305423333333333 -0.43647566666666665
731062468 0.8309046666666666 -0.438361
732548347 0.830922 -0.4379943333333333
734034226 0.8308696666666666 -0.4410683333333334
735520105 0.831517 -0.440248
737005984 0.8307126666666665 -0.43920033333333336
738491863 0.827837 -0.4398976666666667
739977742 0.8273366666666666 -0.43795399999999995
741463621 0.826202 -0.440513
742949500 0.8238833333333333 -0.43837733333333334
744435379 0.8216046666666665 -0.43790666666666667
745921258 0.8161443333333334 -0.43664299999999995
747407137 0.8150106666666668 -0.43442000000000003
748893016 0.8117963333333332 -0.434093
750378895 0.809935 -0.43434233333333333
751864774 0.8121193333333333 -0.43614766666666666
753350653 0.8133543333333333 -0.4418136666666667
754836532 0.8154253333333333 -0.4408083333333333
756322411 0.8170673333333333 -0.4431026666666667
757808290 0.8179346666666666 -0.445386
759294169 0.8187873333333333 -0.44661366666666663
760780048 0.8191776666666666 -0.4472593333333333
762265927 0.8185373333333333 -0.44873366666666664
763751806 0.8183273333333334 -0.45041766666666666
765237685 0.8179696666666668 -0.449139
766723564 0.8168683333333333 -0.4505343333333333
768209443 0.8166413333333334 -0.449122
769695322 0.8146023333333333 -0.44986733333333334
771181201 0.8131213333333333 -0.44753533333333334
772667080 0.8084423333333334 -0.44891166666666665
774152959 0.8073526666666667 -0.4479376666666666
775638838 0.8041946666666666 -0.4492503333333333
777124717 0.8015243333333334 -0.44630533333333333
778610596 0.7975706666666667 -0.444421
780096475 0.8359393333333335 -0.4695576666666666
781582354 0.795931 -0.44741533333333333
783068233 0.7987826666666665 -0.4507503333333333
784554112 0.8008436666666666 -0.45254066666666665
786039991 0.8025423333333334 -0.4543353333333333
787525870 0.805025 -0.45585533333333333
789011749 0.8052423333333333 -0.45761499999999994
790497628 0.8063563333333335 -0.4582013333333334
791983507 0.8105936666666667 -0.4585186666666667
793469386 0.8085616666666665 -0.4592613333333333
794955265 0.8075136666666666 -0.460022
796441144 0.8067313333333334 -0.4597696666666667
797927023 0.8075623333333333 -0.45960033333333333
799412902 0.805888 -0.4574936666666667
800898781 0.8039853333333333 -0.4580923333333333
802384660 0.8028353333333333 -0.4559933333333333
803870539 0.800427 -0.45581066666666664
805356418 0.797873 -0.4538523333333333
806842297 0.7932876666666666 -0.4526676666666667
808328176 0.7903476666666668 -0.452372
809814055 0.7860396666666666 -0.4510343333333333
811299934 0.7869796666666667 -0.4547113333333333
812785813 0.7888733333333332 -0.456479
814271692 0.7920856666666666 -0.4589723333333333
815757571 0.792685 -0.4620146666666667
817243450 0.793514 -0.4635123333333333
818729329 0.7962293333333332 -0.4662866666666667
820215208 0.7969453333333334 -0.466605
821701087 0.7961346666666668 -0.46922800000000003
823186966 0.7962296666666666 -0.47005766666666665
824672845 0.7963006666666667 -0.4708843333333333
826158724 0.7952896666666667 -0.471713
827644603 0.795219 -0.470893
829130482 0.7934223333333333 -0.4704663333333334
830616361 0.7909503333333333 -0.47253300000000004
832102240 0.789643 -0.471532
833588119 0.7868283333333332 -0.47003833333333334
835073998 0.781901 -0.470631
836559877 0.7793016666666667 -0.470219
838045756 0.776285 -0.46951433333333337
839531635 0.7719166666666667 -0.46870300000000004
841017514 0.7730203333333333 -0.46922266666666673
842503393 0.7743583333333334 -0.4719966666666666
843989272 0.776336 -0.47514199999999995
845475151 0.77896 -0.47832500000000006
846961030 0.7795973333333333 -0.4810393333333333
848446909 0.780694 -0.48213466666666666
849932788 0.7819816666666667 -0.4837293333333333
851418667 0.7833606666666667 -0.4845256666666667
852904546 0.782792 -0.4853913333333333
854390425 0.784283 -0.48420599999999997
855876304 0.7827670000000001 -0.4854753333333333
857362183 0.7827046666666667 -0.4842676666666667
858848062 0.779725 -0.4857673333333333
860333941 0.778965 -0.484446
861819820 0.7775166666666666 -0.48268466666666665
863305699 0.7741096666666666 -0.48345
864791578 0.7714696666666666 -0.4812543333333334
866277457 0.7679296666666667 -0.4813443333333334
867763336 0.7646583333333333 -0.47859199999999996
869249215 0.760317 -0.476159
870735094 0.7584333333333334 -0.47875466666666666
872220973 0.7612003333333334 -0.480861
873706852 0.7652676666666668 -0.48372233333333337
875192731 0.7648126666666667 -0.48674900000000004
876678610 0.765071 -0.48934900000000003
878164489 0.7686546666666666 -0.490534
879650368 0.7700103333333334 -0.4914876666666667
881136247 0.770463 -0.49332933333333334
882622126 0.7702886666666666 -0.4934963333333333
884108005 0.770079 -0.4956933333333333
885593884 0.7697996666666667 -0.49618633333333334
887079763 0.7694313333333334 -0.49596166666666663
888565642 0.7673603333333334 -0.495345
890051521 0.7663203333333334 -0.49294466666666664
891537400 0.7645306666666668 -0.49295266666666665
893023279 0.761856 -0.49241466666666667
894509158 0.7610333333333333 -0.492135
895995037 0.7558136666666667 -0.49021933333333334
897480916 0.7535089999999999 -0.4880006666666667
898966795 0.7486446666666667 -0.48766266666666663
900452674 0.7480589999999999 -0.48514066666666666
901938553 0.7483413333333333 -0.4891566666666667
903424432 0.751537 -0.49083499999999997
904910311 0.7523546666666667 -0.49408366666666664
906396190 0.752571 -0.49702666666666667
907882069 0.7571803333333333 -0.4968013333333334
909367948 0.756329 -0.498501
910853827 0.7553216666666667 -0.500325
912339706 0.7595726666666667 -0.4972573333333333
913825585 0.757466 -0.502167
915311464 0.7614536666666666 -0.5009576666666667
916797343 0.7559796666666667 -0.5024986666666668
918283222 0.756107 -0.501719
919769101 0.753864 -0.5000836666666667
921254980 0.7549643333333332 -0.4958913333333334
922740859 0.7497313333333334 -0.5015053333333334
924226738 0.749648 -0.49691899999999994
925712617 0.7439563333333333 -0.497936
927198496 0.7442363333333333 -0.49229966666666664
928684375 0.7415660000000001 -0.48664833333333335
930170254 0.7360133333333333 -0.48847066666666666
931656133 0.7373246666666667 -0.491879
933142012 0.739523 -0.4958613333333333
934627891 0.7417686666666666 -0.4985113333333333
936113770 0.7432736666666666 -0.5019056666666667
937599649 0.7452966666666668 -0.5019343333333334
939085528 0.745014 -0.5043583333333334
940571407 0.7454883333333333 -0.5052656666666667
942057286 0.7481909999999999 -0.5052173333333333
943543165 0.7459193333333333 -0.5069229999999999
945029044 0.74951 -0.503956
946514923 0.7476656666666667 -0.503621
948000802 0.7469076666666666 -0.5048106666666666
949486681 0.746571 -0.5033333333333333
950972560 0.744708 -0.5037623333333333
952458439 0.7434446666666666 -0.5029173333333333
953944318 0.741507 -0.5021243333333333
955430197 0.7352796666666667 -0.5052123333333333
956916076 0.7364823333333333 -0.49827933333333335
958401955 0.7316600000000001 -0.4993696666666667
959887834 0.72768 -0.4965473333333334
961373713 0.728474 -0.4991716666666666
962859592 0.7294996666666668 -0.504394
964345471 0.7304253333333333 -0.5067416666666666
965831350 0.7315476666666666 -0.5091596666666666
967317229 0.7318773333333333 -0.5119636666666667
968803108 0.73217 -0.5131786666666667
970288987 0.7343383333333332 -0.5129103333333332
971774866 0.7331026666666668 -0.515638
973260745 0.7330963333333335 -0.5155306666666667
974746624 0.7327873333333333 -0.5163463333333334
976232503 0.7334946666666666 -0.5145773333333333
977718382 0.7311843333333333 -0.517313
979204261 0.730686 -0.516282
980690140 0.7308603333333332 -0.5154896666666666
982176019 0.7264973333333332 -0.513766
983661898 0.7272706666666666 -0.5123266666666667
985147777 0.7245253333333334 -0.512693
986633656 0.721054 -0.5098163333333333
988119535 0.7188803333333333 -0.5088546666666667
989605414 0.715077 -0.509443
991091293 0.7156533333333334 -0.5100750000000001
992577172 0.7162143333333333 -0.5117133333333334
994063051 0.7167626666666665 -0.5163906666666667
995548930 0.719195 -0.516012
997034809 0.7194246666666667 -0.5187513333333333
998520688 0.71982 -0.5202576666666667
1000006567 0.7205383333333333 -0.5207906666666666
1001492446 0.7224806666666668 -0.520941
1002978325 0.721308 -0.5222163333333333
1004464204 0.719646 -0.5231393333333334
1005950083 0.7204716666666666 -0.5212393333333333
1007435962 0.718105 -0.522498
1008921841 0.716848 -0.5231663333333333
1010407720 0.7175393333333333 -0.520985
1011893599 0.7142896666666667 -0.5209353333333333
1013379478 0.7117733333333334 -0.5194556666666666
1014865357 0.7096053333333333 -0.5165343333333333
1016351236 0.708326 -0.5159843333333334
1017837115 0.7037156666666667 -0.5159973333333333
1019322994 0.7013106666666666 -0.512074
1020808873 0.6996446666666668 -0.5140986666666666
1022294752 0.7015786666666667 -0.5171226666666667
1023780631 0.7025343333333334 -0.5193446666666667
1025266510 0.7046976666666667 -0.519789
1026752389 0.7064400000000001 -0.5216036666666667
1028238268 0.7058766666666667 -0.5239616666666667
1029724147 0.7053793333333332 -0.5255759999999999
1031210026 0.7070066666666667 -0.5272193333333334
1032695905 0.7075173333333332 -0.5268373333333334
1034181784 0.7065186666666666 -0.5269096666666666
1035667663 0.7054723333333334 -0.5287156666666667
1037153542 0.7058176666666666 -0.5274446666666667
1038639421 0.7047496666666667 -0.5269366666666667
1040125300 0.7023386666666666 -0.5273666666666667
1041611179 0.7003573333333334 -0.527519
1043097058 0.699175 -0.5261686666666666
1044582937 0.6974376666666666 -0.524647
1046068816 0.6928753333333333 -0.5235036666666667
1047554695 0.6926253333333333 -0.522206
1049040574 0.6885296666666667 -0.5214219999999999
1050526453 0.6871140000000001 -0.520984
1052012332 0.6900673333333334 -0.5225746666666667
1053498211 0.6924023333333333 -0.5238586666666666
1054984090 0.6952356666666667 -0.5259373333333334
1056469969 0.694636 -0.5294156666666666
1057955848 0.6950123333333332 -0.5312463333333334
1059441727 0.6964229999999999 -0.5319596666666667
1060927606 0.695767 -0.5338486666666666
1062413485 0.6970023333333334 -0.5338846666666667
1063899364 0.6950850000000001 -0.5346736666666666
1065385243 0.6966709999999999 -0.5340213333333333
1066871122 0.6949936666666666 -0.5353916666666667
1068357001 0.6952170000000001 -0.5346670000000001
1069842880 0.691605 -0.5333986666666667
1071328759 0.6931026666666668 -0.5321873333333333
1072814638 0.6912846666666668 -0.531894
1074300517 0.6894750000000002 -0.531356
1075786396 0.6878813333333333 -0.5291853333333333
1077272275 0.6853386666666667 -0.5282633333333333
1078758154 0.67936 -0.5292376666666666
1080244033 0.6811379999999999 -0.524961
1081729912 0.680821 -0.5276896666666667
1083215791 0.6807820000000001 -0.532536
1084701670 0.682832 -0.535546
1086187549 0.6847683333333334 -0.534498
1087673428 0.6862726666666666 -0.5376693333333333
1089159307 0.6873683333333332 -0.53789
1090645186 0.6884453333333332 -0.5386333333333333
1092131065 0.688503 -0.5403073333333334
1093616944 0.68745 -0.5397213333333334
1095102823 0.686604 -0.5400116666666667
1096588702 0.6876616666666667 -0.5383516666666667
1098074581 0.6850123333333333 -0.5401646666666666
1099560460 0.6848296666666666 -0.5391383333333334
1101046339 0.6835473333333333 -0.5378353333333333
1102532218 0.6793983333333333 -0.5367353333333332
1104018097 0.676444 -0.5357276666666667
1105503976 0.6754423333333334 -0.5354416666666667
1106989855 0.6717663333333334 -0.5345106666666667
1108475734 0.6698873333333334 -0.532118
1109961613 0.664617 -0.5318396666666666
1111447492 0.666808 -0.5343086666666667
1112933371 0.6689826666666666 -0.5358373333333334
1114419250 0.6697896666666666 -0.5397666666666666
1115905129 0.6728503333333333 -0.5391706666666667
1117391008 0.6745716666666667 -0.5404356666666668
1118876887 0.67469 -0.5422876666666666
1120362766 0.6763213333333334 -0.5440813333333333
1121848645 0.6736356666666667 -0.5467353333333334
1123334524 0.676984 -0.5470553333333333
1124820403 0.6759959999999999 -0.5480793333333334
1126306282 0.6765913333333332 -0.5446909999999999
1127792161 0.6751963333333334 -0.5462676666666667
1129278040 0.673117 -0.5465076666666667
1130763919 0.6717806666666667 -0.5461329999999999
1132249798 0.6703676666666666 -0.5440550000000001
1133735677 0.6656963333333333 -0.5445083333333334
1135221556 0.662766 -0.5431316666666667
1136707435 0.660088 -0.54293
1138193314 0.6562763333333334 -0.5415626666666666
1139679193 0.6527893333333333 -0.5392366666666666
1141165072 0.6530813333333334 -0.5397196666666667
1142650951 0.656797 -0.5451056666666667
1144136830 0.6571133333333333 -0.5466336666666667
1145622709 0.6587719999999999 -0.5482956666666667
1147108588 0.6623313333333334 -0.5496996666666667
1148594467 0.6640476666666667 -0.5501469999999999
1150080346 0.6590876666666667 -0.5555450000000001
1151566225 0.6618383333333333 -0.5547496666666666
1153052104 0.6638763333333334 -0.553172
1154537983 0.6606633333333334 -0.5570033333333333
1156023862 0.663183 -0.554367
1157509741 0.6605976666666667 -0.5547196666666666
1158995620 0.6602663333333333 -0.554104
1160481499 0.6588016666666666 -0.5523753333333333
1161967378 0.6559699999999999 -0.5513803333333334
1163453257 0.6548286666666667 -0.5494103333333333
1164939136 0.6528266666666666 -0.5494906666666667
1166425015 0.648591 -0.548128
1167910894 0.644908 -0.5459956666666667
1169396773 0.6418766666666668 -0.543716
1170882652 0.6405873333333334 -0.5452826666666667
1172368531 0.6415593333333334 -0.5490616666666667
1173854410 0.6435026666666666 -0.549477
1175340289 0.644647 -0.5543633333333333
1176826168 0.646799 -0.5555613333333334
1178312047 0.6451663333333334 -0.5569446666666668
1179797926 0.6456573333333333 -0.559164
1181283805 0.646656 -0.5594753333333333
1182769684 0.6476153333333333 -0.559065
1184255563 0.645499 -0.5608743333333334
1185741442 0.645016 -0.559467
1187227321 0.6442063333333333 -0.5605553333333333
1188713200 0.641476 -0.5593446666666666
1190199079 0.64229 -0.557859
1191684958 0.637468 -0.5587416666666667
1193170837 0.6361373333333333 -0.555508
1194656716 0.6329866666666667 -0.5563143333333332
1196142595 0.62896 -0.5555383333333334
1197628474 0.626346 -0.552956
1199114353 0.623722 -0.5506926666666666
1200600232 0.6172723333333333 -0.554231
1202086111 0.6230353333333333 -0.5527273333333333
1203571990 0.626042 -0.5560193333333333
1205057869 0.6271903333333333 -0.558415
1206543748 0.6284663333333333 -0.560857
1208029627 0.6290026666666667 -0.5624956666666666
1209515506 0.630947 -0.564136
1211001385 0.630951 -0.5655896666666667
1212487264 0.6325576666666667 -0.56736
1213973143 0.6326883333333334 -0.566736
1215459022 0.6320306666666666 -0.5662386666666667
1216944901 0.6322253333333333 -0.565714
1218430780 0.6306363333333332 -0.5678943333333333
1219916659 0.630958 -0.5658856666666666
1221402538 0.6276273333333333 -0.5654406666666666
1222888417 0.6276846666666667 -0.5621943333333334
1224374296 0.6247266666666667 -0.562078
1225860175 0.6215063333333334 -0.5612616666666667
1227346054 0.6182506666666666 -0.5582903333333333
1228831933 0.6222063333333333 -0.5562706666666667
1230317812 0.6149209999999999 -0.552872
1231803691 0.6162066666666667 -0.5568076666666667
1233289570 0.6169443333333333 -0.5583823333333333
1234775449 0.6193723333333333 -0.562053
1236261328 0.620317 -0.5628443333333334
1237747207 0.620082 -0.5645623333333333
1239233086 0.6209319999999999 -0.566105
1240718965 0.622699 -0.565868
1242204844 0.6210889999999999 -0.5678133333333334
1243690723 0.6200983333333333 -0.5686603333333333
1245176602 0.6225776666666666 -0.5670406666666667
1246662481 0.621143 -0.5670626666666667
1248148360 0.621356 -0.5644953333333333
1249634239 0.620178 -0.5627276666666666
1251120118 0.6171836666666667 -0.5640263333333334
1252605997 0.614811 -0.5615133333333334
1254091876 0.613792 -0.5588003333333332
1255577755 0.613567 -0.5541966666666668
1257063634 0.608974 -0.5531163333333333
1258549513 0.6061166666666667 -0.5520376666666668
1260035392 0.6012876666666666 -0.5492819999999999
1261521271 0.6021293333333334 -0.5517023333333334
1263007150 0.603905 -0.5536973333333334
1264493029 0.6040433333333334 -0.557136
1265978908 0.602382 -0.5613703333333334
1267464787 0.604807 -0.5626936666666666
1268950666 0.6063890000000001 -0.5628166666666666
1270436545 0.6046923333333333 -0.5662816666666667
1271922424 0.6033826666666666 -0.5673376666666666
1273408303 0.6046146666666666 -0.5673613333333333
1274894182 0.6045223333333333 -0.5670163333333332
1276380061 0.6019076666666666 -0.569959
1277865940 0.6019933333333333 -0.5688816666666666
1279351819 0.5996090000000001 -0.5689926666666667
1280837698 0.6001703333333334 -0.56632
1282323577 0.6006313333333333 -0.563171
1283809456 0.5970733333333333 -0.5668883333333333
1285295335 0.5950643333333333 -0.56325
1286781214 0.5891443333333334 -0.5652403333333335
1288267093 0.5877306666666666 -0.564511
1289752972 0.5844673333333333 -0.5610059999999999
1291238851 0.5858276666666667 -0.5614303333333334
1292724730 0.586145 -0.5663290000000001
1294210609 0.5889369999999999 -0.5665143333333335
1295696488 0.5887769999999999 -0.5686333333333332
1297182367 0.591708 -0.5709396666666667
1298668246 0.5918383333333334 -0.5719943333333334
1300154125 0.5919886666666666 -0.5749143333333334
1301640004 0.5921856666666667 -0.572957
1303125883 0.594154 -0.573063
1304611762 0.59349 -0.5735796666666667
1306097641 0.592763 -0.5748666666666667
1307583520 0.5940083333333334 -0.5711189999999999
1309069399 0.5924463333333333 -0.5711293333333333
1310555278 0.593303 -0.57
1312041157 0.5910179999999999 -0.5704476666666666
1313527036 0.5883759999999999 -0.5697233333333332
1315012915 0.587597 -0.5673803333333333
1316498794 0.5886076666666666 -0.5613983333333333
1317984673 0.5845319999999999 -0.5598616666666666
1319470552 0.5824306666666667 -0.5572753333333335
1320956431 0.5813453333333333 -0.557337
1322442310 0.5866169999999999 -0.5613830000000001
1323928189 0.5813903333333333 -0.566876
1325414068 0.5851986666666666 -0.5670063333333334
1326899947 0.5857923333333334 -0.56885
1328385826 0.5876603333333333 -0.5705943333333333
1329871705 0.5882526666666666 -0.5722729999999999
1331357584 0.5879716666666667 -0.575111
1332843463 0.5887733333333333 -0.5719336666666667
1334329342 0.5885569999999999 -0.5746443333333334
1335815221 0.5872433333333333 -0.5748746666666668
1337301100 0.5870673333333333 -0.5754859999999999
1338786979 0.585306 -0.5752253333333334
1340272858 0.585932 -0.5752416666666665
1341758737 0.5861963333333334 -0.5732266666666667
1343244616 0.5837293333333333 -0.5741036666666667
1344730495 0.5815863333333333 -0.56869
1346216374 0.5800193333333333 -0.5709703333333334
1347702253 0.5793346666666667 -0.5687906666666667
1349188132 0.5746813333333334 -0.567577
1350674011 0.5745336666666666 -0.5660546666666667
1352159890 0.574876 -0.5700583333333333
1353645769 0.5725296666666667 -0.5723506666666668
1355131648 0.5760106666666667 -0.5736583333333333
1356617527 0.5752976666666667 -0.5748433333333334
1358103406 0.5750006666666666 -0.5760796666666667
1359589285 0.5740416666666667 -0.577016
1361075164 0.5737803333333333 -0.5761743333333333
1362561043 0.5721816666666667 -0.5780563333333334
1364046922 0.572215 -0.5757356666666666
1365532801 0.5741096666666666 -0.576176
1367018680 0.5684346666666666 -0.5784713333333333
1368504559 0.567045 -0.575953
1369990438 0.5644089999999999 -0.580169
1371476317 0.5621776666666667 -0.57821
1372962196 0.5592883333333334 -0.5774103333333332
1374448075 0.5558769999999998 -0.5775843333333334
1375933954 0.5529993333333333 -0.5734963333333333
1377419833 0.5501543333333333 -0.5740326666666666
1378905712 0.5505686666666667 -0.5727246666666667
1380391591 0.5475193333333334 -0.5708989999999999
1381877470 0.5449593333333334 -0.5704813333333334
1383363349 0.5523586666666667 -0.5754796666666667
1384849228 0.5522606666666667 -0.5779253333333333
1386335107 0.552941 -0.5793743333333333
1387820986 0.5530183333333333 -0.5798876666666666
1389306865 0.5573553333333333 -0.5812510000000001
1390792744 0.5592466666666667 -0.58137
1392278623 0.5588906666666666 -0.5838233333333332
1393764502 0.5587673333333334 -0.5821033333333333
1395250381 0.5613163333333332 -0.5812963333333333
1396736260 0.562357 -0.581484
1398222139 0.5622126666666667 -0.5813353333333334
1399708018 0.558967 -0.581554
1401193897 0.558892 -0.5791006666666666
1402679776 0.558466 -0.5784946666666667
1404165655 0.558002 -0.574269
1405651534 0.5552006666666668 -0.575689
1407137413 0.5529876666666667 -0.5735166666666666
1408623292 0.5499283333333334 -0.5718536666666666
1410109171 0.548013 -0.5699223333333333
1411595050 0.5522713333333332 -0.572504
1413080929 0.5539043333333333 -0.5736633333333333
1414566808 0.5555650000000001 -0.577069
1416052687 0.5575816666666666 -0.5807213333333333
1417538566 0.5614526666666667 -0.5777946666666667
1419024445 0.5591063333333334 -0.583601
1420510324 0.5604840000000001 -0.5823823333333333
1421996203 0.5639236666666667 -0.5824606666666666
1423482082 0.564765 -0.582645
1424967961 0.5642619999999999 -0.5853769999999999
1426453840 0.5632480000000001 -0.5830736666666666
1427939719 0.5633183333333333 -0.5821166666666667
1429425598 0.5627363333333334 -0.583044
1430911477 0.5656743333333333 -0.5784343333333334
1432397356 0.5619796666666667 -0.580345
1433883235 0.558836 -0.5784759999999999
1435369114 0.5600299999999999 -0.574952
1436854993 0.5561676666666667 -0.5739553333333333
1438340872 0.5555393333333334 -0.571542
1439826751 0.5517983333333333 -0.571434
1441312630 0.554102 -0.5721413333333333
1442798509 0.5555236666666666 -0.5739963333333333
1444284388 0.5547583333333334 -0.578984
1445770267 0.5582950000000001 -0.5774953333333334
1447256146 0.5594073333333333 -0.5803593333333333
1448742025 0.5570246666666666 -0.5810186666666667
1450227904 0.557566 -0.580658
1451713783 0.556269 -0.58264
1453199662 0.5560093333333334 -0.58217
1454685541 0.5575420000000001 -0.580893
1456171420 0.5549350000000001 -0.5822843333333334
1457657299 0.5542096666666666 -0.581067
1459143178 0.5528473333333334 -0.5799886666666666
1460629057 0.5520653333333333 -0.578453
1462114936 0.552218 -0.576219
1463600815 0.5464213333333333 -0.5776886666666666
1465086694 0.5442063333333333 -0.5757753333333334
1466572573 0.541052 -0.5732229999999999
1468058452 0.5366323333333334 -0.5724523333333333
1469544331 0.5319496666666667 -0.5709166666666666
1471030210 0.5353633333333333 -0.5717743333333333
1472516089 0.5346553333333334 -0.5763673333333333
1474001968 0.5375230000000001 -0.5778123333333333
1475487847 0.5400476666666667 -0.5791203333333333
1476973726 0.539863 -0.5815793333333333
1478459605 0.540838 -0.5837120000000001
1479945484 0.542868 -0.5837526666666667
1481431363 0.544134 -0.5844670000000001
1482917242 0.544949 -0.5845706666666667
1484403121 0.5442250000000001 -0.5850620000000001
1485889000 0.5434586666666666 -0.5851006666666666
1487374879 0.5428713333333333 -0.5849876666666667
1488860758 0.543557 -0.5843653333333333
1490346637 0.542969 -0.5824513333333333
1491832516 0.540273 -0.583138
1493318395 0.5390113333333333 -0.580826
1494804274 0.5366363333333334 -0.579822
1496290153 0.5341496666666666 -0.5777923333333334
1497776032 0.5331516666666667 -0.5743086666666667
1499261911 0.5291073333333333 -0.572912
1500747790 0.5287023333333333 -0.573621
1502233669 0.5298813333333334 -0.5760616666666667
1503719548 0.5273656666666667 -0.5825330000000001
1505205427 0.531142 -0.5815199999999999
1506691306 0.5281043333333334 -0.5863693333333333
1508177185 0.5330066666666667 -0.5858226666666666
1509663064 0.533684 -0.587967
1511148943 0.5297953333333333 -0.5882076666666667
1512634822 0.5327796666666668 -0.589328
1514120701 0.5334 -0.5883833333333333
1515606580 0.5325826666666668 -0.5900086666666667
1517092459 0.5307976666666666 -0.5877479999999999
1518578338 0.5320093333333333 -0.587703
1520064217 0.5268636666666666 -0.5881816666666667
1521550096 0.5248026666666666 -0.587838
1523035975 0.5241306666666666 -0.5853666666666667
1524521854 0.5221006666666667 -0.5847296666666667
1526007733 0.522083 -0.5802833333333334
1527493612 0.517152 -0.5774706666666667
1528979491 0.4936203333333333 -0.5798173333333333
1530465370 0.5110103333333335 -0.5789646666666667
1531951249 0.5106176666666666 -0.582594
1533437128 0.5138706666666667 -0.5839236666666666
1534923007 0.5164523333333334 -0.5843006666666666
1536408886 0.5138726666666668 -0.5871986666666666
1537894765 0.517284 -0.5893353333333333
1539380644 0.517152 -0.5897739999999999
1540866523 0.5183949999999999 -0.5913243333333332
1542352402 0.517157 -0.5917849999999999
1543838281 0.5185523333333334 -0.5911563333333333
1545324160 0.5186543333333333 -0.591203
1546810039 0.517509 -0.5895586666666667
1548295918 0.5172926666666666 -0.5891223333333333
1549781797 0.516337 -0.5888236666666667
1551267676 0.5113126666666666 -0.5900106666666667
1552753555 0.5134726666666666 -0.5846220000000001
1554239434 0.508359 -0.5849066666666667
1555725313 0.507092 -0.5826623333333334
1557211192 0.5066623333333333 -0.5769316666666667
1558697071 0.5010973333333334 -0.57609
1560182950 0.499094 -0.5742853333333334
1561668829 0.5011583333333333 -0.5760623333333333
1563154708 0.5022966666666667 -0.5791766666666667
1564640587 0.5022316666666667 -0.5829146666666666
1566126466 0.5011953333333333 -0.58699
1567612345 0.5024843333333333 -0.5881706666666666
1569098224 0.504486 -0.5889023333333333
1570584103 0.5039226666666666 -0.5913786666666666
1572069982 0.5038513333333333 -0.5920040000000001
1573555861 0.5033469999999999 -0.5915
1575041740 0.5058006666666667 -0.5924123333333333
1576527619 0.5066546666666667 -0.5901623333333333
1578013498 0.506129 -0.5947686666666667
1579499377 0.5033949999999999 -0.5913689999999999
1580985256 0.50294 -0.5904366666666667
1582471135 0.5101209999999999 -0.5855926666666667
1583957014 0.5010186666666666 -0.586142
1585442893 0.495276 -0.5858836666666667
1586928772 0.493716 -0.584577
1588414651 0.49225266666666667 -0.5818953333333333
1589900530 0.48913199999999996 -0.580365
1591386409 0.49056900000000003 -0.5821136666666668
1592872288 0.49362 -0.5848076666666667
1594358167 0.49407266666666666 -0.5858720000000001
1595844046 0.49284666666666666 -0.5896733333333333
1597329925 0.49289466666666665 -0.5914416666666668
1598815804 0.4938716666666667 -0.5923993333333334
1600301683 0.49579666666666666 -0.59275
1601787562 0.494675 -0.5951473333333334
1603273441 0.49413799999999997 -0.5955253333333334
1604759320 0.49625633333333335 -0.5951080000000001
1606245199 0.49440533333333336 -0.5952700000000001
1607731078 0.4959706666666667 -0.5933413333333333
1609216957 0.49462300000000003 -0.592083
1610702836 0.49364800000000003 -0.5909226666666666
1612188715 0.491703 -0.5902163333333333
1613674594 0.49230833333333335 -0.5873229999999999
1615160473 0.4882203333333333 -0.5875206666666667
1616646352 0.4867053333333333 -0.5836493333333334
1618132231 0.48575866666666667 -0.5822626666666667
1619618110 0.4825433333333333 -0.580071
1621103989 0.4861003333333333 -0.5789686666666666
1622589868 0.48337566666666665 -0.5823186666666667
1624075747 0.4836033333333334 -0.5862293333333334
1625561626 0.4829596666666666 -0.5889003333333332
1627047505 0.4853593333333333 -0.5900896666666667
1628533384 0.48362566666666673 -0.5914923333333333
1630019263 0.48309433333333335 -0.5943876666666666
1631505142 0.48373333333333335 -0.5952606666666667
1632991021 0.48521300000000006 -0.5935176666666666
1634476900 0.4838453333333333 -0.5949239999999999
1635962779 0.482481 -0.5959393333333334
1637448658 0.481871 -0.5968983333333333
1638934537 0.4810373333333333 -0.595442
1640420416 0.4805893333333333 -0.5938266666666666
1641906295 0.4788206666666666 -0.5939929999999999
1643392174 0.477802 -0.5925793333333332
1644878053 0.4757423333333333 -0.5909703333333334
1646363932 0.47497933333333336 -0.588426
1647849811 0.4698363333333333 -0.5882153333333333
1649335690 0.46956266666666674 -0.5854016666666667
1650821569 0.4706246666666667 -0.583687
1652307448 0.47045333333333333 -0.588567
1653793327 0.47000899999999995 -0.589957
1655279206 0.4727653333333333 -0.5896633333333333
1656765085 0.4711076666666667 -0.5946856666666667
1658250964 0.47073066666666663 -0.5958396666666667
1659736843 0.4699963333333334 -0.5965773333333334
1661222722 0.471952 -0.598291
1662708601 0.4723286666666667 -0.5947743333333334
1664194480 0.47073099999999996 -0.5967476666666666
1665680359 0.472389 -0.5949333333333333
1667166238 0.47081766666666663 -0.5949526666666667
1668652117 0.469983 -0.594959
1670137996 0.4661746666666667 -0.596835
1671623875 0.46675099999999997 -0.5906166666666667
1673109754 0.464075 -0.592711
1674595633 0.46585566666666667 -0.5888490000000001
1676081512 0.46356800000000004 -0.5870676666666667
1677567391 0.460629 -0.5855143333333334
1679053270 0.45715533333333336 -0.5848186666666666
1680539149 0.48684433333333327 -0.6070863333333333
1682025028 0.45549366666666663 -0.5870953333333333
1683510907 0.457638 -0.5904036666666667
1684996786 0.45893566666666663 -0.5886026666666666
1686482665 0.4640013333333333 -0.590367
1687968544 0.4623176666666666 -0.5916250000000001
1689454423 0.4643313333333334 -0.5941133333333334
1690940302 0.4648156666666667 -0.5950093333333334
1692426181 0.46616799999999997 -0.5942566666666667
1693912060 0.4668616666666667 -0.5942986666666666
1695397939 0.465277 -0.5949336666666666
1696883818 0.4643116666666667 -0.594914
1698369697 0.46506033333333335 -0.5927866666666667
1699855576 0.46361800000000003 -0.593862
1701341455 0.4649236666666667 -0.5921059999999999
1702827334 0.46378400000000003 -0.5922726666666667
1704313213 0.46142833333333333 -0.5912726666666667
1705799092 0.46174 -0.586175
1707284971 0.458293 -0.584492
1708770850 0.456837 -0.5818173333333333
1710256729 0.45386566666666667 -0.5823983333333334
1711742608 0.45617599999999997 -0.5851719999999999
1713228487 0.45676999999999995 -0.5858216666666666
1714714366 0.4565963333333333 -0.5891833333333333
1716200245 0.4585873333333333 -0.5894710000000001
1717686124 0.46057233333333336 -0.591047
1719172003 0.460418 -0.5904503333333334
1720657882 0.4597386666666667 -0.592836
1722143761 0.4599946666666666 -0.5937263333333334
1723629640 0.45303200000000005 -0.596011
1725115519 0.4582713333333333 -0.592351
1726601398 0.4580703333333333 -0.590147
1728087277 0.4614483333333333 -0.588664
1729573156 0.4567003333333333 -0.591511
1731059035 0.454848 -0.5885893333333333
1732544914 0.45375733333333335 -0.586553
1734030793 0.452507 -0.5860623333333334
1735516672 0.4516533333333333 -0.5845203333333333
1737002551 0.446669 -0.5841393333333333
1738488430 0.446247 -0.5797246666666667
1739974309 0.4467483333333333 -0.5759303333333333
1741460188 0.4388596666666667 -0.5834419999999999
1742946067 0.4434473333333333 -0.5831963333333333
1744431946 0.44457300000000005 -0.5865393333333333
1745917825 0.45295700000000005 -0.584155
1747403704 0.44435700000000006 -0.5912956666666666
1748889583 0.45328166666666664 -0.5886286666666667
1750375462 0.44749 -0.5922296666666665
1751861341 0.45283366666666663 -0.5899806666666666
1753347220 0.4467056666666667 -0.5949943333333333
1754833099 0.451212 -0.5927123333333334
1756318978 0.447776 -0.596174
1757804857 0.4499073333333334 -0.591936
1759290736 0.4443553333333334 -0.594988
1760776615 0.452461 -0.587979
1762262494 0.4444513333333333 -0.5892256666666666
1763748373 0.4489076666666667 -0.5879673333333333
1765234252 0.4385046666666667 -0.5888773333333334
1766720131 0.44221533333333335 -0.586024
1768206010 0.436467 -0.5845173333333333
1769691889 0.441915 -0.5763603333333334
1771177768 0.433454 -0.585156
1772663647 0.4427763333333334 -0.5841126666666666
1774149526 0.438664 -0.588479
1775635405 0.44771199999999994 -0.5879623333333334
1777121284 0.44009866666666664 -0.5930186666666667
1778607163 0.446148 -0.5909333333333334
1780093042 0.44182933333333335 -0.5941976666666667
1781578921 0.4516503333333333 -0.5920420000000001
1783064800 0.443826 -0.5961963333333333
1784550679 0.45305333333333336 -0.591628
1786036558 0.4466023333333333 -0.5924130000000001
1787522437 0.449572 -0.5930866666666667
1789008316 0.44544766666666663 -0.5911216666666667
1790494195 0.4463713333333333 -0.5904726666666668
1791980074 0.44523533333333326 -0.591078
1793465953 0.44616799999999995 -0.589235
1794951832 0.44272599999999995 -0.586936
1796437711 0.4398043333333333 -0.5830863333333335
1797923590 0.4395483333333334 -0.5797146666666667
1799409469 0.43474133333333337 -0.5789793333333333
1800895348 0.43786600000000003 -0.5789593333333333
1802381227 0.43668100000000004 -0.5821329999999999
1803867106 0.436711 -0.5853683333333334
1805352985 0.4371406666666666 -0.587671
1806838864 0.43926333333333334 -0.5865636666666667
1808324743 0.4435273333333334 -0.5856243333333334
1809810622 0.4402716666666667 -0.5886816666666667
1811296501 0.44005133333333335 -0.5885066666666666
1812782380 0.44162666666666667 -0.5895946666666666
1814268259 0.441555 -0.5888986666666667
1815754138 0.439761 -0.5877936666666667
1817240017 0.441635 -0.5871399999999999
1818725896 0.438887 -0.5856643333333333
1820211775 0.44006566666666663 -0.5851113333333334
1821697654 0.4324453333333333 -0.5850936666666666
1823183533 0.4360943333333333 -0.5830106666666666
1824669412 0.43245833333333333 -0.5806186666666666
1826155291 0.42754166666666665 -0.5804976666666667
1827641170 0.42896399999999996 -0.5760353333333333
1829127049 0.42469599999999996 -0.572524
1830612928 0.4520573333333333 -0.585711
1832098807 0.4270676666666667 -0.5755073333333334
1833584686 0.43393333333333334 -0.5788086666666666
1835070565 0.4285096666666666 -0.5802063333333333
1836556444 0.42579300000000003 -0.5830836666666667
1838042323 0.429619 -0.585897
1839528202 0.42681299999999994 -0.5852566666666666
1841014081 0.4306813333333333 -0.5879880000000001
1842499960 0.428699 -0.5867283333333333
1843985839 0.4285393333333333 -0.5886316666666667
1845471718 0.428968 -0.5907996666666667
1846957597 0.4267053333333333 -0.5895516666666667
1848443476 0.4270773333333333 -0.5874843333333333
1849929355 0.42671833333333337 -0.5884433333333333
1851415234 0.42335233333333333 -0.5897886666666666
1852901113 0.4167956666666666 -0.5859346666666667
1854386992 0.42402 -0.5840276666666667
1855872871 0.41998566666666665 -0.583133
1857358750 0.4205189999999999 -0.581389
1858844629 0.4161643333333333 -0.578178
1860330508 0.4145393333333333 -0.5765693333333334
1861816387 0.417756 -0.5797889999999999
1863302266 0.4157233333333334 -0.5835823333333333
1864788145 0.415642 -0.5854876666666667
1866274024 0.4193343333333333 -0.585566
1867759903 0.41705400000000004 -0.58889
1869245782 0.421981 -0.5902343333333333
1870731661 0.4216626666666667 -0.5902936666666667
1872217540 0.4218866666666667 -0.590881
1873703419 0.41990799999999995 -0.5927283333333333
1875189298 0.4220893333333333 -0.5915536666666666
1876675177 0.42214766666666664 -0.5901776666666667
1878161056 0.4184756666666667 -0.592372
1879646935 0.4207893333333333 -0.5898896666666668
1881132814 0.43242566666666665 -0.5860556666666666
1882618693 0.4199736666666667 -0.5873573333333333
1884104572 0.4186376666666667 -0.5891496666666667
1885590451 0.415808 -0.5846103333333333
1887076330 0.4151656666666667 -0.5816013333333333
1888562209 0.41627366666666665 -0.5777559999999999
1890048088 0.41252666666666665 -0.5775639999999999
1891533967 0.410161 -0.5793240000000001
1893019846 0.4107186666666667 -0.583541
1894505725 0.41068533333333335 -0.5852126666666666
1895991604 0.41567966666666667 -0.5833590000000001
1897477483 0.41261600000000004 -0.5864653333333334
1898963362 0.4168353333333334 -0.586202
1900449241 0.41318866666666665 -0.5878036666666667
1901935120 0.41563066666666665 -0.5881203333333334
1903420999 0.4157756666666666 -0.587227
1904906878 0.4171133333333333 -0.5867736666666666
1906392757 0.416725 -0.5855346666666666
1907878636 0.41638200000000003 -0.5862343333333334
1909364515 0.41588200000000003 -0.5823066666666668
1910850394 0.4080626666666667 -0.5862233333333333
1912336273 0.4130276666666666 -0.580764
1913822152 0.40529966666666667 -0.5821216666666666
1915308031 0.41237066666666666 -0.5739196666666667
1916793910 0.40226333333333336 -0.5795106666666666
1918279789 0.4072516666666666 -0.5707953333333333
1919765668 0.400545 -0.5727736666666666
1921251547 0.4039986666666667 -0.570618
1922737426 0.39944166666666664 -0.5771686666666667
1924223305 0.40639566666666666 -0.5755556666666667
1925709184 0.3999253333333333 -0.5821273333333333
1927195063 0.40785 -0.5790706666666666
1928680942 0.40310766666666664 -0.5857610000000001
1930166821 0.408361 -0.5852346666666666
1931652700 0.401001 -0.5860759999999999
1933138579 0.4100263333333333 -0.5828
1934624458 0.4023946666666666 -0.5883266666666668
1936110337 0.41116766666666665 -0.581584
1937596216 0.40188 -0.586792
1939082095 0.4059716666666667 -0.5830513333333333
1940567974 0.40058666666666665 -0.5871276666666667
1942053853 0.40655033333333335 -0.5805526666666667
1943539732 0.39680966666666667 -0.5857656666666666
1945025611 0.404158 -0.578427
1946511490 0.39393233333333333 -0.5813106666666666
1947997369 0.40011766666666665 -0.5753713333333333
1949483248 0.3911016666666667 -0.5766893333333333
1950969127 0.3948856666666667 -0.5756616666666666
1952455006 0.3948926666666666 -0.5760550000000001
1953940885 0.3943353333333333 -0.5818146666666667
1955426764 0.39527666666666667 -0.5810670000000001
1956912643 0.3979533333333333 -0.5814343333333333
1958398522 0.3979276666666667 -0.5839216666666666
1959884401 0.39583166666666664 -0.5862123333333333
1961370280 0.39731133333333335 -0.58652
1962856159 0.3968973333333334 -0.586241
1964342038 0.39456700000000006 -0.5879443333333333
1965827917 0.39305066666666666 -0.5882029999999999
1967313796 0.39927533333333337 -0.5836359999999999
1968799675 0.3949576666666666 -0.5848223333333333
1970285554 0.3939486666666667 -0.5854626666666667
1971771433 0.397713 -0.5802783333333333
1973257312 0.39182399999999995 -0.579641
1974743191 0.391862 -0.577006
1976229070 0.388159 -0.5776596666666666
1977714949 0.387318 -0.5741126666666667
1979200828 0.3854476666666667 -0.5731133333333333
1980686707 0.38503899999999996 -0.572898
1982172586 0.38409866666666664 -0.576612
1983658465 0.38601633333333335 -0.5773883333333333
1985144344 0.3838913333333333 -0.580485
1986630223 0.3873416666666667 -0.5810296666666667
1988116102 0.38631666666666664 -0.5816359999999999
1989601981 0.38089899999999993 -0.581213
1991087860 0.38778500000000005 -0.5821516666666667
1992573739 0.38574833333333336 -0.5867643333333333
1994059618 0.38818400000000003 -0.5846779999999999
1995545497 0.3881896666666667 -0.5843956666666666
1997031376 0.3862463333333333 -0.5831513333333334
1998517255 0.3815733333333333 -0.5855713333333333
2000003134 0.38387866666666665 -0.5841213333333333
2001489013 0.3849123333333333 -0.5817333333333333
2002974892 0.3826583333333333 -0.581232
2004460771 0.38151466666666667 -0.579205
2005946650 0.381545 -0.5785293333333333
2007432529 0.37656833333333334 -0.5762126666666666
2008918408 0.3757736666666667 -0.5727650000000001
2010404287 0.3748856666666667 -0.5735103333333333
2011890166 0.37614733333333333 -0.5752916666666666
2013376045 0.3766316666666667 -0.5768103333333333
2014861924 0.37767833333333334 -0.5800613333333334
2016347803 0.37779766666666664 -0.5812003333333333
2017833682 0.37711933333333336 -0.583478
2019319561 0.37643333333333334 -0.5859496666666666
2020805440 0.3771063333333333 -0.586303
2022291319 0.3809753333333334 -0.5842423333333334
2023777198 0.379705 -0.586665
2025263077 0.382643 -0.5838593333333333
2026748956 0.3789116666666666 -0.5890266666666667
2028234835 0.380266 -0.5847213333333333
2029720714 0.379691 -0.5846076666666666
2031206593 0.3875133333333333 -0.5808766666666667
2032692472 0.37854499999999996 -0.5831676666666666
2034178351 0.38023999999999997 -0.5793726666666666
2035664230 0.377251 -0.578972
2037150109 0.3740016666666666 -0.5778396666666666
2038635988 0.374701 -0.5751036666666666
2040121867 0.37212033333333333 -0.573473
2041607746 0.37354299999999996 -0.574014
2043093625 0.3721583333333333 -0.5778846666666667
2044579504 0.37026699999999996 -0.5801843333333333
2046065383 0.3751946666666666 -0.577768
2047551262 0.3739943333333333 -0.5808763333333333
2049037141 0.37201466666666666 -0.581763
2050523020 0.3739456666666667 -0.5821413333333334
2052008899 0.372851 -0.5832863333333334
2053494778 0.3704446666666666 -0.5837469999999999
2054980657 0.3712253333333333 -0.5855756666666666
2056466536 0.370419 -0.58479
2057952415 0.37059833333333336 -0.581244
2059438294 0.3702163333333333 -0.5800549999999999
2060924173 0.3687133333333333 -0.5791843333333334
2062410052 0.36712000000000006 -0.577382
2063895931 0.36305533333333334 -0.5796983333333333
2065381810 0.36172633333333337 -0.5751706666666666
2066867689 0.36237666666666674 -0.5726373333333333
2068353568 0.3601943333333333 -0.5714290000000001
2069839447 0.35922766666666667 -0.5680733333333333
2071325326 0.3570693333333333 -0.5726533333333333
2072811205 0.3570276666666667 -0.5750353333333333
2074297084 0.36032100000000006 -0.5757493333333333
2075782963 0.36081199999999997 -0.578144
2077268842 0.360489 -0.5806243333333333
2078754721 0.3613296666666667 -0.58249
2080240600 0.3616783333333333 -0.5832356666666666
2081726479 0.36518733333333336 -0.5824706666666667
2083212358 0.36569 -0.5832023333333334
2084698237 0.3629536666666667 -0.5841833333333334
2086184116 0.36396766666666663 -0.5832966666666667
2087669995 0.36671933333333334 -0.5814453333333334
2089155874 0.3679133333333333 -0.5806886666666666
2090641753 0.3651516666666667 -0.5813926666666666
2092127632 0.3638683333333333 -0.5803023333333334
2093613511 0.36289566666666667 -0.5793076666666667
2095099390 0.3613963333333334 -0.5771133333333333
2096585269 0.3595246666666667 -0.5753853333333333
2098071148 0.3603753333333333 -0.5717289999999999
2099557027 0.357608 -0.570725
2101042906 0.35999033333333336 -0.5698066666666666
2102528785 0.3585253333333333 -0.573918
2104014664 0.3609626666666667 -0.575862
2105500543 0.3611136666666666 -0.579327
2106986422 0.362102 -0.578914
2108472301 0.36319433333333334 -0.580871
2109958180 0.364314 -0.5825406666666666
2111444059 0.3639733333333333 -0.5836653333333334
2112929938 0.36342433333333335 -0.583752
2114415817 0.3624343333333333 -0.5833596666666666
2115901696 0.36596366666666663 -0.5832766666666667
2117387575 0.36381099999999994 -0.5834696666666667
2118873454 0.34621266666666667 -0.5733086666666667
2120359333 0.36208 -0.5809586666666666
2121845212 0.36152999999999996 -0.5798633333333333
2123331091 0.3616106666666667 -0.5781866666666667
2124816970 0.35858866666666667 -0.5771306666666666
2126302849 0.35759433333333335 -0.576451
2127788728 0.35883000000000004 -0.573334
2129274607 0.3544793333333333 -0.5714563333333333
2130760486 0.3520016666666667 -0.5732500000000001
2132246365 0.35629666666666665 -0.5723983333333333
2133732244 0.355372 -0.5756836666666667
2135218123 0.35504833333333335 -0.5777236666666666
2136704002 0.35368299999999997 -0.5798256666666667
2138189881 0.35508433333333334 -0.5811773333333333
2139675760 0.35408666666666666 -0.5814933333333333
2141161639 0.35606199999999993 -0.5818033333333333
2142647518 0.35099233333333335 -0.5846626666666667
2144133397 0.353747 -0.5828656666666667
2145619276 0.3541336666666666 -0.5827160000000001
2147105155 0.35229333333333335 -0.5844299999999999
2148591034 0.35241999999999996 -0.5824556666666666
2150076913 0.3525066666666667 -0.5817773333333333
2151562792 0.349918 -0.581881
2153048671 0.34918566666666667 -0.5807086666666668
2154534550 0.34482066666666666 -0.5805273333333334
2156020429 0.346485 -0.576903
2157506308 0.3417696666666667 -0.5753326666666667
2158992187 0.3425763333333333 -0.5725646666666666
2160478066 0.339946 -0.571028
2161963945 0.34055100000000005 -0.575223
2163449824 0.341856 -0.5764126666666666
2164935703 0.34378400000000003 -0.5814116666666668
2166421582 0.343887 -0.5818803333333333
2167907461 0.346717 -0.5818926666666667
2169393340 0.34486333333333336 -0.5827629999999999
2170879219 0.34510599999999997 -0.5853630000000001
2172365098 0.335281 -0.5766096666666667
2173850977 0.34993466666666667 -0.5829293333333333
2175336856 0.34875133333333336 -0.5828233333333332
2176822735 0.347258 -0.5825636666666667
2178308614 0.347509 -0.5838526666666667
2179794493 0.34442833333333334 -0.5820230000000001
2181280372 0.34535733333333335 -0.581517
2182766251 0.3471846666666667 -0.5808703333333334
2184252130 0.3452423333333334 -0.5781700000000001
2185738009 0.34387233333333334 -0.5778409999999999
2187223888 0.34265966666666664 -0.5735676666666666
2188709767 0.3428773333333333 -0.57208
2190195646 0.3385126666666667 -0.57018
2191681525 0.3405846666666667 -0.571252
2193167404 0.3436706666666667 -0.573199
2194653283 0.34421100000000004 -0.574806
2196139162 0.34490400000000004 -0.5777216666666667
2197625041 0.3466066666666667 -0.5781876666666667
2199110920 0.34851866666666664 -0.5782536666666666
2200596799 0.3461343333333333 -0.5790523333333334
2202082678 0.3465566666666666 -0.5815013333333333
2203568557 0.3486356666666666 -0.577031
2205054436 0.3472760000000001 -0.5792643333333334
2206540315 0.344092 -0.5781023333333333
2208026194 0.36992833333333336 -0.5632670000000001
2209512073 0.35053266666666666 -0.5757196666666667
2210997952 0.35024066666666664 -0.5733066666666667
2212483831 0.34583800000000003 -0.5736963333333334
2213969710 0.3464336666666667 -0.5704866666666667
2215455589 0.34709366666666663 -0.569252
2216941468 0.3423153333333333 -0.5667303333333333
2218427347 0.3449136666666666 -0.5638040000000001
2219913226 0.338808 -0.560298
2221399105 0.34051799999999993 -0.5635623333333334
2222884984 0.340486 -0.5657139999999999
2224370863 0.33950499999999995 -0.5706353333333333
2225856742 0.34133199999999997 -0.5717226666666667
2227342621 0.3420016666666667 -0.5719563333333334
2228828500 0.3411923333333333 -0.5735843333333334
2230314379 0.3403176666666667 -0.5748176666666667
2231800258 0.3441993333333333 -0.5782876666666666
2233286137 0.342243 -0.576681
2234772016 0.34411733333333333 -0.5754146666666666
2236257895 0.341804 -0.575673
2237743774 0.3423696666666667 -0.5766396666666667
2239229653 0.34044800000000003 -0.5761346666666667
2240715532 0.343278 -0.5766539999999999
2242201411 0.34263133333333334 -0.5740793333333334
2243687290 0.3409723333333334 -0.5719956666666667
2245173169 0.340616 -0.5709403333333334
2246659048 0.33845333333333333 -0.5704883333333334
2248144927 0.33775466666666665 -0.5678930000000001
2249630806 0.33755966666666665 -0.5656046666666668
2251116685 0.3363873333333333 -0.5651226666666666
2252602564 0.33742266666666665 -0.565738
2254088443 0.33693033333333333 -0.5684466666666667
2255574322 0.3368793333333333 -0.5713503333333333
2257060201 0.33406399999999997 -0.573179
2258546080 0.337531 -0.573963
2260031959 0.33337666666666665 -0.5723516666666666
2261517838 0.335212 -0.5727126666666668
2263003717 0.33483900000000005 -0.5746263333333334
2264489596 0.33483466666666667 -0.5748346666666667
2265975475 0.3348706666666667 -0.5712606666666667
2267461354 0.332953 -0.5728563333333333
2268947233 0.33028466666666667 -0.5717203333333334
2270433112 0.33356566666666665 -0.57141
2271918991 0.32552833333333336 -0.5711933333333333
2273404870 0.3283846666666667 -0.56799
2274890749 0.32885600000000004 -0.567228
2276376628 0.3125903333333333 -0.5413743333333333
2277862507 0.3228263333333334 -0.5595483333333333
2279348386 0.3222773333333333 -0.5625993333333333
2280834265 0.324663 -0.5596093333333334
2282320144 0.324942 -0.5656036666666667
2283806023 0.32645066666666667 -0.5658066666666667
2285291902 0.32370533333333334 -0.5665776666666668
2286777781 0.32130166666666665 -0.5662143333333334
2288263660 0.3253393333333333 -0.569668
2289749539 0.32195466666666667 -0.5693446666666667
2291235418 0.32618600000000003 -0.568966
2292721297 0.32675366666666666 -0.570872
2294207176 0.3231603333333333 -0.569912
2295693055 0.331992 -0.568382
2297178934 0.33116133333333336 -0.5652379999999999
2298664813 0.3304256666666667 -0.5667453333333333
2300150692 0.32865933333333336 -0.5662229999999999
2301636571 0.32814000000000004 -0.5666143333333333
2303122450 0.32691733333333334 -0.5678939999999999
2304608329 0.325787 -0.5651229999999999
2306094208 0.32227466666666665 -0.560618
2307580087 0.3239653333333333 -0.562872
2309065966 0.3196563333333333 -0.5587653333333332
2310551845 0.3206656666666667 -0.5578833333333333
2312037724 0.32238700000000003 -0.5609166666666666
2313523603 0.32785 -0.5618633333333333
2315009482 0.32398166666666667 -0.5660683333333333
2316495361 0.32547 -0.5646333333333333
2317981240 0.3260903333333333 -0.5677523333333333
2319467119 0.32914266666666664 -0.568369
2320952998 0.32597400000000004 -0.5670193333333333
2322438877 0.33451533333333333 -0.5683760000000001
2323924756 0.32808733333333334 -0.571903
2325410635 0.3288556666666667 -0.570461
2326896514 0.33175499999999997 -0.5714093333333333
2328382393 0.3311223333333333 -0.571959
2329868272 0.347176 -0.5702306666666667
2331354151 0.3194346666666667 -0.573549
2332840030 0.32889300000000005 -0.5693513333333333
2334325909 0.3299806666666667 -0.5690533333333333
2335811788 0.329152 -0.5666899999999999
2337297667 0.32469300000000006 -0.5668259999999999
2338783546 0.32717333333333337 -0.5608799999999999
2340269425 0.32471933333333336 -0.562003
2341755304 0.3271656666666667 -0.5649013333333333
2343241183 0.32108033333333336 -0.5684493333333333
2344727062 0.322797 -0.5702496666666667
2346212941 0.325104 -0.5693753333333333
2347698820 0.32764299999999996 -0.5711156666666667
2349184699 0.32412166666666664 -0.574161
2350670578 0.3266833333333334 -0.5746976666666667
2352156457 0.3270673333333333 -0.572968
2353642336 0.3242676666666667 -0.5729133333333333
2355128215 0.323132 -0.5755056666666667
2356614094 0.32400066666666666 -0.5741330000000001
2358099973 0.31837200000000004 -0.574923
2359585852 0.323435 -0.5711193333333333
2361071731 0.314184 -0.5743243333333333
2362557610 0.32525366666666666 -0.5688063333333333
2364043489 0.3137733333333334 -0.5734723333333333
2365529368 0.314625 -0.5677306666666666
2367015247 0.309853 -0.567548
2368501126 0.30741966666666665 -0.566604
2369987005 0.30055366666666666 -0.566267
2371472884 0.309359 -0.5683816666666667
2372958763 0.3050913333333333 -0.5692956666666666
2374444642 0.30706700000000003 -0.5715466666666668
2375930521 0.309861 -0.5715256666666667
2377416400 0.31212733333333337 -0.5692503333333333
2378902279 0.30952433333333335 -0.5763853333333333
2380388158 0.3129846666666667 -0.5733046666666667
2381874037 0.31566999999999995 -0.575288
2383359916 0.3136613333333333 -0.5759983333333334
2384845795 0.31436233333333335 -0.5744576666666666
2386331674 0.3175143333333333 -0.5718323333333334
2387817553 0.31270166666666666 -0.5718219999999999
2389303432 0.31103966666666666 -0.574328
2390789311 0.3124496666666667 -0.5725356666666667
2392275190 0.31526899999999997 -0.5689286666666667
2393761069 0.31337733333333334 -0.5667816666666666
2395246948 0.31020033333333336 -0.5657013333333333
2396732827 0.3077146666666667 -0.5638613333333333
2398218706 0.3092646666666667 -0.5592616666666667
2399704585 0.3065023333333334 -0.5565043333333334
2401190464 0.30954533333333334 -0.5584023333333333
2402676343 0.309687 -0.5646110000000001
2404162222 0.309762 -0.5638593333333333
2405648101 0.30802433333333334 -0.5668073333333333
2407133980 0.305261 -0.5730776666666667
2408619859 0.30476166666666665 -0.5701170000000001
2410105738 0.3071406666666667 -0.5700306666666667
2411591617 0.30909 -0.5713820000000001
2413077496 0.30891300000000005 -0.5697443333333333
2414563375 0.30711933333333336 -0.574871
2416049254 0.3087523333333333 -0.5736856666666666
2417535133 0.30755533333333335 -0.5708099999999999
2419021012 0.3224403333333334 -0.5710076666666667
2420506891 0.30245833333333333 -0.5761386666666666
2421992770 0.3058716666666666 -0.5736293333333333
2423478649 0.300313 -0.5676116666666667
2424964528 0.29968633333333333 -0.5711996666666667
2426450407 0.30024300000000004 -0.5665410000000001
2427936286 0.30022166666666666 -0.5678896666666667
2429422165 0.29158033333333333 -0.5661926666666667
2430908044 0.3019336666666667 -0.5689356666666666
2432393923 0.3032456666666667 -0.5682429999999999
2433879802 0.30246633333333334 -0.5662240000000001
2435365681 0.3043956666666667 -0.5715886666666666
2436851560 0.307328 -0.5717773333333334
2438337439 0.3021176666666667 -0.5758626666666666
2439823318 0.3075386666666667 -0.5697246666666667
2441309197 0.3056296666666667 -0.572367
2442795076 0.30593833333333337 -0.5707516666666667
2444280955 0.3059923333333333 -0.5717706666666666
2445766834 0.30337333333333333 -0.5728353333333334
2447252713 0.3078463333333333 -0.5709393333333334
2448738592 0.305661 -0.5683043333333333
2450224471 0.303279 -0.5671586666666667
2451710350 0.30557166666666663 -0.5665863333333333
2453196229 0.3030333333333334 -0.5684926666666666
2454682108 0.30450533333333335 -0.5580016666666667
2456167987 0.2945356666666667 -0.5610769999999999
2457653866 0.29101166666666667 -0.5603603333333333
2459139745 0.29071166666666665 -0.5586313333333334
2460625624 0.2889903333333333 -0.5588150000000001
2462111503 0.2879276666666667 -0.5606970000000001
2463597382 0.2918286666666667 -0.5650633333333334
2465083261 0.29028766666666667 -0.5615926666666667
2466569140 0.28898766666666664 -0.5631499999999999
2468055019 0.2918943333333333 -0.5675593333333334
2469540898 0.29342266666666666 -0.5685479999999999
2471026777 0.29378566666666667 -0.5702673333333333
2472512656 0.2905816666666667 -0.5652206666666667
2473998535 0.29346300000000003 -0.5701253333333333
2475484414 0.29046299999999997 -0.572411
2476970293 0.290843 -0.5689816666666666
2478456172 0.2917416666666666 -0.5745903333333333
2479942051 0.2883303333333333 -0.5692383333333334
2481427930 0.2902066666666667 -0.5689853333333333
2482913809 0.28929 -0.5640709999999999
2484399688 0.2887943333333334 -0.562561
2485885567 0.28667666666666664 -0.5615896666666668
2487371446 0.28377066666666667 -0.5602543333333334
2488857325 0.28327299999999994 -0.5586709999999999
2490343204 0.28308633333333333 -0.557685
2491829083 0.285258 -0.5592716666666667
2493314962 0.28463133333333335 -0.5616776666666666
2494800841 0.28887100000000004 -0.5632176666666667
2496286720 0.2883706666666667 -0.5668073333333333
2497772599 0.28675599999999996 -0.5679866666666666
2499258478 0.290114 -0.5683393333333334
2500744357 0.288763 -0.570091
2502230236 0.2913806666666667 -0.5713026666666666
2503716115 0.294768 -0.5693166666666667
2505201994 0.2923466666666667 -0.5697643333333334
2506687873 0.29468 -0.5705046666666668
2508173752 0.2949253333333333 -0.5681760000000001
2509659631 0.2932976666666667 -0.5677723333333334
2511145510 0.2937543333333333 -0.5667493333333333
2512631389 0.29372533333333334 -0.5649973333333334
2514117268 0.294504 -0.5651883333333333
2515603147 0.29376566666666665 -0.5620043333333333
2517089026 0.28875066666666666 -0.5593549999999999
2518574905 0.290667 -0.557442
2520060784 0.29069666666666666 -0.5558
2521546663 0.29080533333333336 -0.5579633333333333
2523032542 0.29131633333333334 -0.5606933333333334
2524518421 0.29264366666666664 -0.5630793333333334
2526004300 0.290405 -0.5628116666666667
2527490179 0.29040266666666664 -0.564726
2528976058 0.290867 -0.5660903333333334
2530461937 0.2927126666666667 -0.5668076666666667
2531947816 0.292089 -0.567319
2533433695 0.286677 -0.5683509999999999
2534919574 0.290597 -0.569086
2536405453 0.289008 -0.5699179999999999
2537891332 0.290172 -0.5675370000000001
2539377211 0.288233 -0.5686386666666666
2540863090 0.28968700000000003 -0.5667743333333334
2542348969 0.2851533333333333 -0.566549
2543834848 0.286858 -0.5648546666666667
2545320727 0.28371 -0.563015
2546806606 0.2823056666666667 -0.5617636666666667
2548292485 0.27700033333333335 -0.5605126666666667
2549778364 0.27994300000000005 -0.5574713333333333
2551264243 0.282009 -0.5593526666666666
2552750122 0.2779576666666667 -0.5637933333333333
2554236001 0.2779746666666667 -0.5674880000000001
2555721880 0.2817863333333333 -0.568659
2557207759 0.2824146666666667 -0.5676576666666667
2558693638 0.28114333333333336 -0.5703346666666667
2560179517 0.2811126666666666 -0.5729069999999999
2561665396 0.278202 -0.5768163333333333
2563151275 0.27850099999999994 -0.5731713333333333
2564637154 0.27791933333333335 -0.571654
2566123033 0.2795126666666667 -0.5753363333333333
2567608912 0.27579499999999996 -0.575838
2569094791 0.27818633333333337 -0.5748176666666667
2570580670 0.2793673333333333 -0.5726393333333334
2572066549 0.27723533333333333 -0.5737643333333333
2573552428 0.2751753333333333 -0.5719486666666667
2575038307 0.27433066666666667 -0.5738843333333333
2576524186 0.27259833333333333 -0.5676383333333334
2578010065 0.273552 -0.5699276666666666
2579495944 0.26932 -0.568418
2580981823 0.2706866666666667 -0.5671763333333333
2582467702 0.27314900000000003 -0.567949
2583953581 0.27248599999999995 -0.570083
2585439460 0.27448733333333336 -0.5680290000000001
2586925339 0.277445 -0.5680706666666667
2588411218 0.274418 -0.56657
2589897097 0.27627 -0.5680076666666668
2591382976 0.280336 -0.56454
2592868855 0.27513733333333334 -0.566385
2594354734 0.27101333333333333 -0.5654469999999999
2595840613 0.27989766666666666 -0.5626363333333334
2597326492 0.2777756666666667 -0.564383
2598812371 0.27726433333333333 -0.5623586666666667
2600298250 0.27324433333333337 -0.5598556666666666
2601784129 0.27128766666666665 -0.557
2603270008 0.27177866666666667 -0.556316
2604755887 0.26870499999999997 -0.5522583333333334
2606241766 0.2716786666666667 -0.552049
2607727645 0.26686133333333334 -0.5492303333333334
2609213524 0.26452733333333334 -0.5452156666666667
2610699403 0.26070533333333334 -0.5434213333333333
2612185282 0.260845 -0.5444453333333333
2613671161 0.2655693333333333 -0.548466
2615157040 0.26782333333333336 -0.5505459999999999
2616642919 0.26654066666666665 -0.551359
2618128798 0.265161 -0.5522296666666667
2619614677 0.2684313333333333 -0.5546453333333333
2621100556 0.267944 -0.5555143333333333
2622586435 0.27682566666666664 -0.55457
2624072314 0.2655976666666667 -0.5547923333333333
2625558193 0.2687933333333333 -0.5539163333333333
2627044072 0.26616233333333333 -0.5509940000000001
2628529951 0.2642466666666667 -0.5522806666666666
2630015830 0.2681536666666667 -0.551885
2631501709 0.26570133333333334 -0.5512466666666667
2632987588 0.26737866666666665 -0.5508623333333333
2634473467 0.2625976666666667 -0.5480906666666667
2635959346 0.26344033333333333 -0.545805
2637445225 0.259357 -0.5466813333333334
2638931104 0.26277100000000003 -0.5446446666666667
2640416983 0.25769133333333333 -0.541591
2641902862 0.2609763333333333 -0.5493359999999999
2643388741 0.254705 -0.549443
2644874620 0.26079600000000003 -0.5553323333333334
2646360499 0.260482 -0.5530866666666666
2647846378 0.2626646666666666 -0.5565253333333334
2649332257 0.2605193333333333 -0.5557816666666667
2650818136 0.26197200000000004 -0.5588293333333333
2652304015 0.262667 -0.559463
2653789894 0.26366399999999995 -0.558869
2655275773 0.264078 -0.558843
2656761652 0.2657603333333333 -0.561753
2658247531 0.26432300000000003 -0.5599846666666667
2659733410 0.267865 -0.5591146666666665
2661219289 0.26015866666666665 -0.5610446666666666
2662705168 0.257932 -0.5623903333333333
2664191047 0.25847166666666666 -0.5567276666666666
2665676926 0.25988066666666665 -0.5579153333333333
2667162805 0.25601066666666666 -0.556547
2668648684 0.2562653333333333 -0.5558966666666666
2670134563 0.25207 -0.5563326666666667
2671620442 0.26133866666666666 -0.5550076666666667
2673106321 0.2632286666666667 -0.559341
2674592200 0.26365600000000006 -0.5595060000000001
2676078079 0.2544763333333333 -0.5588973333333334
2677563958 0.26537000000000005 -0.5612713333333333
2679049837 0.259109 -0.5619553333333333
2680535716 0.266121 -0.560625
2682021595 0.2634473333333333 -0.5622276666666667
2683507474 0.259499 -0.5606893333333334
2684993353 0.26270200000000005 -0.561767
2686479232 0.2636906666666667 -0.5568393333333334
2687965111 0.26386200000000004 -0.5567713333333333
2689450990 0.26813400000000004 -0.557237
2690936869 0.256927 -0.5581969999999999
2692422748 0.26063433333333336 -0.5554756666666667
2693908627 0.2595206666666667 -0.5524456666666667
2695394506 0.261172 -0.5505363333333334
2696880385 0.254771 -0.549122
2698366264 0.264353 -0.5459636666666667
2699852143 0.25251333333333337 -0.5419756666666667
2701338022 0.24744733333333332 -0.5469403333333333
2702823901 0.255804 -0.547041
2704309780 0.25681266666666663 -0.549546
2705795659 0.25828466666666666 -0.5505313333333333
2707281538 0.26616066666666666 -0.5505073333333333
2708767417 0.266662 -0.5501923333333334
2710253296 0.27395566666666665 -0.5491776666666667
2711739175 0.2695863333333333 -0.550669
2713225054 0.26656233333333335 -0.5540023333333334
2714710933 0.266818 -0.55206
2716196812 0.2652776666666667 -0.5518113333333333
2717682691 0.2696073333333333 -0.552299
2719168570 0.24828833333333333 -0.5428663333333333
2720654449 0.2704393333333333 -0.543306
2722140328 0.26796400000000004 -0.5441906666666667
2723626207 0.26870499999999997 -0.5422250000000001
2725112086 0.27612533333333333 -0.538304
2726597965 0.2695456666666667 -0.5390526666666666
2728083844 0.26380433333333336 -0.5379216666666667
2729569723 0.2693876666666667 -0.5653563333333333
2731055602 0.2647473333333334 -0.5363393333333334
2732541481 0.261066 -0.5408956666666667
2734027360 0.26060900000000004 -0.542011
2735513239 0.2665146666666667 -0.5428206666666666
2736999118 0.263598 -0.5476120000000001
2738484997 0.25719633333333336 -0.549395
2739970876 0.26094433333333333 -0.5509303333333334
2741456755 0.2583853333333333 -0.5538666666666666
2742942634 0.2564723333333333 -0.5556413333333333
2744428513 0.251244 -0.558971
2745914392 0.25337066666666663 -0.5586506666666667
2747400271 0.2520886666666667 -0.5599333333333334
2748886150 0.25507366666666664 -0.5572856666666667
2750372029 0.25649066666666664 -0.558896
2751857908 0.25334266666666666 -0.55885
2753343787 0.252083 -0.5606856666666666
2754829666 0.24966133333333332 -0.5596949999999999
2756315545 0.2479016666666667 -0.5608003333333332
2757801424 0.243217 -0.561574
2759287303 0.24080733333333335 -0.5565019999999999
2760773182 0.24356933333333333 -0.5596476666666667
2762259061 0.24248333333333336 -0.5621856666666667
2763744940 0.24706133333333333 -0.562007
2765230819 0.24998733333333334 -0.5663653333333333
2766716698 0.258099 -0.5619053333333334
2768202577 0.24858733333333335 -0.5711596666666666
2769688456 0.25177200000000005 -0.5669776666666667
2771174335 0.25221266666666664 -0.5676513333333334
2772660214 0.25125033333333335 -0.5704693333333334
2774146093 0.25399933333333335 -0.5676123333333334
2775631972 0.248652 -0.5690356666666666
2777117851 0.248949 -0.5699733333333333
2778603730 0.256018 -0.5696623333333334
2780089609 0.25258433333333336 -0.566844
2781575488 0.25138266666666664 -0.563531
2783061367 0.252123 -0.5595370000000001
2784547246 0.2528683333333333 -0.5606786666666667
2786033125 0.2545096666666667 -0.5568956666666667
2787519004 0.2548303333333333 -0.5578703333333334
2789004883 0.24933000000000002 -0.551498
2790490762 0.25007833333333335 -0.5510120000000001
2791976641 0.25212966666666664 -0.5464350000000001
2793462520 0.2510073333333333 -0.5560726666666667
2794948399 0.2503963333333333 -0.5577373333333333
2796434278 0.2529573333333333 -0.5579770000000001
2797920157 0.2504943333333334 -0.5611493333333333
2799406036 0.25238666666666665 -0.5617733333333333
2800891915 0.255072 -0.5608866666666666
2802377794 0.24993333333333334 -0.5598213333333333
2803863673 0.250465 -0.5634553333333333
2805349552 0.24955733333333333 -0.562026
2806835431 0.2495683333333333 -0.562998
2808321310 0.24791166666666667 -0.5663436666666667
2809807189 0.24886833333333336 -0.5593116666666667
2811293068 0.246657 -0.5645783333333333
2812778947 0.24542333333333333 -0.5593096666666667
2814264826 0.2462823333333333 -0.5578660000000001
2815750705 0.245605 -0.5548556666666666
2817236584 0.24384766666666666 -0.5527843333333333
2818722463 0.24012633333333333 -0.559272
2820208342 0.24417066666666667 -0.5503213333333333
2821694221 0.23927833333333334 -0.5552996666666666
2823180100 0.24602766666666667 -0.5553233333333333
2824665979 0.24153100000000002 -0.5615899999999999
2826151858 0.245471 -0.562608
2827637737 0.24263766666666667 -0.565063
2829123616 0.24871066666666666 -0.5626916666666667
2830609495 0.24664533333333336 -0.5624106666666666
2832095374 0.23904066666666668 -0.5649353333333332
2833581253 0.24133966666666665 -0.5663543333333333
2835067132 0.2433533333333333 -0.5605143333333333
2836553011 0.24525699999999998 -0.557642
2838038890 0.24378999999999998 -0.5566903333333334
2839524769 0.24335533333333334 -0.556889
2841010648 0.243206 -0.5600153333333333
2842496527 0.24518266666666666 -0.5534343333333333
2843982406 0.24530633333333332 -0.5550499999999999
2845468285 0.24073066666666665 -0.546312
2846954164 0.24200199999999997 -0.543945
2848440043 0.23597166666666666 -0.5416516666666668
2849925922 0.23882266666666666 -0.5369936666666667
2851411801 0.23823533333333335 -0.5366503333333333
2852897680 0.23880066666666666 -0.5426603333333334
2854383559 0.23853966666666668 -0.5428613333333333
2855869438 0.23991366666666666 -0.5477863333333334
2857355317 0.23777000000000004 -0.5438073333333333
2858841196 0.23973733333333333 -0.545091
2860327075 0.23972066666666667 -0.548874
2861812954 0.23860266666666666 -0.5507753333333333
2863298833 0.24078200000000002 -0.5485423333333334
2864784712 0.24199833333333332 -0.5468873333333333
2866270591 0.23886333333333334 -0.5515819999999999
2867756470 0.21862099999999998 -0.5383999999999999
2869242349 0.23776966666666666 -0.5496916666666667
2870728228 0.23883733333333335 -0.5479546666666667
2872214107 0.24002466666666666 -0.5455416666666667
2873699986 0.23891666666666667 -0.5441773333333334
2875185865 0.24121766666666666 -0.5416083333333334
2876671744 0.239667 -0.5423256666666666
2878157623 0.23941866666666667 -0.537724
2879643502 0.24096399999999998 -0.5308959999999999
2881129381 0.23797333333333334 -0.5325296666666667
2882615260 0.23979833333333334 -0.538056
2884101139 0.24370066666666665 -0.539241
2885587018 0.23791099999999998 -0.5449136666666666
2887072897 0.24460166666666663 -0.541369
2888558776 0.24194333333333332 -0.5424246666666667
2890044655 0.236684 -0.5439446666666666
2891530534 0.24089733333333332 -0.54629
2893016413 0.24006133333333335 -0.5469373333333333
2894502292 0.23934199999999997 -0.5490766666666667
2895988171 0.23818833333333334 -0.5461546666666667
2897474050 0.238698 -0.5472223333333334
2898959929 0.239872 -0.5445686666666667
2900445808 0.239829 -0.543601
2901931687 0.23758733333333334 -0.5450586666666667
2903417566 0.23947466666666664 -0.5446816666666666
2904903445 0.23926499999999998 -0.5414943333333334
2906389324 0.2374696666666667 -0.539945
2907875203 0.23931166666666667 -0.5382553333333334
2909361082 0.23655799999999996 -0.5376340000000001
2910846961 0.23546599999999998 -0.5354146666666667
2912332840 0.23285966666666666 -0.5389046666666667
2913818719 0.23707366666666665 -0.5405486666666667
2915304598 0.23378966666666667 -0.543532
2916790477 0.23651 -0.5448973333333335
2918276356 0.23301566666666665 -0.5475896666666666
2919762235 0.23290966666666665 -0.5465243333333333
2921248114 0.23500533333333337 -0.5479676666666667
2922733993 0.23223000000000002 -0.5466193333333332
2924219872 0.23093366666666668 -0.5478073333333333
2925705751 0.23424866666666666 -0.5467176666666665
2927191630 0.22957933333333336 -0.5481553333333333
2928677509 0.22976566666666667 -0.5488719999999999
2930163388 0.2280346666666667 -0.5480843333333333
2931649267 0.22680599999999998 -0.547091
2933135146 0.22394166666666668 -0.5481493333333333
2934621025 0.223503 -0.544249
2936106904 0.22606233333333334 -0.5421093333333332
2937592783 0.22003666666666666 -0.542471
2939078662 0.224679 -0.538622
2940564541 0.21917699999999998 -0.5409446666666667
2942050420 0.21981566666666666 -0.5441429999999999
2943536299 0.222423 -0.5414983333333333
2945022178 0.22118833333333332 -0.5460833333333334
2946508057 0.221252 -0.5462206666666667
2947993936 0.22204566666666667 -0.5470510000000001
2949479815 0.22244933333333336 -0.548886
2950965694 0.22215600000000002 -0.5488959999999999
2952451573 0.22531833333333331 -0.5486373333333333
2953937452 0.2249496666666667 -0.5489656666666667
2955423331 0.22497799999999998 -0.5468413333333334
2956909210 0.225893 -0.5488836666666667
2958395089 0.223054 -0.5464006666666666
2959880968 0.22576666666666667 -0.5434753333333333
2961366847 0.224171 -0.544975
2962852726 0.224343 -0.5417003333333333
2964338605 0.22542766666666667 -0.542935
2965824484 0.22569933333333334 -0.538531
2967310363 0.2245803333333333 -0.5355470000000001
2968796242 0.22433133333333333 -0.5339489999999999
2970282121 0.22166966666666665 -0.5330606666666666
2971768000 0.22146866666666665 -0.5352426666666666
2973253879 0.222039 -0.5377536666666666
2974739758 0.223726 -0.5380176666666666
2976225637 0.220966 -0.5398510000000001
2977711516 0.22110933333333335 -0.5369413333333334
2979197395 0.223437 -0.5388936666666666
2980683274 0.22654 -0.537618
2982169153 0.22654633333333332 -0.5400146666666666
2983655032 0.22413566666666665 -0.5395426666666666
2985140911 0.22351933333333332 -0.5382546666666667
2986626790 0.22552766666666665 -0.53771
2988112669 0.22437933333333335 -0.5363006666666666
2989598548 0.22915299999999997 -0.5366246666666666
2991084427 0.2266703333333333 -0.5340396666666667
2992570306 0.224194 -0.5297883333333333
2994056185 0.22595733333333334 -0.531942
2995542064 0.22430666666666665 -0.530341
2997027943 0.22609366666666667 -0.526237
2998513822 0.22292233333333333 -0.525364
2999999701 0.22371733333333332 -0.5205586666666666
