# HZ S RI R 50
10000 1.1130229999999999 -0.11694033333333335
1495879 0.8685866666666667 1.2864406666666668
2981758 0.5771729999999999 0.6888723333333333
4467637 0.5807350000000001 0.32690233333333335
5953516 0.6507126666666667 0.13800733333333334
7439395 0.7431513333333332 0.012667333333333334
8925274 1.0573533333333334 -0.06228066666666667
10411153 1.097556 0.036386
11897032 1.0870813333333331 0.16829300000000003
13382911 1.020656 0.292818
14868790 0.9179246666666666 0.3822476666666667
16354669 0.8013423333333334 0.423659
17840548 0.6998120000000001 0.4453126666666667
19326427 0.6099169999999999 0.439033
20812306 0.5361006666666667 0.42091300000000004
22298185 0.47665966666666665 0.396634
23784064 0.42811099999999996 0.3709736666666667
25269943 0.389143 0.34485866666666665
26755822 0.357602 0.3196583333333333
28241701 0.33138266666666666 0.29563433333333333
29727580 0.3096483333333333 0.273742
31213459 0.3199516666666667 0.2590523333333333
32699338 0.33668066666666663 0.245147
34185217 0.3520433333333333 0.2313656666666667
35671096 0.367589 0.21540433333333334
37156975 0.3832046666666667 0.196971
38642854 0.3972200000000001 0.18034066666666668
40128733 0.41179366666666667 0.157413
41614612 0.4244326666666667 0.14632699999999998
43100491 0.43834166666666663 0.12416366666666667
44586370 0.4516833333333334 0.10629133333333333
46072249 0.4654943333333333 0.08282766666666667
47558128 0.480156 0.066207
49044007 0.496688 0.04994766666666667
50529886 0.5157186666666665 0.03578133333333334
52015765 0.5375166666666666 0.006639666666666666
53501644 0.5667413333333333 -0.011019333333333334
54987523 0.605048 -0.03484866666666667
56473402 0.658894 -0.07134333333333333
57959281 0.7470186666666668 -0.08480399999999999
59445160 0.9040256666666666 -0.059549333333333336
60931039 0.9986063333333334 -0.025568666666666667
62416918 1.0021933333333335 -0.033764999999999996
63902797 1.0056333333333332 -0.042784333333333334
65388676 1.008434 -0.05134333333333333
66874555 1.0106143333333333 -0.046103666666666675
68360434 1.0065686666666667 -0.13082633333333335
69846313 1.0147576666666664 -0.023014666666666666
71332192 1.0163506666666666 -0.017485
72818071 1.016599 -0.062034
74303950 1.0172679999999998 -0.05214666666666667
75789829 1.016811 0.016172666666666665
77275708 1.0177736666666666 0.007305333333333333
78761587 1.016856 0.014031999999999998
80247466 1.0121116666666665 -0.10211266666666667
81733345 1.0129423333333334 -0.05471
83219224 1.0107833333333334 -0.06461066666666666
84705103 1.0060863333333332 -0.08930033333333333
86190982 1.0050576666666666 0.03567833333333333
87676861 1.0000276666666665 -0.07973199999999998
89162740 0.9977813333333333 -0.05479166666666666
90648619 0.9961236666666666 -0.072761
92134498 0.9993506666666668 -0.06935999999999999
93620377 1.0040533333333332 -0.03871633333333333
95106256 1.0057283333333336 -0.06467866666666666
96592135 1.0082216666666666 -0.06316333333333334
98078014 1.010512 -0.058207
99563893 1.0126073333333332 -0.05392400000000001
101049772 1.0160436666666666 -0.042546
102535651 1.0133263333333333 -0.06769833333333332
104021530 1.0162550000000001 -0.04420333333333334
105507409 1.0165896666666665 -0.03888833333333334
106993288 1.013666 -0.06368366666666667
108479167 1.0128486666666667 -0.069034
109965046 1.0119580000000001 -0.07053166666666666
111450925 1.0105296666666668 -0.07103366666666666
112936804 1.0074593333333333 -0.057288000000000006
114422683 1.0050906666666666 -0.070872
115908562 1.0033383333333334 -0.064537
117394441 0.999641 -0.07194633333333333
118880320 0.9954123333333333 -0.07200233333333333
120366199 0.9930506666666666 -0.07242766666666667
121852078 0.9976526666666666 -0.07475266666666668
123337957 1.0012853333333334 -0.07569733333333334
124823836 1.0052130000000001 -0.076442
126309715 1.008242 -0.07808
127795594 1.0117863333333332 -0.078496
129281473 1.0145103333333334 -0.07939466666666667
130767352 1.0168290000000002 -0.08025733333333333
132253231 1.0180939999999998 -0.08067633333333334
133739110 1.0208146666666666 -0.080082
135224989 1.005385 -0.09877600000000002
136710868 1.0060186666666666 -0.093277
138196747 1.0062586666666666 -0.09960233333333333
139682626 1.0052786666666667 -0.09385266666666665
141168505 1.0045993333333334 -0.09270466666666666
142654384 1.0058116666666665 -0.07338433333333333
144140263 1.0013906666666665 -0.08599166666666665
145626142 0.9977256666666667 -0.08617433333333334
147112021 0.9966689999999999 -0.09255266666666667
148597900 0.9934769999999999 -0.08670166666666666
150083779 0.9907006666666667 -0.091619
151569658 0.9936623333333333 -0.09251500000000001
153055537 0.9975336666666665 -0.09421
154541416 0.9996866666666667 -0.09625899999999998
156027295 1.0017446666666665 -0.09698233333333334
157513174 1.0044066666666664 -0.09801433333333333
158999053 1.004162 -0.09850766666666666
160484932 1.007579 -0.099281
161970811 1.0081043333333335 -0.09967999999999999
163456690 1.0085179999999998 -0.10036066666666665
164942569 1.0090533333333334 -0.10085733333333334
166428448 1.00875 -0.10173899999999998
167914327 1.0075856666666667 -0.10108733333333335
169400206 1.0063256666666667 -0.10211100000000001
170886085 1.005459 -0.10348133333333333
172371964 1.001254 -0.11015566666666667
173857843 0.9953059999999999 -0.116037
175343722 0.9978076666666666 -0.10486066666666667
176829601 0.9956443333333334 -0.10552666666666666
178315480 0.9921956666666668 -0.10662066666666666
179801359 0.9871893333333333 -0.10735366666666668
181287238 0.99029 -0.10886499999999999
182773117 0.9939106666666667 -0.11008466666666666
184258996 0.9968716666666667 -0.11108933333333333
185744875 0.9992003333333334 -0.11210033333333334
187230754 1.001522 -0.112911
188716633 1.0035423333333335 -0.11387933333333333
190202512 1.004752 -0.11434333333333334
191688391 1.0055826666666665 -0.11528333333333333
193174270 1.0068756666666667 -0.11575066666666667
194660149 1.0071303333333335 -0.11678000000000001
196146028 1.006835 -0.11809433333333332
197631907 1.0053803333333333 -0.11821366666666666
199117786 1.0052873333333334 -0.11869966666666666
200603665 1.003844 -0.11932633333333333
202089544 1.0013733333333332 -0.11985
203575423 0.9990306666666666 -0.12134566666666664
205061302 0.9956306666666667 -0.122043
206547181 0.9923763333333334 -0.12273933333333335
208033060 0.989023 -0.12493599999999999
209518939 0.9857166666666667 -0.12614833333333333
211004818 0.9871293333333333 -0.12685466666666667
212490697 0.9896946666666667 -0.12862433333333334
213976576 0.9934386666666667 -0.12916066666666667
215462455 0.9969753333333333 -0.13029533333333332
216948334 0.99923 -0.13140966666666665
218434213 1.0017006666666666 -0.131884
219920092 1.0020550000000001 -0.13231233333333334
221405971 1.0034876666666668 -0.13390100000000002
222891850 1.0047763333333333 -0.1333366666666667
224377729 1.0039136666666666 -0.13472433333333333
225863608 1.004730333333333 -0.13412666666666664
227349487 1.0037076666666667 -0.13515133333333332
228835366 1.0024766666666665 -0.13543133333333335
230321245 1.0013166666666669 -0.13735333333333333
231807124 0.9987633333333333 -0.13825099999999999
233293003 0.9962926666666666 -0.13810633333333333
234778882 0.9933200000000001 -0.13941833333333334
236264761 0.9891556666666667 -0.140601
237750640 0.9856673333333333 -0.14182633333333333
239236519 0.9817996666666667 -0.14306366666666667
240722398 0.981772 -0.14397933333333335
242208277 0.9851743333333333 -0.14571466666666666
243694156 0.9896676666666666 -0.147452
245180035 0.9924186666666667 -0.14850700000000003
246665914 0.994776 -0.14977600000000002
248151793 0.9970440000000002 -0.15035833333333334
249637672 0.9990826666666667 -0.15132766666666667
251123551 1.0002813333333334 -0.151533
252609430 1.0015423333333333 -0.15224833333333335
254095309 1.0018686666666667 -0.15385833333333335
255581188 1.001504 -0.15269933333333333
257067067 1.0008986666666666 -0.15393166666666666
258552946 0.999422 -0.154053
260038825 0.9977656666666667 -0.15516766666666668
261524704 0.995712 -0.15610833333333332
263010583 0.9927976666666667 -0.15695166666666668
264496462 0.9899626666666667 -0.156682
265982341 0.9853893333333333 -0.15803433333333333
267468220 0.9813146666666667 -0.15971533333333335
268954099 0.9771763333333333 -0.16083233333333333
270439978 0.9751463333333333 -0.16204633333333335
271925857 0.979275 -0.16354
273411736 0.9834503333333333 -0.16558399999999998
274897615 0.9870559999999999 -0.166432
276383494 0.9907660000000001 -0.16871966666666668
277869373 0.9925566666666668 -0.16932733333333336
279355252 0.9950493333333332 -0.17008966666666667
280841131 0.9967153333333334 -0.170594
282327010 0.997073 -0.171694
283812889 0.9983503333333333 -0.1723146666666667
285298768 0.9978026666666667 -0.1718926666666667
286784647 0.9983896666666666 -0.1720843333333333
288270526 0.9957540000000001 -0.17430933333333332
289756405 0.9937603333333334 -0.174745
291242284 0.9917760000000001 -0.17369133333333334
292728163 0.9897123333333333 -0.17432499999999998
294214042 0.9859263333333333 -0.17549633333333334
295699921 0.9824486666666666 -0.175611
297185800 0.9780530000000001 -0.17671633333333334
298671679 0.9732759999999999 -0.17645999999999998
300157558 0.9701346666666666 -0.17654
301643437 0.9747356666666667 -0.177952
303129316 0.9788636666666667 -0.18120966666666669
304615195 0.9826933333333333 -0.18116933333333332
306101074 0.985474 -0.18319333333333332
307586953 0.9892136666666667 -0.18412666666666666
309072832 0.9911213333333334 -0.185831
310558711 0.9924346666666667 -0.18705733333333333
312044590 0.993489 -0.18666733333333332
313530469 0.9942586666666666 -0.188029
315016348 0.9946633333333335 -0.1898133333333333
316502227 0.993144 -0.1885956666666667
317988106 0.9926576666666667 -0.1884003333333333
319473985 0.9899216666666666 -0.19426166666666667
320959864 0.9891976666666666 -0.1890343333333333
322445743 0.9871336666666667 -0.1894543333333333
323931622 0.9841533333333333 -0.18934166666666666
325417501 0.9798306666666666 -0.18835433333333332
326903380 0.97633 -0.18994966666666668
328389259 0.9711946666666668 -0.190176
329875138 0.9651533333333333 -0.19106399999999998
331361017 0.9687760000000001 -0.19328266666666669
332846896 0.9726046666666667 -0.195963
334332775 0.9760173333333334 -0.19799533333333333
335818654 0.9790209999999999 -0.19991066666666665
337304533 0.9806663333333333 -0.20093266666666665
338790412 0.98393 -0.20327166666666666
340276291 0.9851093333333333 -0.2042373333333333
341762170 0.986405 -0.20420066666666667
343248049 0.984824 -0.20397033333333334
344733928 0.9863696666666666 -0.20708633333333334
346219807 0.9857133333333333 -0.2068106666666667
347705686 0.9847610000000001 -0.20808633333333335
349191565 0.9827076666666666 -0.20724
350677444 0.9805926666666668 -0.20698833333333333
352163323 0.9783006666666667 -0.20834366666666668
353649202 0.9752953333333333 -0.20774733333333337
355135081 0.9721679999999999 -0.20792
356620960 0.9666706666666668 -0.20849033333333333
358106839 0.9609626666666666 -0.20976933333333334
359592718 0.9567796666666667 -0.21012766666666668
361078597 0.9582943333333334 -0.21179533333333334
362564476 0.9614696666666666 -0.21370666666666663
364050355 0.9653073333333334 -0.2168433333333333
365536234 0.9681713333333333 -0.21835966666666665
367022113 0.970166 -0.22053199999999998
368507992 0.9733663333333333 -0.22124833333333335
369993871 0.9749756666666666 -0.22279766666666667
371479750 0.9754113333333333 -0.22380233333333333
372965629 0.976843 -0.223835
374451508 0.976171 -0.224648
375937387 0.9768423333333334 -0.22543766666666665
377423266 1.0221996666666666 -0.21418533333333334
378909145 0.9740226666666666 -0.22603066666666669
380395024 0.9731186666666667 -0.22690133333333332
381880903 0.9707676666666666 -0.22448566666666667
383366782 0.9675786666666667 -0.22538066666666667
384852661 0.9546536666666666 -0.23838133333333333
386338540 0.9608733333333334 -0.22483266666666668
387824419 0.9571546666666667 -0.22551100000000002
389310298 0.9517666666666668 -0.22463166666666667
390796177 0.951431 -0.2268133333333333
392282056 0.9546083333333333 -0.2284596666666667
393767935 0.9583749999999999 -0.23044266666666668
395253814 0.960623 -0.23357866666666668
396739693 0.9632773333333334 -0.2345003333333333
398225572 0.9654356666666667 -0.23629933333333333
399711451 0.966231 -0.23830033333333334
401197330 0.967593 -0.23789066666666667
402683209 0.9689566666666667 -0.24011000000000002
404169088 0.9680949999999999 -0.24089066666666667
405654967 0.9693653333333333 -0.239672
407140846 0.9678196666666666 -0.24047133333333334
408626725 0.9672903333333333 -0.240069
410112604 0.9653196666666668 -0.24088166666666666
411598483 0.9635983333333332 -0.24012699999999998
413084362 0.9605946666666667 -0.24042866666666665
414570241 0.9564066666666667 -0.2392723333333333
416056120 0.9543180000000001 -0.23973999999999998
417541999 0.9505176666666667 -0.2394696666666667
419027878 0.944746 -0.23886566666666667
420513757 0.943474 -0.23974333333333334
421999636 0.946335 -0.24326866666666666
423485515 0.9494143333333334 -0.244968
424971394 0.9519783333333334 -0.24751333333333334
426457273 0.9547383333333332 -0.24848133333333333
427943152 0.9570026666666668 -0.2509286666666667
429429031 0.9580753333333334 -0.25263033333333335
430914910 0.9588990000000001 -0.25222266666666665
432400789 0.9595023333333333 -0.25459533333333334
433886668 0.9603406666666667 -0.25542133333333333
435372547 0.9593929999999999 -0.2559766666666667
436858426 0.9598773333333334 -0.25559766666666667
438344305 0.958695 -0.25574366666666665
439830184 0.9568426666666667 -0.25507833333333335
441316063 0.9552489999999999 -0.25646166666666664
442801942 0.9524233333333333 -0.257709
444287821 0.950027 -0.25563033333333335
445773700 0.9472893333333333 -0.25523166666666663
447259579 0.9424476666666667 -0.2563763333333334
448745458 0.9388213333333333 -0.25657033333333334
450231337 0.9374436666666667 -0.251265
451717216 0.9403046666666667 -0.254004
453203095 0.9435863333333333 -0.25733
454688974 0.9459013333333334 -0.25787033333333337
456174853 0.94765 -0.2597643333333333
457660732 0.9514206666666666 -0.2616506666666667
459146611 0.951601 -0.26251833333333335
460632490 0.9524243333333334 -0.2636516666666667
462118369 0.9524556666666667 -0.26606599999999997
463604248 0.9536709999999999 -0.2648026666666667
465090127 0.9533983333333333 -0.26507933333333333
466576006 0.9530293333333333 -0.26608366666666666
468061885 0.9517466666666667 -0.26598999999999995
469547764 0.9502923333333334 -0.26616466666666666
471033643 0.95049 -0.2610683333333333
472519522 0.9456933333333334 -0.266239
474005401 0.9437706666666666 -0.2662366666666667
475491280 0.939847 -0.26482466666666665
476977159 0.9364020000000001 -0.26492299999999996
478463038 0.9319503333333333 -0.2649776666666667
479948917 0.9789973333333334 -0.28543466666666667
481434796 0.9311643333333333 -0.26719733333333334
482920675 0.9339836666666667 -0.26872866666666667
484406554 0.9369109999999999 -0.27141366666666666
485892433 0.9389086666666667 -0.2727013333333333
487378312 0.9402593333333332 -0.2748386666666667
488864191 0.939234 -0.2812813333333333
490350070 0.9440733333333333 -0.276677
491835949 0.9451160000000001 -0.27692466666666665
493321828 0.9459536666666667 -0.277513
494807707 0.9447203333333333 -0.2777793333333333
496293586 0.944144 -0.2787833333333333
497779465 0.9447826666666668 -0.27853633333333333
499265344 0.941987 -0.27937
500751223 0.9404373333333332 -0.279144
502237102 0.9411953333333334 -0.273794
503722981 0.936814 -0.27745533333333333
505208860 0.9330293333333333 -0.27888566666666664
506694739 0.9295963333333334 -0.27752099999999996
508180618 0.9251873333333333 -0.27717933333333333
509666497 0.9202036666666666 -0.27746866666666664
511152376 0.9224260000000001 -0.27963566666666667
512638255 0.9260233333333333 -0.28069933333333336
514124134 0.9283023333333333 -0.2831573333333333
515610013 0.9308563333333334 -0.284804
517095892 0.9328703333333332 -0.28669666666666666
518581771 0.9356633333333333 -0.28770266666666666
520067650 0.9369323333333334 -0.28739933333333334
521553529 0.9371526666666666 -0.2897636666666667
523039408 0.9387656666666667 -0.2898286666666667
524525287 0.9371206666666666 -0.28941133333333335
526011166 0.9364456666666667 -0.2917636666666666
527497045 0.9358593333333333 -0.2910723333333333
528982924 0.9351003333333333 -0.29056166666666666
530468803 0.9325133333333332 -0.29058266666666666
531954682 0.930552 -0.290247
533440561 0.927963 -0.29073933333333335
534926440 0.9240763333333334 -0.28972
536412319 0.9209966666666668 -0.28988433333333335
537898198 0.9170173333333334 -0.28990266666666664
539384077 0.9120406666666666 -0.29000733333333334
540869956 0.9126773333333333 -0.291193
542355835 0.9147733333333333 -0.29297233333333333
543841714 0.916703 -0.29280599999999996
545327593 0.9210233333333333 -0.2942573333333333
546813472 0.9229090000000001 -0.2950633333333333
548299351 0.9243316666666668 -0.295544
549785230 0.9245746666666667 -0.29660233333333336
551271109 0.92444 -0.29716400000000004
552756988 0.9244866666666667 -0.295543
554242867 0.9241886666666667 -0.29630466666666666
555728746 0.9246993333333333 -0.29350733333333334
557214625 0.9217506666666666 -0.294058
558700504 0.9196296666666667 -0.29441133333333336
560186383 0.9168896666666667 -0.29180733333333336
561672262 0.9156736666666667 -0.2920256666666667
563158141 0.9114536666666667 -0.29096466666666665
564644020 0.9060039999999999 -0.29146933333333336
566129899 0.9025626666666667 -0.28971166666666665
567615778 0.897512 -0.2895866666666667
569101657 0.8930663333333334 -0.288961
570587536 0.8908566666666667 -0.29068999999999995
572073415 0.8942896666666668 -0.2929836666666667
573559294 0.8972223333333332 -0.29706866666666665
575045173 0.8998203333333333 -0.2990736666666666
576531052 0.9019436666666666 -0.30248633333333336
578016931 0.9037153333333333 -0.304908
579502810 0.9069826666666666 -0.30605066666666664
580988689 0.9077146666666667 -0.3079863333333333
582474568 0.9078059999999999 -0.3100906666666667
583960447 0.9078756666666666 -0.31122900000000003
585446326 0.908264 -0.313143
586932205 0.9082370000000001 -0.312897
588418084 0.9080360000000001 -0.3142216666666667
589903963 0.9054526666666667 -0.316095
591389842 0.9041899999999999 -0.3167246666666667
592875721 0.9018936666666667 -0.31620633333333337
594361600 0.8986993333333334 -0.31741933333333333
595847479 0.8971056666666666 -0.31691233333333335
597333358 0.8928333333333334 -0.3185253333333333
598819237 0.8888920000000001 -0.31804066666666664
600305116 0.8870046666666666 -0.3175656666666667
601790995 0.8911346666666667 -0.32066900000000004
603276874 0.8948323333333335 -0.3242313333333333
604762753 0.8972993333333333 -0.32431766666666667
606248632 0.9001323333333332 -0.3281926666666667
607734511 0.9024826666666667 -0.3293526666666667
609220390 0.9037576666666668 -0.33070700000000003
610706269 0.9052916666666667 -0.33129200000000003
612192148 0.907241 -0.33141366666666666
613678027 0.9077000000000001 -0.331545
615163906 0.9072856666666667 -0.33330433333333337
616649785 0.9072483333333334 -0.33207
618135664 0.9057766666666667 -0.33329499999999995
619621543 0.9046906666666666 -0.33197533333333334
621107422 0.8969396666666666 -0.34124466666666664
622593301 0.9004903333333334 -0.332913
624079180 0.8975930000000001 -0.33160966666666664
625565059 0.8941426666666668 -0.32987
627050938 0.8899583333333334 -0.3305103333333333
628536817 0.885995 -0.329884
630022696 0.881879 -0.32715199999999994
631508575 0.887914 -0.325957
632994454 0.887692 -0.3337486666666667
634480333 0.890967 -0.3353546666666667
635966212 0.8933106666666667 -0.3387173333333333
637452091 0.895112 -0.340072
638937970 0.8967393333333332 -0.34206466666666663
640423849 0.8978396666666666 -0.342281
641909728 0.8999726666666666 -0.34330333333333335
643395607 0.900941 -0.343555
644881486 0.8997473333333333 -0.34445433333333336
646367365 0.900669 -0.34307466666666664
647853244 0.89852 -0.34435066666666664
649339123 0.896493 -0.3436703333333333
650825002 0.896256 -0.3413276666666667
652310881 0.8932406666666667 -0.3436616666666667
653796760 0.8917820000000001 -0.34204366666666663
655282639 0.8870466666666666 -0.340451
656768518 0.8842956666666666 -0.3390566666666666
658254397 0.8802120000000001 -0.33941466666666664
659740276 0.8745606666666667 -0.3374953333333333
661226155 0.8774133333333335 -0.33912633333333336
662712034 0.8805926666666667 -0.3422213333333333
664197913 0.8837006666666666 -0.3443876666666667
665683792 0.8868463333333333 -0.344215
667169671 0.8875996666666667 -0.3480223333333334
668655550 0.8890006666666667 -0.348451
670141429 0.8911466666666666 -0.34825233333333333
671627308 0.8913859999999999 -0.3490786666666667
673113187 0.8926496666666667 -0.3488233333333333
674599066 0.8916003333333333 -0.3477496666666666
676084945 0.8913876666666667 -0.34870533333333337
677570824 0.8900906666666666 -0.34817366666666666
679056703 0.8899753333333335 -0.34821299999999994
680542582 0.8881973333333333 -0.34571466666666667
682028461 0.8872823333333333 -0.3447266666666667
683514340 0.8822096666666667 -0.34445600000000004
685000219 0.8787016666666666 -0.3432826666666666
686486098 0.8755026666666668 -0.33983366666666665
687971977 0.8727136666666667 -0.3389896666666667
689457856 0.8699526666666667 -0.3366823333333333
690943735 0.8677416666666667 -0.3393313333333334
692429614 0.8690060000000001 -0.34237633333333334
693915493 0.8720653333333334 -0.344792
695401372 0.8741356666666666 -0.34833000000000003
696887251 0.8743036666666667 -0.35060699999999995
698373130 0.8757796666666667 -0.352764
699859009 0.8772363333333333 -0.355669
701344888 0.877583 -0.355488
702830767 0.8775766666666667 -0.3570816666666667
704316646 0.8770193333333333 -0.35865966666666677
705802525 0.8764850000000001 -0.3579326666666667
707288404 0.8764946666666668 -0.35864633333333334
708774283 0.87561 -0.3609503333333333
710260162 0.8733543333333333 -0.36025100000000004
711746041 0.8701666666666666 -0.36138066666666663
713231920 0.8680903333333333 -0.35868700000000003
714717799 0.8644326666666666 -0.35935433333333333
716203678 0.8621186666666668 -0.3601666666666667
717689557 0.8600356666666666 -0.36034933333333335
719175436 0.8545756666666667 -0.3586836666666667
720661315 0.8541206666666666 -0.3610433333333333
722147194 0.8575016666666667 -0.3623733333333334
723633073 0.858676 -0.3654566666666667
725118952 0.8613433333333332 -0.367646
726604831 0.8626679999999999 -0.36871933333333334
728090710 0.8632453333333333 -0.369708
729576589 0.865689 -0.371
731062468 0.8660519999999999 -0.37367599999999995
732548347 0.8658266666666666 -0.3748226666666667
734034226 0.8664676666666667 -0.3755656666666667
735520105 0.8672333333333334 -0.3732676666666666
737005984 0.86579 -0.375176
738491863 0.8644950000000001 -0.375486
739977742 0.861819 -0.37623999999999996
741463621 0.862085 -0.37369699999999995
742949500 0.8601556666666667 -0.372283
744435379 0.85699 -0.37223266666666666
745921258 0.854002 -0.37113599999999997
747407137 0.8509496666666667 -0.371904
748893016 0.8470973333333333 -0.37088633333333326
750378895 0.8451343333333333 -0.36904733333333334
751864774 0.8479903333333333 -0.37129199999999996
753350653 0.849306 -0.3744536666666667
754836532 0.8521123333333334 -0.37653766666666666
756322411 0.8545820000000001 -0.376986
757808290 0.8535256666666667 -0.3790626666666667
759294169 0.8555376666666668 -0.38127099999999997
760780048 0.8574713333333334 -0.38018799999999997
762265927 0.8565023333333334 -0.3822176666666666
763751806 0.857114 -0.381585
765237685 0.8566010000000001 -0.384396
766723564 0.8541753333333334 -0.38276266666666664
768209443 0.8538093333333334 -0.38403366666666666
769695322 0.852731 -0.382579
771181201 0.8092133333333332 -0.3705606666666667
772667080 0.847426 -0.38308533333333333
774152959 0.8454280000000001 -0.3827016666666667
775638838 0.8417009999999999 -0.3819843333333333
777124717 0.8393663333333333 -0.3801193333333333
778610596 0.834955 -0.37961533333333336
780096475 0.7962483333333333 -0.380627
781582354 0.8343466666666667 -0.3807690000000001
783068233 0.8376899999999999 -0.3836103333333334
784554112 0.8403166666666667 -0.38563100000000006
786039991 0.8421176666666668 -0.3888913333333333
787525870 0.8432493333333334 -0.3904023333333333
789011749 0.8459053333333334 -0.3912966666666667
790497628 0.84678 -0.39161699999999994
791983507 0.8461366666666666 -0.390357
793469386 0.8476423333333333 -0.392956
794955265 0.8492423333333333 -0.3914756666666667
796441144 0.8477363333333333 -0.3916916666666667
797927023 0.8465526666666667 -0.391756
799412902 0.8460566666666667 -0.39053699999999997
800898781 0.8436466666666668 -0.3908313333333333
802384660 0.8420846666666667 -0.38907966666666666
803870539 0.8411293333333334 -0.3883433333333333
805356418 0.8366326666666666 -0.388634
806842297 0.8351266666666667 -0.3847313333333333
808328176 0.8303036666666667 -0.38461266666666666
809814055 0.8263953333333333 -0.3845126666666667
811299934 0.8278996666666667 -0.3870366666666667
812785813 0.8294576666666668 -0.3907803333333333
814271692 0.8321330000000001 -0.39216866666666667
815757571 0.834115 -0.39468200000000003
817243450 0.8356073333333334 -0.39654666666666666
818729329 0.8370830000000001 -0.3985363333333333
820215208 0.8376026666666666 -0.40124633333333337
821701087 0.8395536666666666 -0.3995303333333333
823186966 0.8396680000000001 -0.3996496666666667
824672845 0.8385076666666667 -0.40191233333333337
826158724 0.8375940000000001 -0.40398966666666664
827644603 0.8363336666666666 -0.403149
829130482 0.8361919999999999 -0.40229
830616361 0.8332856666666667 -0.40350233333333335
832102240 0.8315100000000001 -0.403453
833588119 0.8406116666666666 -0.39327833333333334
835073998 0.8263963333333333 -0.4028226666666666
836559877 0.8226726666666666 -0.40263399999999994
838045756 0.8188933333333334 -0.4004816666666666
839531635 0.8155496666666666 -0.3994493333333333
841017514 0.8161663333333333 -0.401518
842503393 0.818022 -0.4044303333333333
843989272 0.8215126666666667 -0.407105
845475151 0.823429 -0.40825399999999995
846961030 0.8252336666666666 -0.411884
848446909 0.8264723333333333 -0.41209433333333334
849932788 0.826906 -0.41370966666666664
851418667 0.8272476666666666 -0.4156683333333333
852904546 0.8281803333333334 -0.4158553333333333
854390425 0.8295816666666666 -0.415695
855876304 0.828153 -0.416611
857362183 0.827429 -0.4157666666666667
858848062 0.8263090000000001 -0.41490000000000005
860333941 0.8240673333333334 -0.4134993333333334
861819820 0.8230113333333332 -0.412825
863305699 0.8190216666666666 -0.41350766666666666
864791578 0.81702 -0.41145933333333334
866277457 0.8138406666666667 -0.4096363333333333
867763336 0.8093363333333334 -0.4105993333333333
869249215 0.8048649999999999 -0.408303
870735094 0.8039146666666667 -0.4088003333333334
872220973 0.8058333333333333 -0.4125236666666667
873706852 0.808104 -0.416626
875192731 0.81114 -0.41752799999999995
876678610 0.8134313333333333 -0.419367
878164489 0.8137636666666667 -0.4217356666666667
879650368 0.815381 -0.4241059999999999
881136247 0.8174163333333334 -0.4220156666666666
882622126 0.8181663333333334 -0.423241
884108005 0.8178363333333333 -0.4233733333333333
885593884 0.8173119999999999 -0.424815
887079763 0.8168693333333333 -0.42442833333333335
888565642 0.8160646666666667 -0.4251956666666667
890051521 0.8134243333333333 -0.4254183333333333
891537400 0.8123306666666666 -0.42272
893023279 0.8092296666666666 -0.42185999999999996
894509158 0.8076359999999999 -0.42067133333333334
895995037 0.8036519999999999 -0.4176436666666667
897480916 0.8005563333333333 -0.41664900000000005
898966795 0.7957613333333332 -0.4171953333333333
900452674 0.7936443333333334 -0.4167666666666667
901938553 0.7958276666666667 -0.41961633333333337
903424432 0.7977733333333333 -0.4225586666666667
904910311 0.8009606666666667 -0.42430833333333334
906396190 0.8027186666666667 -0.42520399999999997
907882069 0.8026986666666667 -0.42981633333333336
909367948 0.8053846666666665 -0.42975566666666665
910853827 0.8040193333333333 -0.4316136666666666
912339706 0.8049076666666668 -0.4314473333333333
913825585 0.8044316666666668 -0.43228333333333335
915311464 0.8021903333333333 -0.432976
916797343 0.8046583333333333 -0.43352133333333337
918283222 0.8040156666666666 -0.43265133333333333
919769101 0.8021736666666666 -0.4328436666666666
921254980 0.8021883333333332 -0.428244
922740859 0.7989196666666666 -0.42873300000000003
924226738 0.7949463333333334 -0.4300643333333333
925712617 0.7912576666666666 -0.4274166666666666
927198496 0.7893226666666666 -0.4269156666666667
928684375 0.785342 -0.421912
930170254 0.7801629999999999 -0.42420566666666665
931656133 0.783506 -0.42527033333333336
933142012 0.7858016666666666 -0.428671
934627891 0.7887733333333333 -0.4308923333333334
936113770 0.7912929999999999 -0.43248133333333333
937599649 0.7905896666666666 -0.43668866666666667
939085528 0.7930083333333333 -0.4379303333333333
940571407 0.794854 -0.43730833333333335
942057286 0.7962336666666667 -0.435776
943543165 0.7946096666666667 -0.43831966666666666
945029044 0.7947566666666667 -0.440294
946514923 0.7962523333333333 -0.43612366666666663
948000802 0.7958666666666666 -0.4374903333333333
949486681 0.7949126666666665 -0.43644666666666665
950972560 0.7935613333333333 -0.4351186666666667
952458439 0.791509 -0.4347763333333334
953944318 0.7861856666666668 -0.43731733333333334
955430197 0.7869396666666667 -0.4325003333333333
956916076 0.7831199999999999 -0.4286753333333333
958401955 0.7808480000000001 -0.42791466666666667
959887834 0.777086 -0.42524566666666663
961373713 0.779353 -0.42799699999999996
962859592 0.7804516666666667 -0.43273433333333333
964345471 0.7823686666666667 -0.43256466666666665
965831350 0.7835756666666667 -0.43561500000000003
967317229 0.7847746666666667 -0.4370946666666667
968803108 0.7850686666666666 -0.44035433333333335
970288987 0.786346 -0.4418916666666666
971774866 0.7865873333333334 -0.4424713333333334
973260745 0.7856823333333334 -0.441571
974746624 0.786012 -0.4422966666666667
976232503 0.786166 -0.44316
977718382 0.7845873333333334 -0.444499
979204261 0.7851986666666666 -0.442111
980690140 0.7839753333333332 -0.44072233333333327
982176019 0.7812726666666666 -0.440656
983661898 0.7425873333333334 -0.43996300000000005
985147777 0.7772386666666667 -0.439039
986633656 0.7750893333333334 -0.43906599999999996
988119535 0.7712946666666666 -0.438603
989605414 0.7671073333333333 -0.4357963333333333
991091293 0.769141 -0.436593
992577172 0.7700146666666666 -0.4400736666666667
994063051 0.7710623333333334 -0.4426083333333333
995548930 0.7737026666666668 -0.4442526666666667
997034809 0.7734046666666666 -0.44698533333333335
998520688 0.7754656666666667 -0.44609766666666667
1000006567 0.7757360000000001 -0.4481076666666666
1001492446 0.7753960000000001 -0.44847733333333334
1002978325 0.775654 -0.450209
1004464204 0.7756379999999999 -0.4486143333333334
1005950083 0.7737513333333332 -0.449258
1007435962 0.7745033333333334 -0.4473836666666666
1008921841 0.7731666666666667 -0.446788
1010407720 0.7710253333333333 -0.448679
1011893599 0.7702606666666667 -0.446915
1013379478 0.7671526666666666 -0.4456773333333333
1014865357 0.7652173333333332 -0.4447746666666667
1016351236 0.7621803333333332 -0.445373
1017837115 0.7591266666666666 -0.4413956666666667
1019322994 0.755437 -0.441025
1020808873 0.7542573333333333 -0.44350633333333334
1022294752 0.7560083333333333 -0.44608766666666666
1023780631 0.75812 -0.44726333333333335
1025266510 0.7596473333333332 -0.44792000000000004
1026752389 0.7605456666666667 -0.45054666666666665
1028238268 0.7602826666666666 -0.45181066666666664
1029724147 0.76234 -0.45243966666666663
1031210026 0.7634193333333333 -0.4525976666666667
1032695905 0.7647913333333333 -0.45182300000000003
1034181784 0.7618593333333333 -0.4551803333333333
1035667663 0.7633653333333333 -0.4543356666666667
1037153542 0.7630706666666667 -0.4537426666666667
1038639421 0.7612626666666666 -0.4541016666666667
1040125300 0.759416 -0.45444766666666664
1041611179 0.7575043333333333 -0.4552933333333333
1043097058 0.757189 -0.4526143333333333
1044582937 0.7542306666666668 -0.4513483333333333
1046068816 0.7510496666666667 -0.4524593333333333
1047554695 0.74831 -0.44810700000000003
1049040574 0.7454383333333333 -0.44770333333333334
1050526453 0.7464893333333333 -0.44605500000000003
1052012332 0.7460870000000001 -0.45123399999999997
1053498211 0.7486833333333333 -0.4526266666666667
1054984090 0.7502693333333333 -0.45487700000000003
1056469969 0.751562 -0.4568103333333333
1057955848 0.7529483333333333 -0.4575753333333334
1059441727 0.7536253333333334 -0.45905599999999996
1060927606 0.7548136666666667 -0.45960399999999996
1062413485 0.7544836666666667 -0.46179233333333336
1063899364 0.7542486666666667 -0.46154633333333334
1065385243 0.7557256666666667 -0.46161
1066871122 0.7559480000000001 -0.45983633333333335
1068357001 0.7537396666666667 -0.4603173333333333
1069842880 0.7536360000000001 -0.45932966666666664
1071328759 0.7504049999999999 -0.45980766666666667
1072814638 0.7488256666666667 -0.45883599999999997
1074300517 0.7479089999999999 -0.45879
1075786396 0.7437846666666665 -0.4586166666666667
1077272275 0.7438073333333334 -0.45539466666666667
1078758154 0.7397626666666666 -0.455763
1080244033 0.7780523333333332 -0.471536
1081729912 0.7397803333333334 -0.456204
1083215791 0.740211 -0.4592863333333333
1084701670 0.7406196666666668 -0.46523633333333336
1086187549 0.7457910000000001 -0.46142900000000003
1087673428 0.7469643333333335 -0.46187400000000006
1089159307 0.7460840000000001 -0.46631833333333333
1090645186 0.7471993333333332 -0.46531199999999995
1092131065 0.7490506666666666 -0.4648916666666667
1093616944 0.7499509999999999 -0.46537566666666663
1095102823 0.7495306666666667 -0.46395000000000003
1096588702 0.7504179999999999 -0.4620326666666667
1098074581 0.7501950000000001 -0.461333
1099560460 0.7475483333333334 -0.4613956666666667
1101046339 0.7458480000000001 -0.46066466666666667
1102532218 0.7441283333333334 -0.45732566666666674
1104018097 0.7410283333333334 -0.4576456666666666
1105503976 0.7402299999999999 -0.45745299999999994
1106989855 0.734163 -0.4584173333333334
1108475734 0.7292423333333334 -0.4583456666666667
1109961613 0.7264696666666667 -0.458467
1111447492 0.7290756666666667 -0.46031299999999997
1112933371 0.7306243333333334 -0.4612043333333333
1114419250 0.7331250000000001 -0.46470900000000004
1115905129 0.7345166666666666 -0.46543166666666663
1117391008 0.736023 -0.46584333333333333
1118876887 0.736046 -0.469466
1120362766 0.7373 -0.4681883333333334
1121848645 0.738166 -0.47158900000000004
1123334524 0.7378173333333332 -0.471764
1124820403 0.7390326666666667 -0.4716616666666667
1126306282 0.7376303333333333 -0.47147633333333333
1127792161 0.7359803333333333 -0.470375
1129278040 0.736158 -0.4699986666666667
1130763919 0.7349060000000001 -0.4705163333333333
1132249798 0.7335823333333334 -0.467946
1133735677 0.7297980000000001 -0.46904166666666663
1135221556 0.7276453333333333 -0.46878333333333333
1136707435 0.7236973333333333 -0.4694483333333334
1138193314 0.718919 -0.4674486666666667
1139679193 0.7162609999999999 -0.46510999999999997
1141165072 0.718191 -0.46592166666666673
1142650951 0.7166856666666667 -0.47339100000000006
1144136830 0.7235193333333333 -0.4722393333333333
1145622709 0.7229873333333333 -0.47402766666666674
1147108588 0.7240046666666666 -0.47684966666666667
1148594467 0.7250933333333333 -0.4770396666666666
1150080346 0.724974 -0.48117933333333335
1151566225 0.7294 -0.47762666666666664
1153052104 0.7292743333333332 -0.47879000000000005
1154537983 0.7258066666666666 -0.482059
1156023862 0.7278503333333334 -0.47869066666666665
1157509741 0.7271636666666668 -0.4790753333333333
1158995620 0.7259053333333333 -0.4783596666666667
1160481499 0.7230120000000001 -0.4793173333333333
1161967378 0.7198446666666668 -0.47777200000000003
1163453257 0.719126 -0.4756296666666667
1164939136 0.7152656666666667 -0.474806
1166425015 0.712492 -0.4746883333333334
1167910894 0.709517 -0.4722386666666667
1169396773 0.7055380000000001 -0.472545
1170882652 0.705262 -0.47173766666666667
1172368531 0.7074020000000001 -0.47396299999999997
1173854410 0.7092633333333334 -0.47640866666666665
1175340289 0.7099146666666666 -0.47903333333333337
1176826168 0.7100986666666668 -0.48170766666666665
1178312047 0.7105763333333334 -0.4834333333333333
1179797926 0.7137226666666666 -0.482551
1181283805 0.7141813333333333 -0.48520366666666664
1182769684 0.7119766666666667 -0.48616166666666666
1184255563 0.7138426666666667 -0.48547199999999996
1185741442 0.7111733333333333 -0.48593233333333335
1187227321 0.7120153333333333 -0.48555966666666667
1188713200 0.7090839999999999 -0.484178
1190199079 0.709038 -0.48464666666666667
1191684958 0.7039603333333333 -0.4850923333333333
1193170837 0.7037013333333334 -0.48145366666666667
1194656716 0.7016466666666666 -0.4796576666666666
1196142595 0.6964463333333333 -0.47817299999999996
1197628474 0.6923623333333334 -0.4785083333333333
1199114353 0.6875023333333333 -0.47846199999999994
1200600232 0.6872539999999999 -0.47912366666666667
1202086111 0.6889303333333334 -0.4820516666666667
1203571990 0.6919073333333333 -0.48541300000000004
1205057869 0.6952463333333333 -0.4865283333333334
1206543748 0.6965403333333334 -0.4883933333333334
1208029627 0.6995356666666667 -0.48871466666666663
1209515506 0.7009786666666667 -0.489933
1211001385 0.7003276666666668 -0.49094033333333337
1212487264 0.7001266666666667 -0.49366266666666664
1213973143 0.702223 -0.4926713333333333
1215459022 0.7007646666666667 -0.4938656666666667
1216944901 0.7009686666666667 -0.49538433333333326
1218430780 0.7021966666666667 -0.490233
1219916659 0.698573 -0.491663
1221402538 0.6971546666666667 -0.4912086666666667
1222888417 0.694732 -0.4907573333333333
1224374296 0.6943966666666667 -0.4867976666666667
1225860175 0.692541 -0.484987
1227346054 0.6884626666666667 -0.48461166666666666
1228831933 0.6856406666666667 -0.48014700000000005
1230317812 0.6890913333333333 -0.47278200000000004
1231803691 0.6850533333333333 -0.48263233333333333
1233289570 0.6865713333333333 -0.4866953333333333
1234775449 0.686711 -0.4896983333333333
1236261328 0.6884183333333334 -0.49115133333333333
1237747207 0.6902393333333333 -0.49218433333333333
1239233086 0.6922856666666667 -0.4928586666666666
1240718965 0.6942436666666666 -0.4920913333333334
1242204844 0.6917003333333334 -0.4938593333333334
1243690723 0.6937276666666666 -0.49364199999999997
1245176602 0.6955126666666667 -0.491334
1246662481 0.694424 -0.48985433333333334
1248148360 0.690766 -0.49081800000000003
1249634239 0.6902590000000001 -0.48999533333333334
1251120118 0.6897033333333334 -0.48799833333333337
1252605997 0.68722 -0.48537366666666665
1254091876 0.6845983333333333 -0.4841063333333333
1255577755 0.6819009999999999 -0.4811456666666667
1257063634 0.6826006666666666 -0.47569233333333333
1258549513 0.6751603333333334 -0.47691500000000003
1260035392 0.6730266666666668 -0.4734749999999999
1261521271 0.6720363333333333 -0.4790393333333333
1263007150 0.6769126666666666 -0.47875033333333333
1264493029 0.673349 -0.48464833333333335
1265978908 0.6760143333333334 -0.4842423333333334
1267464787 0.6750776666666667 -0.48966766666666667
1268950666 0.6797256666666667 -0.486345
1270436545 0.6773680000000001 -0.4916753333333334
1271922424 0.6805599999999999 -0.487462
1273408303 0.675946 -0.49688299999999996
1274894182 0.6790643333333334 -0.491568
1276380061 0.6748886666666666 -0.49643366666666666
1277865940 0.6774926666666667 -0.4938693333333333
1279351819 0.6719756666666666 -0.4964476666666666
1280837698 0.6754699999999999 -0.49207566666666663
1282323577 0.6697449999999999 -0.49324000000000007
1283809456 0.6689966666666667 -0.49333066666666664
1285295335 0.6687013333333334 -0.4895263333333333
1286781214 0.6628080000000001 -0.49164433333333335
1288267093 0.6639373333333333 -0.487614
1289752972 0.6566886666666667 -0.49030766666666664
1291238851 0.661655 -0.48608399999999996
1292724730 0.6588583333333333 -0.493193
1294210609 0.6616683333333334 -0.4924013333333333
1295696488 0.6613619999999999 -0.49752633333333335
1297182367 0.667444 -0.491984
1298668246 0.665919 -0.5004933333333333
1300154125 0.6643043333333333 -0.501236
1301640004 0.6674786666666667 -0.5009263333333333
1303125883 0.6663343333333334 -0.50201
1304611762 0.667334 -0.4989303333333333
1306097641 0.6666816666666667 -0.5008653333333334
1307583520 0.666573 -0.5008583333333333
1309069399 0.6655193333333332 -0.499032
1310555278 0.6661806666666666 -0.49780533333333327
1312041157 0.664796 -0.4957876666666667
1313527036 0.6643433333333334 -0.49244933333333335
1315012915 0.6620083333333334 -0.49042199999999997
1316498794 0.6602496666666666 -0.48999466666666663
1317984673 0.6576383333333333 -0.48718
1319470552 0.6540576666666666 -0.485362
1320956431 0.6557723333333333 -0.486469
1322442310 0.6565123333333334 -0.48738166666666666
1323928189 0.6572053333333333 -0.491918
1325414068 0.6571866666666667 -0.495713
1326899947 0.6612383333333334 -0.494547
1328385826 0.660815 -0.497665
1329871705 0.6631146666666666 -0.499344
1331357584 0.662065 -0.5014986666666666
1332843463 0.6623386666666667 -0.4973166666666667
1334329342 0.6652323333333333 -0.49816733333333335
1335815221 0.6626173333333334 -0.49982233333333337
1337301100 0.6618966666666667 -0.5024293333333333
1338786979 0.661326 -0.500524
1340272858 0.660316 -0.501742
1341758737 0.6602899999999999 -0.49884
1343244616 0.657095 -0.499697
1344730495 0.6573863333333333 -0.49897833333333336
1346216374 0.654998 -0.49546666666666667
1347702253 0.6524709999999999 -0.49581733333333333
1349188132 0.6502123333333333 -0.493066
1350674011 0.6495443333333334 -0.4933973333333333
1352159890 0.651209 -0.49439199999999994
1353645769 0.6510123333333333 -0.5009963333333333
1355131648 0.6504983333333333 -0.49825
1356617527 0.647846 -0.5010696666666666
1358103406 0.6512323333333333 -0.502905
1359589285 0.6470793333333333 -0.5039226666666666
1361075164 0.6510713333333333 -0.5021196666666666
1362561043 0.6476756666666666 -0.5069606666666667
1364046922 0.6482960000000001 -0.5051566666666667
1365532801 0.646142 -0.5060910000000001
1367018680 0.646712 -0.505957
1368504559 0.642264 -0.5080203333333334
1369990438 0.6496693333333333 -0.499763
1371476317 0.6392639999999999 -0.5040013333333332
1372962196 0.6378156666666667 -0.5039723333333334
1374448075 0.6347523333333334 -0.5033869999999999
1375933954 0.6335123333333333 -0.500842
1377419833 0.6656223333333333 -0.52529
1378905712 0.6231970000000001 -0.503921
1380391591 0.6209983333333334 -0.5028006666666667
1381877470 0.6258680000000001 -0.503802
1383363349 0.627404 -0.5060366666666667
1384849228 0.6278846666666666 -0.5086539999999999
1386335107 0.6303933333333334 -0.5075163333333333
1387820986 0.6336256666666666 -0.5101373333333333
1389306865 0.6331413333333332 -0.5095626666666667
1390792744 0.6339096666666666 -0.5124346666666667
1392278623 0.6360063333333333 -0.5114696666666666
1393764502 0.6421616666666666 -0.5065356666666666
1395250381 0.640778 -0.508018
1396736260 0.6362723333333333 -0.5120140000000001
1398222139 0.6379186666666666 -0.5091206666666667
1399708018 0.6444806666666667 -0.5034536666666667
1401193897 0.6357723333333333 -0.5096943333333334
1402679776 0.6362663333333333 -0.5053153333333333
1404165655 0.6336463333333332 -0.505418
1405651534 0.6341303333333334 -0.503714
1407137413 0.6333843333333333 -0.499524
1408623292 0.6292383333333333 -0.4989113333333333
1410109171 0.6278773333333333 -0.498224
1411595050 0.6295453333333333 -0.5011816666666666
1413080929 0.6314243333333334 -0.5040473333333333
1414566808 0.6329756666666667 -0.5052420000000001
1416052687 0.636822 -0.508752
1417538566 0.6382979999999999 -0.5071616666666666
1419024445 0.6395723333333333 -0.50974
1420510324 0.6406206666666666 -0.5081423333333334
1421996203 0.643508 -0.5114363333333333
1423482082 0.6448103333333334 -0.5108973333333333
1424967961 0.6431423333333334 -0.5095320000000001
1426453840 0.6428866666666667 -0.508357
1427939719 0.644317 -0.5070753333333333
1429425598 0.6430003333333334 -0.5069159999999999
1430911477 0.6387043333333334 -0.5062559999999999
1432397356 0.6425923333333333 -0.503467
1433883235 0.6377320000000001 -0.5041349999999999
1435369114 0.6383976666666666 -0.504355
1436854993 0.6356990000000001 -0.5012213333333333
1438340872 0.6326943333333334 -0.5004436666666666
1439826751 0.631323 -0.49838699999999997
1441312630 0.6322930000000001 -0.5000680000000001
1442798509 0.6331386666666666 -0.5014023333333334
1444284388 0.6358743333333333 -0.503286
1445770267 0.63605 -0.5049076666666666
1447256146 0.6355066666666667 -0.5059553333333334
1448742025 0.6361253333333333 -0.5073006666666666
1450227904 0.6370586666666666 -0.5080453333333333
1451713783 0.6386926666666667 -0.5064036666666666
1453199662 0.6393843333333334 -0.5061313333333334
1454685541 0.6364306666666666 -0.5081859999999999
1456171420 0.636421 -0.5069593333333334
1457657299 0.6347856666666667 -0.5073746666666666
1459143178 0.6335033333333334 -0.5062003333333334
1460629057 0.62963 -0.5065736666666667
1462114936 0.6276013333333333 -0.5054793333333333
1463600815 0.6259503333333334 -0.5043326666666667
1465086694 0.6211033333333335 -0.5035213333333334
1466572573 0.6185103333333334 -0.5028176666666666
1468058452 0.614543 -0.5019833333333333
1469544331 0.6118833333333332 -0.5001946666666667
1471030210 0.612636 -0.5010923333333334
1472516089 0.6140636666666667 -0.5052383333333333
1474001968 0.6165069999999999 -0.5061696666666666
1475487847 0.6207263333333334 -0.5066243333333333
1476973726 0.620021 -0.5099490000000001
1478459605 0.6227166666666667 -0.5099136666666667
1479945484 0.623875 -0.5092869999999999
1481431363 0.62186 -0.513375
1482917242 0.625128 -0.5119126666666667
1484403121 0.62464 -0.5134823333333333
1485889000 0.6236480000000001 -0.5132319999999999
1487374879 0.6235943333333334 -0.513027
1488860758 0.623535 -0.511143
1490346637 0.622317 -0.5101
1491832516 0.6204930000000001 -0.508335
1493318395 0.6197686666666667 -0.5078119999999999
1494804274 0.616927 -0.506905
1496290153 0.6151936666666667 -0.5047546666666667
1497776032 0.6104376666666665 -0.5044766666666667
1499261911 0.606124 -0.5023823333333334
1500747790 0.6067986666666666 -0.5032840000000001
1502233669 0.6094866666666666 -0.5059996666666667
1503719548 0.6101916666666666 -0.5071033333333332
1505205427 0.6122900000000001 -0.5088173333333333
1506691306 0.6135646666666666 -0.511606
1508177185 0.6146523333333332 -0.5124483333333333
1509663064 0.6164643333333334 -0.5141640000000001
1511148943 0.6130116666666666 -0.5162526666666666
1512634822 0.6172433333333333 -0.5156813333333333
1514120701 0.6154013333333334 -0.5163570000000001
1515606580 0.6150136666666667 -0.5154043333333332
1517092459 0.613741 -0.516369
1518578338 0.6114316666666667 -0.5166590000000001
1520064217 0.6131433333333334 -0.5138826666666667
1521550096 0.6100153333333332 -0.5132413333333333
1523035975 0.608162 -0.5133223333333333
1524521854 0.604907 -0.5114996666666666
1526007733 0.6021983333333333 -0.509702
1527493612 0.5965823333333333 -0.5100873333333333
1528979491 0.5604516666666667 -0.4924596666666667
1530465370 0.591326 -0.5106906666666666
1531951249 0.5962900000000001 -0.5094806666666666
1533437128 0.5964523333333333 -0.5136946666666665
1534923007 0.60024 -0.51333
1536408886 0.6002203333333334 -0.515518
1537894765 0.6009876666666667 -0.5172646666666667
1539380644 0.6008903333333334 -0.5192123333333333
1540866523 0.6015373333333334 -0.5203266666666667
1542352402 0.606129 -0.5160586666666668
1543838281 0.6063953333333333 -0.5158953333333334
1545324160 0.6058853333333333 -0.5172119999999999
1546810039 0.6052413333333333 -0.5155113333333333
1548295918 0.6048073333333334 -0.513972
1549781797 0.5996013333333333 -0.5167306666666667
1551267676 0.5983633333333332 -0.512862
1552753555 0.5988396666666667 -0.5110996666666666
1554239434 0.5976453333333334 -0.5092306666666666
1555725313 0.5961033333333333 -0.5064906666666666
1557211192 0.5856616666666667 -0.510429
1558697071 0.5864560000000001 -0.5015686666666667
1560182950 0.580699 -0.5052690000000001
1561668829 0.5857766666666667 -0.504414
1563154708 0.5804856666666667 -0.5155266666666667
1564640587 0.5898406666666667 -0.5092396666666666
1566126466 0.585631 -0.5173413333333333
1567612345 0.5903443333333334 -0.516755
1569098224 0.5848636666666667 -0.5231883333333333
1570584103 0.5940470000000001 -0.5164590000000001
1572069982 0.5842346666666667 -0.5260366666666667
1573555861 0.5910733333333333 -0.5195770000000001
1575041740 0.587485 -0.5258633333333335
1576527619 0.5922773333333333 -0.5195603333333333
1578013498 0.5864236666666667 -0.5215653333333333
1579499377 0.5897113333333334 -0.5195259999999999
1580985256 0.584571 -0.5236973333333333
1582471135 0.607722 -0.5105383333333334
1583957014 0.5814560000000001 -0.5197600000000001
1585442893 0.5869949999999999 -0.5128563333333334
1586928772 0.5778956666666666 -0.5153693333333333
1588414651 0.5798093333333333 -0.5089670000000001
1589900530 0.5722856666666667 -0.5102169999999999
1591386409 0.5778 -0.5109436666666667
1592872288 0.5764173333333334 -0.5153576666666667
1594358167 0.5773213333333334 -0.5182946666666667
1595844046 0.579848 -0.5193409999999999
1597329925 0.5799653333333333 -0.5213433333333333
1598815804 0.5807596666666667 -0.5229316666666667
1600301683 0.5812336666666665 -0.5255146666666667
1601787562 0.5820493333333333 -0.5248616666666667
1603273441 0.581336 -0.5254446666666666
1604759320 0.5830153333333333 -0.5221886666666666
1606245199 0.5818613333333333 -0.5234573333333333
1607731078 0.581851 -0.5240796666666667
1609216957 0.5806753333333333 -0.5230373333333334
1610702836 0.578598 -0.5224906666666667
1612188715 0.5774210000000001 -0.5228666666666667
1613674594 0.5764963333333334 -0.5196203333333332
1615160473 0.5761213333333334 -0.516693
1616646352 0.5728876666666666 -0.5140076666666666
1618132231 0.5730066666666667 -0.5097253333333334
1619618110 0.5672603333333334 -0.510624
1621103989 0.5668153333333333 -0.5142333333333334
1622589868 0.5673546666666667 -0.515756
1624075747 0.569045 -0.5167766666666666
1625561626 0.5693936666666667 -0.520139
1627047505 0.569766 -0.5215923333333333
1628533384 0.5698786666666665 -0.5239443333333333
1630019263 0.5730583333333333 -0.5234596666666667
1631505142 0.5731486666666666 -0.5242696666666666
1632991021 0.5728443333333334 -0.5241026666666667
1634476900 0.5710053333333334 -0.527051
1635962779 0.5701183333333334 -0.5272576666666667
1637448658 0.571753 -0.5260626666666667
1638934537 0.5706633333333332 -0.5250929999999999
1640420416 0.5682539999999999 -0.524636
1641906295 0.5665023333333333 -0.5245123333333334
1643392174 0.5650546666666667 -0.5247243333333333
1644878053 0.5636393333333333 -0.5219836666666667
1646363932 0.559224 -0.5220753333333333
1647849811 0.5585330000000001 -0.5192896666666668
1649335690 0.5558326666666668 -0.5170686666666667
1650821569 0.5572096666666667 -0.5169246666666667
1652307448 0.5560193333333333 -0.520494
1653793327 0.5586466666666666 -0.5203669999999999
1655279206 0.5579823333333334 -0.5234246666666666
1656765085 0.5591403333333335 -0.526887
1658250964 0.5585036666666666 -0.5276963333333334
1659736843 0.5614646666666667 -0.525915
1661222722 0.5611506666666667 -0.5273536666666666
1662708601 0.5604476666666667 -0.5262243333333334
1664194480 0.5598006666666667 -0.5275373333333334
1665680359 0.559367 -0.5272009999999999
1667166238 0.557483 -0.5288843333333333
1668652117 0.5566983333333333 -0.5270306666666668
1670137996 0.5555343333333334 -0.5239766666666666
1671623875 0.556136 -0.5235086666666667
1673109754 0.5518923333333333 -0.5254706666666666
1674595633 0.5517516666666666 -0.5214123333333333
1676081512 0.5505666666666666 -0.5176053333333334
1677567391 0.5460113333333333 -0.5184416666666666
1679053270 0.54513 -0.5174046666666667
1680539149 0.541427 -0.5187849999999999
1682025028 0.545858 -0.5201076666666666
1683510907 0.5490033333333334 -0.5206713333333334
1684996786 0.5495779999999999 -0.5236066666666667
1686482665 0.5514246666666667 -0.5263650000000001
1687968544 0.5504633333333334 -0.526995
1689454423 0.5439286666666666 -0.5333623333333333
1690940302 0.545098 -0.5334486666666667
1692426181 0.5447606666666668 -0.5343086666666667
1693912060 0.5478923333333333 -0.5338023333333334
1695397939 0.540088 -0.539699
1696883818 0.5395616666666666 -0.5382986666666667
1698369697 0.5391933333333333 -0.5391573333333334
1699855576 0.5390929999999999 -0.5370103333333333
1701341455 0.5395833333333333 -0.535124
1702827334 0.5378660000000001 -0.533235
1704313213 0.5387283333333333 -0.530992
1705799092 0.5479423333333333 -0.520712
1707284971 0.5453556666666667 -0.519168
1708770850 0.543875 -0.51565
1710256729 0.5439759999999999 -0.5130043333333333
1711742608 0.543169 -0.5166063333333333
1713228487 0.5451643333333334 -0.5183803333333333
1714714366 0.5438473333333332 -0.5218343333333334
1716200245 0.5478656666666667 -0.5212923333333334
1717686124 0.5493656666666668 -0.52171
1719172003 0.5484616666666667 -0.5229713333333333
1720657882 0.550555 -0.522695
1722143761 0.5486013333333334 -0.5246036666666667
1723629640 0.5470916666666666 -0.5208126666666667
1725115519 0.5493976666666667 -0.5234683333333333
1726601398 0.548094 -0.5239833333333334
1728087277 0.549255 -0.5222476666666666
1729573156 0.545774 -0.5199673333333333
1731059035 0.5443203333333333 -0.5221936666666666
1732544914 0.5432336666666667 -0.5197716666666666
1734030793 0.5419419999999999 -0.5188313333333333
1735516672 0.5382349999999999 -0.518914
1737002551 0.5372923333333334 -0.5136596666666666
1738488430 0.5331640000000001 -0.5146683333333334
1739974309 0.5325030000000001 -0.5102363333333333
1741460188 0.5309019999999999 -0.5157146666666668
1742946067 0.5345940000000001 -0.5171253333333333
1744431946 0.5379563333333334 -0.5181596666666667
1745917825 0.5385903333333334 -0.5208283333333332
1747403704 0.5386853333333333 -0.523598
1748889583 0.5386483333333333 -0.5236909999999999
1750375462 0.538444 -0.524164
1751861341 0.5414393333333333 -0.5245413333333334
1753347220 0.5387686666666666 -0.5264133333333333
1754833099 0.5406463333333333 -0.5266446666666665
1756318978 0.5409823333333333 -0.5270283333333333
1757804857 0.5409176666666666 -0.5271116666666666
1759290736 0.5400246666666667 -0.5254486666666667
1760776615 0.538085 -0.5239143333333334
1762262494 0.5350646666666666 -0.5259486666666667
1763748373 0.535091 -0.5241239999999999
1765234252 0.5335103333333333 -0.5189959999999999
1766720131 0.5336266666666667 -0.517665
1768206010 0.5301923333333334 -0.5160036666666666
1769691889 0.5270436666666667 -0.5144336666666667
1771177768 0.5263963333333334 -0.5179346666666667
1772663647 0.5325540000000001 -0.5177243333333332
1774149526 0.5309393333333333 -0.5216393333333333
1775635405 0.534678 -0.5222673333333333
1777121284 0.5345363333333334 -0.5229916666666666
1778607163 0.535851 -0.5256843333333333
1780093042 0.5406833333333333 -0.5263026666666666
1781578921 0.5396563333333333 -0.525686
1783064800 0.5383406666666667 -0.52508
1784550679 0.5388893333333333 -0.5246476666666666
1786036558 0.539364 -0.5250663333333333
1787522437 0.539775 -0.5250543333333334
1789008316 0.538803 -0.5250203333333333
1790494195 0.5387799999999999 -0.5223956666666667
1791980074 0.538721 -0.520693
1793465953 0.5342506666666665 -0.5186660000000001
1794951832 0.5348343333333333 -0.5163273333333334
1796437711 0.5280516666666667 -0.517274
1797923590 0.5299756666666666 -0.5140600000000001
1799409469 0.5261883333333334 -0.5131253333333333
1800895348 0.5275013333333333 -0.5128199999999999
1802381227 0.5285303333333333 -0.513222
1803867106 0.530206 -0.51756
1805352985 0.530785 -0.5167223333333334
1806838864 0.5310076666666667 -0.519869
1808324743 0.5309036666666667 -0.5181843333333332
1809810622 0.534091 -0.521716
1811296501 0.5313233333333334 -0.5215350000000001
1812782380 0.532609 -0.5225533333333333
1814268259 0.5333816666666668 -0.5214949999999999
1815754138 0.5322446666666667 -0.5213256666666667
1817240017 0.5308493333333334 -0.5218096666666667
1818725896 0.528659 -0.522043
1820211775 0.5308263333333333 -0.5175313333333333
1821697654 0.5275583333333334 -0.5177456666666665
1823183533 0.5251886666666666 -0.516316
1824669412 0.5218633333333335 -0.5148436666666667
1826155291 0.5202173333333334 -0.5142540000000001
1827641170 0.5172433333333334 -0.5115003333333333
1829127049 0.5079393333333333 -0.5091976666666667
1830612928 0.5144166666666666 -0.511212
1832098807 0.514973 -0.5123986666666666
1833584686 0.5156016666666666 -0.514022
1835070565 0.5171283333333333 -0.516548
1836556444 0.5172593333333334 -0.5195743333333334
1838042323 0.5205713333333334 -0.5184843333333334
1839528202 0.5177963333333334 -0.5225143333333334
1841014081 0.518672 -0.522438
1842499960 0.520095 -0.5219606666666666
1843985839 0.522503 -0.524169
1845471718 0.5229370000000001 -0.523095
1846957597 0.5238136666666665 -0.5248526666666665
1848443476 0.5179666666666667 -0.524751
1849929355 0.5167586666666667 -0.523076
1851415234 0.5177533333333333 -0.5205113333333333
1852901113 0.5162583333333334 -0.5182983333333334
1854386992 0.5147533333333333 -0.517747
1855872871 0.512682 -0.5184293333333333
1857358750 0.5098323333333333 -0.517079
1858844629 0.5069993333333334 -0.5149976666666666
1860330508 0.506798 -0.512814
1861816387 0.506688 -0.516316
1863302266 0.5091823333333334 -0.5187116666666666
1864788145 0.511162 -0.5213636666666667
1866274024 0.5120363333333333 -0.5217276666666667
1867759903 0.512464 -0.5243496666666667
1869245782 0.5144026666666667 -0.5255693333333333
1870731661 0.5150236666666667 -0.5255366666666667
1872217540 0.5110763333333334 -0.5280163333333333
1873703419 0.5140363333333333 -0.526682
1875189298 0.5135323333333334 -0.5276546666666667
1876675177 0.5151456666666666 -0.527172
1878161056 0.5143733333333333 -0.526167
1879646935 0.5140889999999999 -0.5250290000000001
1881132814 0.5145606666666667 -0.5221023333333333
1882618693 0.5097703333333333 -0.5230293333333333
1884104572 0.5107849999999999 -0.521537
1885590451 0.507653 -0.5181356666666667
1887076330 0.5061826666666667 -0.5167203333333333
1888562209 0.5039793333333332 -0.51519
1890048088 0.5004266666666667 -0.5136453333333334
1891533967 0.5032513333333334 -0.5158413333333334
1893019846 0.508309 -0.5137563333333334
1894505725 0.5055993333333334 -0.5196726666666667
1895991604 0.5001283333333334 -0.5250053333333334
1897477483 0.507243 -0.522001
1898963362 0.506151 -0.5232413333333333
1900449241 0.5060943333333333 -0.5243986666666666
1901935120 0.506833 -0.524885
1903420999 0.5087406666666666 -0.5241333333333333
1904906878 0.5084666666666666 -0.522874
1906392757 0.506873 -0.522423
1907878636 0.5065586666666667 -0.5218206666666667
1909364515 0.5059513333333333 -0.5196109999999999
1910850394 0.5040906666666666 -0.5204983333333333
1912336273 0.5043216666666667 -0.5162533333333333
1913822152 0.502227 -0.5158016666666666
1915308031 0.5016106666666666 -0.51382
1916793910 0.4952836666666667 -0.513425
1918279789 0.49386599999999997 -0.511089
1919765668 0.4925906666666667 -0.5085613333333333
1921251547 0.49082133333333333 -0.5110363333333333
1922737426 0.49360566666666666 -0.5129833333333332
1924223305 0.49392733333333333 -0.515947
1925709184 0.4950106666666667 -0.5177023333333334
1927195063 0.49483966666666673 -0.5180653333333334
1928680942 0.49694733333333335 -0.5211376666666667
1930166821 0.5003893333333332 -0.5208546666666667
1931652700 0.5005563333333334 -0.521705
1933138579 0.499897 -0.5219843333333333
1934624458 0.497469 -0.5244496666666666
1936110337 0.5015109999999999 -0.519232
1937596216 0.49848033333333336 -0.5219206666666666
1939082095 0.49933333333333335 -0.5213243333333334
1940567974 0.496148 -0.5201516666666667
1942053853 0.49439099999999997 -0.5220186666666666
1943539732 0.49376366666666666 -0.519826
1945025611 0.490798 -0.520838
1946511490 0.49035233333333333 -0.5161030000000001
1947997369 0.4856393333333333 -0.5149076666666667
1949483248 0.49003766666666665 -0.5108343333333334
1950969127 0.48838833333333337 -0.5126663333333333
1952455006 0.48674366666666663 -0.5164110000000001
1953940885 0.48901866666666666 -0.516651
1955426764 0.488537 -0.5189243333333332
1956912643 0.490242 -0.5208883333333333
1958398522 0.4920453333333333 -0.5197773333333333
1959884401 0.490208 -0.5222883333333334
1961370280 0.4919036666666667 -0.5216616666666667
1962856159 0.4911286666666667 -0.522763
1964342038 0.49096133333333336 -0.5234303333333333
1965827917 0.4944766666666667 -0.5204583333333334
1967313796 0.4902466666666667 -0.5226653333333333
1968799675 0.4868786666666667 -0.5232343333333334
1970285554 0.48889866666666665 -0.5203903333333334
1971771433 0.48381300000000005 -0.5223863333333334
1973257312 0.48816366666666666 -0.5159053333333333
1974743191 0.4854153333333333 -0.5173073333333332
1976229070 0.48012699999999997 -0.5164116666666666
1977714949 0.47848633333333335 -0.5127653333333333
1979200828 0.4814046666666667 -0.512772
1980686707 0.4800986666666667 -0.5081906666666667
1982172586 0.4773163333333333 -0.5150526666666667
1983658465 0.4805186666666666 -0.5145783333333332
1985144344 0.48031500000000005 -0.5175086666666666
1986630223 0.47810933333333333 -0.5199443333333333
1988116102 0.480081 -0.5234396666666666
1989601981 0.467303 -0.528791
1991087860 0.481562 -0.522958
1992573739 0.4810446666666666 -0.5249576666666665
1994059618 0.47920133333333337 -0.52596
1995545497 0.4809333333333334 -0.5227743333333333
1997031376 0.482386 -0.5184650000000001
1998517255 0.481253 -0.5237416666666667
2000003134 0.47833466666666663 -0.5220813333333333
2001489013 0.47798766666666664 -0.5218633333333332
2002974892 0.478609 -0.5185516666666666
2004460771 0.4751266666666667 -0.5180456666666666
2005946650 0.4727693333333333 -0.5170183333333332
2007432529 0.47020833333333334 -0.516146
2008918408 0.4695816666666666 -0.5136853333333333
2010404287 0.465926 -0.5124003333333333
2011890166 0.46854533333333337 -0.5150266666666666
2013376045 0.468137 -0.518384
2014861924 0.47129033333333337 -0.5189900000000001
2016347803 0.47342599999999996 -0.5211663333333334
2017833682 0.47264233333333333 -0.5234266666666666
2019319561 0.47539833333333337 -0.5220106666666667
2020805440 0.4773133333333333 -0.5256149999999999
2022291319 0.47689266666666663 -0.5245356666666666
2023777198 0.47401033333333337 -0.5260096666666666
2025263077 0.477196 -0.525502
2026748956 0.47583033333333336 -0.5235153333333334
2028234835 0.4763226666666666 -0.5219646666666666
2029720714 0.47784766666666667 -0.5219223333333334
2031206593 0.47220233333333334 -0.5235453333333333
2032692472 0.474096 -0.5214533333333333
2034178351 0.4737343333333333 -0.5159226666666666
2035664230 0.47206666666666663 -0.5164893333333334
2037150109 0.46984633333333337 -0.5165653333333333
2038635988 0.46854 -0.5143613333333333
2040121867 0.4668046666666667 -0.5119853333333334
2041607746 0.4687503333333333 -0.5132763333333333
2043093625 0.4672943333333334 -0.5171933333333333
2044579504 0.46727766666666665 -0.5177723333333334
2046065383 0.469145 -0.5184503333333333
2047551262 0.46841266666666664 -0.519248
2049037141 0.46828833333333336 -0.5206736666666666
2050523020 0.4721786666666667 -0.5185860000000001
2052008899 0.46828766666666666 -0.5225546666666667
2053494778 0.46851233333333325 -0.52173
2054980657 0.46939133333333327 -0.5221733333333334
2056466536 0.46507000000000004 -0.5238563333333333
2057952415 0.464176 -0.523406
2059438294 0.465792 -0.516635
2060924173 0.46322166666666664 -0.5190579999999999
2062410052 0.46252099999999996 -0.5176623333333333
2063895931 0.459134 -0.5194253333333333
2065381810 0.4584333333333333 -0.513744
2066867689 0.45535666666666663 -0.5133540000000001
2068353568 0.452984 -0.512675
2069839447 0.450772 -0.5095153333333333
2071325326 0.45234033333333334 -0.5128896666666667
2072811205 0.45482433333333333 -0.5137516666666667
2074297084 0.45463000000000003 -0.5151793333333333
2075782963 0.456983 -0.5184876666666667
2077268842 0.45734899999999995 -0.5196443333333333
2078754721 0.4598236666666667 -0.5199866666666666
2080240600 0.45948933333333325 -0.520522
2081726479 0.460691 -0.5201663333333334
2083212358 0.46231333333333335 -0.5234413333333333
2084698237 0.4611403333333333 -0.523059
2086184116 0.462119 -0.5218576666666667
2087669995 0.4605496666666667 -0.5205916666666667
2089155874 0.46099700000000005 -0.521877
2090641753 0.461652 -0.5195113333333333
2092127632 0.46191 -0.5176003333333333
2093613511 0.457638 -0.5184690000000001
2095099390 0.46000833333333335 -0.5144289999999999
2096585269 0.4561806666666666 -0.514561
2098071148 0.45461166666666664 -0.5134086666666666
2099557027 0.4533266666666667 -0.5093293333333334
2101042906 0.45292133333333334 -0.5104433333333334
2102528785 0.4533313333333333 -0.5147766666666667
2104014664 0.455915 -0.5136713333333334
2105500543 0.45628033333333334 -0.5176886666666666
2106986422 0.4593353333333334 -0.5171656666666666
2108472301 0.458194 -0.5214603333333333
2109958180 0.4595643333333334 -0.520146
2111444059 0.46278099999999994 -0.5222106666666667
2112929938 0.4597736666666667 -0.521161
2114415817 0.46162966666666666 -0.5230886666666666
2115901696 0.46438700000000005 -0.5194466666666666
2117387575 0.460996 -0.5224356666666666
2118873454 0.4609843333333334 -0.522377
2120359333 0.4602996666666667 -0.522386
2121845212 0.4605903333333334 -0.5185736666666667
2123331091 0.45760400000000007 -0.5192313333333334
2124816970 0.456928 -0.5159493333333333
2126302849 0.456189 -0.514417
2127788728 0.4446233333333333 -0.5165073333333333
2129274607 0.4492496666666666 -0.5129843333333333
2130760486 0.45130933333333334 -0.5091496666666666
2132246365 0.44961366666666663 -0.5114533333333333
2133732244 0.45314766666666667 -0.5159873333333334
2135218123 0.450957 -0.5165006666666666
2136704002 0.45330200000000004 -0.51702
2138189881 0.4543563333333333 -0.5206206666666667
2139675760 0.451964 -0.522537
2141161639 0.4532803333333333 -0.5218573333333333
2142647518 0.45321000000000006 -0.5243463333333332
2144133397 0.4521773333333334 -0.5234169999999999
2145619276 0.4518496666666667 -0.5228296666666666
2147105155 0.45072633333333334 -0.5218413333333333
2148591034 0.45161 -0.5216943333333334
2150076913 0.450383 -0.5200723333333332
2151562792 0.4483436666666667 -0.520435
2153048671 0.4486016666666666 -0.5197083333333333
2154534550 0.44130566666666665 -0.5204259999999999
2156020429 0.4440863333333333 -0.5178256666666666
2157506308 0.4444106666666667 -0.5154540000000001
2158992187 0.43774966666666665 -0.5128903333333333
2160478066 0.43632899999999997 -0.5140606666666666
2161963945 0.43910133333333334 -0.5155973333333334
2163449824 0.4391683333333333 -0.5204416666666667
2164935703 0.4419676666666666 -0.5187386666666667
2166421582 0.4413916666666666 -0.5224176666666667
2167907461 0.4433023333333333 -0.5214946666666667
2169393340 0.44171199999999994 -0.5235523333333334
2170879219 0.44436766666666666 -0.5247733333333334
2172365098 0.443146 -0.5253986666666667
2173850977 0.4474303333333333 -0.5225219999999999
2175336856 0.444774 -0.5250103333333334
2176822735 0.4459483333333334 -0.5230173333333333
2178308614 0.4466076666666667 -0.524809
2179794493 0.4438953333333333 -0.5216599999999999
2181280372 0.4449623333333334 -0.5209173333333333
2182766251 0.4553026666666667 -0.514471
2184252130 0.4427586666666667 -0.5193279999999999
2185738009 0.4415786666666666 -0.5156983333333333
2187223888 0.44116533333333335 -0.5122209999999999
2188709767 0.43771699999999997 -0.5113936666666666
2190195646 0.43836633333333336 -0.509386
2191681525 0.43846766666666664 -0.51253
2193167404 0.4406546666666667 -0.5127326666666666
2194653283 0.437902 -0.5147343333333333
2196139162 0.4399286666666667 -0.517417
2197625041 0.441923 -0.5185436666666666
2199110920 0.4459223333333333 -0.518601
2200596799 0.442247 -0.5193573333333333
2202082678 0.44829500000000005 -0.5179316666666667
2203568557 0.44892400000000005 -0.5173683333333333
2205054436 0.4501676666666667 -0.5157996666666667
2206540315 0.44143333333333334 -0.5203393333333334
2208026194 0.47085366666666667 -0.48869366666666664
2209512073 0.445401 -0.5149663333333333
2210997952 0.4414736666666667 -0.5154786666666666
2212483831 0.44074166666666664 -0.513407
2213969710 0.44392499999999996 -0.508712
2215455589 0.43858266666666673 -0.5098326666666666
2216941468 0.442298 -0.5053006666666666
2218427347 0.4346406666666667 -0.5064776666666666
2219913226 0.43913566666666665 -0.5015666666666666
2221399105 0.4333746666666667 -0.5054706666666667
2222884984 0.4390446666666667 -0.5053926666666667
2224370863 0.4322566666666667 -0.510291
2225856742 0.4389146666666666 -0.5109473333333333
2227342621 0.43537833333333337 -0.5153613333333333
2228828500 0.44323266666666666 -0.5125833333333333
2230314379 0.43826800000000005 -0.5169466666666667
2231800258 0.4428533333333333 -0.5137476666666666
2233286137 0.4385833333333333 -0.5174073333333333
2234772016 0.44421099999999997 -0.5141143333333333
2236257895 0.439937 -0.5198906666666666
2237743774 0.4450073333333333 -0.5152609999999999
2239229653 0.435957 -0.516625
2240715532 0.44580766666666666 -0.5128456666666666
2242201411 0.43479666666666666 -0.5173376666666666
2243687290 0.43985599999999997 -0.513242
2245173169 0.43413266666666667 -0.5130633333333333
2246659048 0.43553233333333335 -0.5079159999999999
2248144927 0.43001466666666666 -0.5096236666666666
2249630806 0.43530700000000006 -0.5050296666666667
2251116685 0.43073066666666665 -0.5085873333333334
2252602564 0.434567 -0.5101386666666666
2254088443 0.4352023333333334 -0.511024
2255574322 0.4319626666666667 -0.5114273333333333
2257060201 0.4334356666666666 -0.5132916666666668
2258546080 0.43415699999999996 -0.514802
2260031959 0.43442333333333333 -0.5124836666666667
2261517838 0.43350299999999997 -0.511574
2263003717 0.43115233333333336 -0.5166189999999999
2264489596 0.43181733333333333 -0.514559
2265975475 0.42836500000000005 -0.515642
2267461354 0.426093 -0.514453
2268947233 0.44110333333333335 -0.5485953333333334
2270433112 0.429544 -0.512397
2271918991 0.4252576666666667 -0.5126443333333334
2273404870 0.41955933333333334 -0.512614
2274890749 0.42598866666666674 -0.5090223333333334
2276376628 0.4207 -0.5086553333333333
2277862507 0.42262466666666665 -0.5163613333333333
2279348386 0.4164213333333333 -0.5035850000000001
2280834265 0.41547466666666666 -0.5060303333333334
2282320144 0.4179926666666667 -0.5071513333333333
2283806023 0.42129900000000003 -0.5079836666666666
2285291902 0.42318133333333335 -0.5094406666666668
2286777781 0.4211313333333333 -0.5086133333333334
2288263660 0.4224573333333333 -0.5110959999999999
2289749539 0.42586999999999997 -0.5106933333333333
2291235418 0.42226199999999997 -0.5104546666666666
2292721297 0.4244486666666667 -0.5105593333333334
2294207176 0.4238356666666667 -0.5114836666666666
2295693055 0.4244596666666667 -0.510059
2297178934 0.4269536666666667 -0.508559
2298664813 0.42579866666666666 -0.5095453333333334
2300150692 0.4242033333333333 -0.5089990000000001
2301636571 0.42376233333333335 -0.5077703333333333
2303122450 0.425535 -0.5022256666666666
2304608329 0.417403 -0.5056723333333334
2306094208 0.4197303333333333 -0.50576
2307580087 0.4177326666666667 -0.5041176666666667
2309065966 0.4177436666666667 -0.501985
2310551845 0.42136866666666667 -0.500054
2312037724 0.4166553333333334 -0.5050173333333333
2313523603 0.422053 -0.5045866666666666
2315009482 0.42259899999999995 -0.5073663333333333
2316495361 0.41753899999999994 -0.5099536666666666
2317981240 0.4182873333333333 -0.5086283333333333
2319467119 0.4252626666666666 -0.5091323333333333
2320952998 0.42898 -0.5117023333333334
2322438877 0.427456 -0.5108973333333333
2323924756 0.4275896666666667 -0.5095026666666668
2325410635 0.4255343333333333 -0.5119106666666666
2326896514 0.4238623333333333 -0.511534
2328382393 0.42720633333333335 -0.5095086666666667
2329868272 0.4254573333333333 -0.5104866666666666
2331354151 0.4334553333333333 -0.5106553333333333
2332840030 0.42440000000000005 -0.5106163333333333
2334325909 0.4269903333333333 -0.5084493333333333
2335811788 0.4261876666666667 -0.5059106666666666
2337297667 0.4242553333333334 -0.5047013333333333
2338783546 0.42068866666666666 -0.5055176666666666
2340269425 0.419955 -0.503463
2341755304 0.41872366666666666 -0.50768
2343241183 0.425216 -0.506545
2344727062 0.4246916666666667 -0.508597
2346212941 0.42621133333333333 -0.5100693333333334
2347698820 0.421013 -0.5117873333333334
2349184699 0.41843733333333333 -0.5153466666666667
2350670578 0.42060433333333336 -0.512484
2352156457 0.42049933333333334 -0.5136966666666667
2353642336 0.4233833333333334 -0.515879
2355128215 0.4234533333333333 -0.5139136666666667
2356614094 0.4175406666666667 -0.516221
2358099973 0.41708666666666666 -0.5156746666666666
2359585852 0.419275 -0.514586
2361071731 0.41911799999999994 -0.5122736666666666
2362557610 0.41869966666666664 -0.5130003333333333
2364043489 0.410985 -0.5172150000000001
2365529368 0.409929 -0.515076
2367015247 0.4099713333333333 -0.5115223333333333
2368501126 0.40412733333333334 -0.511825
2369987005 0.4008906666666667 -0.5115903333333333
2371472884 0.407934 -0.5086146666666667
2372958763 0.412175 -0.5090500000000001
2374444642 0.4108676666666667 -0.5134116666666667
2375930521 0.409778 -0.5148056666666667
2377416400 0.4151013333333333 -0.5212756666666666
2378902279 0.4119300000000001 -0.516381
2380388158 0.4149773333333333 -0.5147423333333334
2381874037 0.41757299999999997 -0.5131836666666666
2383359916 0.41145933333333334 -0.519752
2384845795 0.41343899999999995 -0.519385
2386331674 0.4151376666666667 -0.5142810000000001
2387817553 0.4186706666666667 -0.5107856666666667
2389303432 0.4135046666666667 -0.5132243333333334
2390789311 0.4155423333333333 -0.5151733333333333
2392275190 0.4120713333333333 -0.507691
2393761069 0.4136763333333333 -0.508558
2395246948 0.41339733333333334 -0.5057323333333333
2396732827 0.408817 -0.503783
2398218706 0.406025 -0.5038923333333334
2399704585 0.402871 -0.49878
2401190464 0.403092 -0.5032936666666666
2402676343 0.40820233333333333 -0.5020923333333333
2404162222 0.40870733333333337 -0.5077906666666666
2405648101 0.40918066666666664 -0.5069456666666667
2407133980 0.410233 -0.5096226666666667
2408619859 0.4084183333333333 -0.5108733333333334
2410105738 0.4088596666666667 -0.5161370000000001
2411591617 0.4101156666666667 -0.512862
2413077496 0.41076733333333343 -0.512761
2414563375 0.40747099999999997 -0.51803
2416049254 0.414164 -0.51761
2417535133 0.37398766666666666 -0.5114296666666668
2419021012 0.4061873333333333 -0.5176283333333335
2420506891 0.3988143333333333 -0.5234456666666667
2421992770 0.40542666666666666 -0.514523
2423478649 0.403202 -0.512341
2424964528 0.40718799999999994 -0.5071956666666667
2426450407 0.4062233333333333 -0.5103589999999999
2427936286 0.40112566666666666 -0.512541
2429422165 0.3913273333333333 -0.5126493333333334
2430908044 0.39608366666666667 -0.5103696666666667
2432393923 0.3968776666666667 -0.512957
2433879802 0.39555200000000007 -0.5159853333333334
2435365681 0.40149933333333326 -0.5132789999999999
2436851560 0.4019003333333333 -0.5128283333333333
2438337439 0.4005046666666667 -0.5137993333333334
2439823318 0.40464666666666665 -0.5144356666666666
2441309197 0.40010300000000004 -0.518612
2442795076 0.40493566666666664 -0.5162986666666667
2444280955 0.40446333333333334 -0.5148273333333333
2445766834 0.403 -0.517543
2447252713 0.4011993333333333 -0.5177106666666667
2448738592 0.399961 -0.5194076666666667
2450224471 0.4005956666666666 -0.5126986666666666
2451710350 0.39936499999999997 -0.51193
2453196229 0.3979296666666667 -0.5128206666666667
2454682108 0.3981126666666667 -0.5067226666666667
2456167987 0.39451566666666665 -0.5049313333333333
2457653866 0.39541133333333334 -0.5019333333333332
2459139745 0.3920316666666667 -0.505158
2460625624 0.38899900000000004 -0.5023
2462111503 0.39187 -0.503778
2463597382 0.3929663333333333 -0.508406
2465083261 0.39283433333333334 -0.5073553333333333
2466569140 0.392212 -0.5085936666666666
2468055019 0.39504433333333333 -0.512971
2469540898 0.3947433333333333 -0.5154276666666667
2471026777 0.4139836666666667 -0.5122293333333333
2472512656 0.39382000000000006 -0.5126890000000001
2473998535 0.3981996666666667 -0.513667
2475484414 0.3953356666666667 -0.512647
2476970293 0.39796733333333334 -0.509204
2478456172 0.39532000000000006 -0.5139746666666667
2479942051 0.394456 -0.509239
2481427930 0.393975 -0.5084893333333333
2482913809 0.38862299999999994 -0.5142286666666668
2484399688 0.395048 -0.509441
2485885567 0.390589 -0.5060466666666666
2487371446 0.3931436666666667 -0.503648
2488857325 0.38647666666666664 -0.5015963333333334
2490343204 0.387232 -0.5013596666666666
2491829083 0.38596699999999995 -0.5009186666666666
2493314962 0.39137299999999997 -0.5023473333333333
2494800841 0.388411 -0.5085316666666667
2496286720 0.39445166666666664 -0.5080106666666667
2497772599 0.39259333333333335 -0.512686
2499258478 0.399335 -0.5091456666666666
2500744357 0.39483599999999996 -0.5125
2502230236 0.39840699999999996 -0.5131519999999999
2503716115 0.394766 -0.5123676666666667
2505201994 0.4004816666666667 -0.5117483333333332
2506687873 0.39787900000000004 -0.511041
2508173752 0.40046166666666666 -0.509003
2509659631 0.39823633333333336 -0.5103423333333333
2511145510 0.40112566666666666 -0.5085563333333334
2512631389 0.39659099999999997 -0.506182
2514117268 0.39845099999999994 -0.5048566666666666
2515603147 0.3975496666666667 -0.5047253333333334
2517089026 0.3995043333333333 -0.5004766666666667
2518574905 0.3927566666666667 -0.5006579999999999
2520060784 0.39464066666666664 -0.4981176666666667
2521546663 0.39023800000000003 -0.5025000000000001
2523032542 0.39694433333333334 -0.5009929999999999
2524518421 0.39624533333333334 -0.5027813333333334
2526004300 0.39535133333333333 -0.5063886666666667
2527490179 0.39544399999999996 -0.5093340000000001
2528976058 0.396696 -0.508258
2530461937 0.39398800000000006 -0.5102626666666668
2531947816 0.39519166666666666 -0.509902
2533433695 0.3943993333333333 -0.512374
2534919574 0.3952256666666667 -0.5104923333333333
2536405453 0.3944026666666667 -0.512641
2537891332 0.39332866666666666 -0.5094789999999999
2539377211 0.3931883333333333 -0.5106973333333333
2540863090 0.393952 -0.509899
2542348969 0.390071 -0.5092656666666667
2543834848 0.3893356666666667 -0.5088623333333334
2545320727 0.3891293333333334 -0.5071186666666666
2546806606 0.388754 -0.5045503333333333
2548292485 0.383842 -0.5022576666666666
2549778364 0.3794596666666667 -0.5032209999999999
2551264243 0.38526666666666665 -0.5045093333333334
2552750122 0.3838873333333333 -0.5064913333333333
2554236001 0.38358133333333333 -0.508494
2555721880 0.38423766666666664 -0.5120296666666667
2557207759 0.3861016666666666 -0.5127276666666667
2558693638 0.38591766666666666 -0.5121916666666667
2560179517 0.384909 -0.5163356666666666
2561665396 0.3858566666666667 -0.5164856666666666
2563151275 0.38480766666666666 -0.5156763333333333
2564637154 0.38572866666666666 -0.5165946666666666
2566123033 0.3812126666666667 -0.518153
2567608912 0.38312966666666665 -0.5166476666666667
2569094791 0.38081566666666666 -0.5165859999999999
2570580670 0.38348166666666667 -0.5146373333333333
2572066549 0.38367033333333334 -0.5147976666666666
2573552428 0.3791926666666667 -0.515372
2575038307 0.38100433333333333 -0.5147643333333334
2576524186 0.3768563333333333 -0.5148006666666667
2578010065 0.37404333333333334 -0.5136213333333334
2579495944 0.37415233333333336 -0.5117646666666666
2580981823 0.37257433333333334 -0.5098536666666666
2582467702 0.3763256666666666 -0.511483
2583953581 0.3759686666666667 -0.5123973333333334
2585439460 0.377008 -0.5134236666666667
2586925339 0.38012766666666664 -0.5123736666666666
2588411218 0.3800536666666667 -0.5114733333333333
2589897097 0.38028466666666666 -0.5117786666666666
2591382976 0.379512 -0.5120883333333334
2592868855 0.38026566666666667 -0.5075943333333334
2594354734 0.37817300000000004 -0.5111176666666667
2595840613 0.3763826666666667 -0.5079183333333334
2597326492 0.37747899999999995 -0.5085083333333333
2598812371 0.38027733333333336 -0.5056313333333332
2600298250 0.37720233333333325 -0.5041720000000001
2601784129 0.3771256666666667 -0.5012753333333334
2603270008 0.37484333333333336 -0.5000926666666666
2604755887 0.3730713333333333 -0.49774333333333337
2606241766 0.3719763333333333 -0.49907100000000004
2607727645 0.369491 -0.494161
2609213524 0.3688316666666666 -0.4891453333333333
2610699403 0.3666313333333333 -0.489897
2612185282 0.36701433333333333 -0.4888383333333333
2613671161 0.36650266666666664 -0.4924083333333333
2615157040 0.370005 -0.4958133333333334
2616642919 0.3677183333333333 -0.496399
2618128798 0.37388533333333335 -0.4973483333333333
2619614677 0.371995 -0.49836400000000003
2621100556 0.3758823333333334 -0.4964246666666667
2622586435 0.37529433333333334 -0.49593366666666666
2624072314 0.37312700000000004 -0.4980719999999999
2625558193 0.3723343333333333 -0.5009196666666667
2627044072 0.36967733333333336 -0.49750266666666665
2628529951 0.37053899999999995 -0.49827
2630015830 0.3714423333333334 -0.4952256666666666
2631501709 0.3702316666666667 -0.498899
2632987588 0.373496 -0.49731533333333333
2634473467 0.3703243333333333 -0.4911543333333333
2635959346 0.36706900000000003 -0.4946606666666667
2637445225 0.3640506666666667 -0.49147599999999997
2638931104 0.3667123333333333 -0.488942
2640416983 0.362666 -0.4902276666666667
2641902862 0.3632683333333333 -0.4916313333333333
2643388741 0.3617913333333333 -0.49540500000000004
2644874620 0.36429433333333333 -0.498331
2646360499 0.3667636666666667 -0.498772
2647846378 0.36658133333333337 -0.5023316666666667
2649332257 0.366056 -0.5010910000000001
2650818136 0.36658233333333334 -0.504339
2652304015 0.37073033333333333 -0.50353
2653789894 0.36891633333333335 -0.5042110000000001
2655275773 0.35994166666666666 -0.5048466666666667
2656761652 0.3705983333333333 -0.5051800000000001
2658247531 0.3764976666666667 -0.5058593333333333
2659733410 0.36821 -0.502922
2661219289 0.36413866666666667 -0.49803
2662705168 0.365438 -0.5040076666666667
2664191047 0.367063 -0.5042399999999999
2665676926 0.36391633333333334 -0.5029866666666667
2667162805 0.36000066666666664 -0.5029396666666667
2668648684 0.3605753333333333 -0.5004053333333334
2670134563 0.3589689999999999 -0.49975433333333336
2671620442 0.359758 -0.5034503333333333
2673106321 0.3598753333333333 -0.5009106666666666
2674592200 0.35994666666666664 -0.5035203333333333
2676078079 0.36207966666666663 -0.504142
2677563958 0.3657146666666667 -0.5072356666666666
2679049837 0.3666053333333334 -0.5045829999999999
2680535716 0.3689006666666666 -0.5051993333333332
2682021595 0.36112066666666665 -0.5071396666666667
2683507474 0.36688666666666664 -0.5030806666666666
2684993353 0.36626033333333335 -0.5046486666666666
2686479232 0.360892 -0.5034549999999999
2687965111 0.37483466666666665 -0.5038256666666666
2689450990 0.3675896666666667 -0.500886
2690936869 0.3619813333333333 -0.4995596666666667
2692422748 0.362697 -0.4974886666666667
2693908627 0.36324766666666664 -0.49570833333333336
2695394506 0.3594376666666667 -0.49587866666666663
2696880385 0.3594296666666667 -0.4938896666666667
2698366264 0.3590236666666667 -0.48919399999999996
2699852143 0.3573933333333333 -0.4880853333333333
2701338022 0.351662 -0.48949033333333336
2702823901 0.3590436666666667 -0.49060299999999996
2704309780 0.35925266666666666 -0.49257733333333337
2705795659 0.363256 -0.49456533333333336
2707281538 0.364083 -0.49442233333333335
2708767417 0.364388 -0.493509
2710253296 0.36534433333333327 -0.4958653333333333
2711739175 0.36712833333333333 -0.49435333333333337
2713225054 0.3681096666666666 -0.49508766666666665
2714710933 0.3693956666666667 -0.4956876666666667
2716196812 0.3659866666666667 -0.4956066666666667
2717682691 0.37046399999999996 -0.49223700000000004
2719168570 0.3695253333333333 -0.49288233333333337
2720654449 0.3701683333333334 -0.4596073333333333
2722140328 0.37229566666666664 -0.48987033333333335
2723626207 0.364652 -0.4876103333333333
2725112086 0.37054633333333337 -0.484486
2726597965 0.367226 -0.48451099999999997
2728083844 0.36144 -0.48096233333333327
2729569723 0.3587133333333334 -0.4808046666666666
2731055602 0.35914500000000005 -0.4802326666666667
2732541481 0.360936 -0.48519400000000007
2734027360 0.3638263333333333 -0.48566966666666667
2735513239 0.362528 -0.48982733333333334
2736999118 0.365859 -0.49101233333333333
2738484997 0.35993 -0.4939493333333333
2739970876 0.35814666666666667 -0.49686499999999995
2741456755 0.36607066666666666 -0.4962153333333334
2742942634 0.360408 -0.5017313333333333
2744428513 0.3604176666666667 -0.502224
2745914392 0.36229200000000006 -0.5025383333333333
2747400271 0.36516533333333334 -0.49912699999999993
2748886150 0.35874300000000003 -0.5029796666666666
2750372029 0.359258 -0.501771
2751857908 0.35433933333333334 -0.502757
2753343787 0.3570233333333333 -0.5059073333333334
2754829666 0.35276900000000005 -0.5081910000000001
2756315545 0.358153 -0.5023933333333334
2757801424 0.34960399999999997 -0.5050423333333334
2759287303 0.34984033333333336 -0.5029956666666667
2760773182 0.34632233333333334 -0.5082916666666667
2762259061 0.35490200000000005 -0.504601
2763744940 0.3479966666666667 -0.5103030000000001
2765230819 0.3531606666666667 -0.5125983333333334
2766716698 0.3552846666666667 -0.5085000000000001
2768202577 0.3589573333333333 -0.5114519999999999
2769688456 0.357914 -0.5110093333333333
2771174335 0.3569283333333333 -0.516228
2772660214 0.3599406666666667 -0.5116740000000001
2774146093 0.35607666666666665 -0.5134026666666667
2775631972 0.36280399999999996 -0.5118323333333333
2777117851 0.35294133333333333 -0.517076
2778603730 0.35919133333333336 -0.5113906666666667
2780089609 0.363307 -0.5077216666666667
2781575488 0.36281 -0.5087803333333333
2783061367 0.3573556666666667 -0.5106513333333332
2784547246 0.3556026666666667 -0.5058793333333333
2786033125 0.354946 -0.5075956666666667
2787519004 0.35698566666666665 -0.49473733333333336
2789004883 0.352867 -0.497252
2790490762 0.355985 -0.49665800000000004
2791976641 0.355906 -0.4991716666666666
2793462520 0.35672299999999996 -0.4980393333333333
2794948399 0.35422033333333336 -0.5044856666666666
2796434278 0.36085033333333333 -0.49987166666666666
2797920157 0.35379099999999997 -0.5081376666666667
2799406036 0.3574386666666667 -0.5037136666666667
2800891915 0.3585313333333333 -0.5116876666666667
2802377794 0.35751133333333335 -0.5094653333333333
2803863673 0.35872333333333334 -0.5037106666666666
2805349552 0.3571086666666667 -0.505912
2806835431 0.35230466666666665 -0.5116336666666667
2808321310 0.36048466666666673 -0.5068946666666667
2809807189 0.355195 -0.5065586666666667
2811293068 0.350037 -0.509266
2812778947 0.353189 -0.5083603333333334
2814264826 0.355329 -0.502752
2815750705 0.35086466666666666 -0.5040146666666666
2817236584 0.34718699999999997 -0.5045616666666667
2818722463 0.345382 -0.49877666666666665
2820208342 0.345988 -0.4988853333333334
2821694221 0.3470086666666667 -0.49574500000000005
2823180100 0.34460966666666665 -0.5045813333333333
2824665979 0.3537653333333333 -0.5049616666666666
2826151858 0.35194966666666666 -0.5078626666666667
2827637737 0.345331 -0.511835
2829123616 0.347183 -0.5087723333333334
2830609495 0.349521 -0.5073236666666666
2832095374 0.3529256666666667 -0.5069336666666667
2833581253 0.34919866666666666 -0.5123403333333334
2835067132 0.3490393333333333 -0.5065620000000001
2836553011 0.3562726666666667 -0.5012666666666666
2838038890 0.3468093333333333 -0.5049130000000001
2839524769 0.34436333333333335 -0.508295
2841010648 0.3490143333333333 -0.4987713333333333
2842496527 0.351949 -0.5007556666666666
2843982406 0.34099933333333327 -0.5027929999999999
2845468285 0.3483496666666667 -0.49517300000000003
2846954164 0.34325500000000003 -0.49181699999999995
2848440043 0.33888 -0.4892283333333333
2849925922 0.3404833333333333 -0.48821433333333336
2851411801 0.3416663333333334 -0.486178
2852897680 0.3433996666666666 -0.48910800000000004
2854383559 0.3427693333333333 -0.492555
2855869438 0.3437886666666667 -0.48981499999999994
2857355317 0.347296 -0.49371866666666664
2858841196 0.34311533333333327 -0.495355
2860327075 0.342091 -0.49451566666666674
2861812954 0.34781733333333337 -0.4977846666666667
2863298833 0.348422 -0.49871333333333334
2864784712 0.34764066666666665 -0.49664400000000003
2866270591 0.3448313333333333 -0.496304
2867756470 0.3477273333333333 -0.4953673333333333
2869242349 0.35993533333333333 -0.47871933333333333
2870728228 0.34719833333333333 -0.4934863333333333
2872214107 0.3434723333333333 -0.49459633333333336
2873699986 0.3495976666666667 -0.48585866666666666
2875185865 0.34299266666666667 -0.49303199999999997
2876671744 0.34247033333333327 -0.485781
2878157623 0.34362566666666666 -0.48242633333333335
2879643502 0.346497 -0.48085566666666674
2881129381 0.34061800000000003 -0.48593200000000003
2882615260 0.34729366666666667 -0.484691
2884101139 0.34438466666666673 -0.4858273333333334
2885587018 0.346589 -0.4892586666666667
2887072897 0.34370600000000007 -0.48678400000000005
2888558776 0.347132 -0.49041
2890044655 0.349435 -0.4893943333333333
2891530534 0.345763 -0.49197266666666667
2893016413 0.3455703333333333 -0.498154
2894502292 0.3440033333333334 -0.491462
2895988171 0.34654233333333334 -0.4941246666666667
2897474050 0.34534100000000006 -0.49420833333333336
2898959929 0.34362766666666666 -0.4915576666666667
2900445808 0.343156 -0.49152
2901931687 0.34058133333333335 -0.4917306666666666
2903417566 0.34351333333333334 -0.4894863333333333
2904903445 0.342737 -0.4875676666666667
2906389324 0.3428986666666667 -0.48594099999999996
2907875203 0.3416903333333334 -0.48601933333333336
2909361082 0.3375443333333334 -0.48477599999999993
2910846961 0.334857 -0.4852273333333333
2912332840 0.33931400000000006 -0.4877396666666667
2913818719 0.3410626666666667 -0.48688400000000004
2915304598 0.33960133333333337 -0.491225
2916790477 0.339033 -0.4923553333333333
2918276356 0.3405753333333333 -0.494132
2919762235 0.340018 -0.493812
2921248114 0.3385123333333333 -0.4943126666666666
2922733993 0.32838966666666664 -0.48078166666666666
2924219872 0.34107899999999997 -0.49635266666666666
2925705751 0.33533166666666664 -0.4972843333333333
2927191630 0.3360286666666667 -0.49765966666666667
2928677509 0.3353756666666667 -0.49493733333333334
2930163388 0.33544599999999997 -0.495833
2931649267 0.32924400000000004 -0.4962856666666667
2933135146 0.3313696666666666 -0.4933633333333334
2934621025 0.3299823333333333 -0.49588800000000005
2936106904 0.32967133333333337 -0.4951016666666667
2937592783 0.3279783333333333 -0.493542
2939078662 0.32350166666666663 -0.49251133333333336
2940564541 0.32713966666666666 -0.4914606666666667
2942050420 0.326837 -0.4919643333333333
2943536299 0.3260053333333333 -0.4953993333333333
2945022178 0.3273706666666667 -0.4978376666666667
2946508057 0.32692800000000005 -0.498194
2947993936 0.32686333333333334 -0.499517
2949479815 0.3310326666666667 -0.49812600000000007
2950965694 0.33052966666666667 -0.49892866666666663
2952451573 0.3309856666666667 -0.49904433333333337
2953937452 0.33114566666666667 -0.4977393333333333
2955423331 0.3316196666666667 -0.4962133333333334
2956909210 0.332089 -0.49472466666666665
2958395089 0.33132433333333333 -0.4942493333333333
2959880968 0.333121 -0.4926536666666667
2961366847 0.33353666666666665 -0.490135
2962852726 0.3321523333333333 -0.491868
2964338605 0.329984 -0.48924666666666666
2965824484 0.3279613333333333 -0.48579599999999995
2967310363 0.32793633333333333 -0.4844523333333333
2968796242 0.328525 -0.482786
2970282121 0.326171 -0.4815483333333333
2971768000 0.3299276666666667 -0.4833826666666667
2973253879 0.32900866666666667 -0.48400366666666667
2974739758 0.32664566666666667 -0.4868886666666667
2976225637 0.3286153333333333 -0.48659333333333327
2977711516 0.32979200000000003 -0.489388
2979197395 0.33030533333333334 -0.487585
2980683274 0.33173366666666665 -0.48662133333333335
2982169153 0.33372633333333335 -0.4862416666666667
2983655032 0.33175 -0.48770633333333335
2985140911 0.330498 -0.4876833333333333
2986626790 0.3315523333333333 -0.48615566666666665
2988112669 0.3326613333333333 -0.485122
2989598548 0.3346093333333333 -0.48358133333333336
2991084427 0.3320553333333333 -0.48131366666666664
2992570306 0.3318086666666667 -0.4808226666666666
2994056185 0.3294126666666667 -0.47851033333333337
2995542064 0.3283223333333333 -0.4777886666666667
2997027943 0.32925866666666664 -0.47693199999999997
2998513822 0.3254073333333333 -0.4725996666666667
2999999701 0.32710433333333333 -0.4688873333333334
