# HZ S RI R 50
10000 0.9817353333333333 -0.16384500000000002
1495879 1.067461 0.9860869999999999
2981758 0.5772926666666667 0.6888783333333334
4467637 0.5806013333333334 0.327133
5953516 0.6505393333333332 0.138125
7439395 0.7430246666666666 0.012665333333333334
8925274 1.0571956666666666 -0.06258533333333333
10411153 1.097742 0.036233
11897032 1.0875706666666667 0.16826866666666665
13382911 1.0211219999999999 0.29306366666666667
14868790 0.9188806666666668 0.38320233333333337
16354669 0.8058363333333333 0.4315426666666667
17840548 0.7007373333333334 0.4467586666666667
19326427 0.610442 0.4402903333333333
20812306 0.5363263333333333 0.4223653333333333
22298185 0.47654366666666664 0.3982836666666667
23784064 0.4283923333333333 0.3721476666666667
25269943 0.38922133333333336 0.34658799999999995
26755822 0.35724533333333336 0.321057
28241701 0.33090966666666666 0.297396
29727580 0.3092506666666667 0.27531599999999995
31213459 0.31931666666666664 0.26021666666666665
32699338 0.33630166666666667 0.24617966666666666
34185217 0.35170399999999996 0.23288433333333333
35671096 0.36726533333333333 0.21703533333333333
37156975 0.382816 0.19864533333333334
38642854 0.39686666666666665 0.181932
40128733 0.4117766666666667 0.159327
41614612 0.424753 0.147975
43100491 0.438082 0.12618366666666667
44586370 0.45190633333333335 0.10820466666666667
46072249 0.46578499999999995 0.08510133333333332
47558128 0.48034466666666664 0.068268
49044007 0.496915 0.05194066666666667
50529886 0.5162116666666666 0.037815666666666664
52015765 0.5381620000000001 0.009176333333333333
53501644 0.5672853333333334 -0.008249333333333332
54987523 0.6058426666666666 -0.032059333333333336
56473402 0.6595576666666667 -0.06788699999999999
57959281 0.7479306666666666 -0.08044633333333333
59445160 0.90476 -0.052628666666666664
60931039 0.998589 -0.01758433333333333
62416918 1.0031763333333334 -0.025929333333333332
63902797 1.0066636666666666 -0.034811666666666664
65388676 1.008357 -0.04294233333333333
66874555 1.0117133333333335 -0.039432
68360434 1.008148 -0.12313633333333333
69846313 1.0155546666666666 -0.015364999999999998
71332192 1.0170263333333331 -0.009132666666666666
72818071 1.0178033333333332 -0.05187666666666666
74303950 1.0180850000000001 -0.043280000000000006
75789829 1.0175160000000003 0.024899333333333332
77275708 1.0178436666666668 0.015978
78761587 1.017491 0.023136
80247466 1.0127563333333334 -0.09351466666666668
81733345 1.0135403333333333 -0.04431533333333334
83219224 1.01192 -0.05418666666666666
84705103 1.0080156666666669 -0.07870633333333334
86190982 1.004456 0.04525833333333334
87676861 1.001307 -0.06999
89162740 0.9984666666666667 -0.04493666666666667
90648619 0.9971056666666667 -0.06187533333333333
92134498 1.0006510000000002 -0.05985766666666667
93620377 1.0047093333333332 -0.025863999999999998
95106256 1.006567 -0.05307566666666667
96592135 1.00938 -0.05168233333333333
98078014 1.0111890000000001 -0.045971000000000005
99563893 1.0125633333333335 -0.043265
101049772 1.0151286666666668 -0.061517333333333334
102535651 1.015262 -0.05516100000000001
104021530 1.0154406666666667 -0.05681133333333333
105507409 1.0148279999999998 -0.05710166666666667
106993288 1.0143613333333332 -0.050476999999999994
108479167 1.0147193333333333 -0.063644
109965046 1.0131133333333333 -0.05678666666666667
111450925 1.0108946666666665 -0.057490999999999993
112936804 1.00891 -0.05698
114422683 1.0066733333333335 -0.057139999999999996
115908562 1.0036630000000002 -0.056848
117394441 1.0003876666666667 -0.05648533333333333
118880320 0.9964273333333332 -0.05748333333333333
120366199 0.9948856666666667 -0.058378000000000006
121852078 0.9993546666666666 -0.05916333333333334
123337957 1.0026689999999998 -0.06102733333333333
124823836 1.0071036666666666 -0.062427333333333335
126309715 1.010251 -0.06313933333333334
127795594 1.0139153333333333 -0.06336066666666666
129281473 1.0159846666666665 -0.06444866666666667
130767352 1.018984 -0.064585
132253231 1.021751 -0.058585
133739110 1.0233973333333335 -0.051581999999999996
135224989 1.0070846666666666 -0.076553
136710868 1.007257 -0.07688299999999999
138196747 1.0074596666666666 -0.07642333333333334
139682626 1.0070326666666667 -0.07598666666666666
141168505 1.006162 -0.07615033333333333
142654384 1.0047346666666666 -0.07581766666666667
144140263 1.0024333333333333 -0.068487
145626142 1.0039153333333333 -0.062228666666666675
147112021 1.0009163333333333 -0.05581966666666666
148597900 0.9957336666666666 -0.07498966666666666
150083779 0.9922793333333333 -0.07424966666666667
151569658 0.9957053333333333 -0.07574633333333335
153055537 0.9983496666666668 -0.07602533333333333
154541416 1.001445333333333 -0.07788966666666666
156027295 1.0044536666666666 -0.07795766666666666
157513174 1.0069073333333334 -0.07979766666666667
158999053 1.007878 -0.08056266666666666
160484932 1.0090243333333335 -0.08023366666666666
161970811 1.0107153333333334 -0.08086866666666667
163456690 1.0108879999999998 -0.080886
164942569 1.010864 -0.082075
166428448 1.0100486666666668 -0.08235466666666667
167914327 1.0097613333333333 -0.082049
169400206 1.009391 -0.08211233333333333
170886085 1.0081163333333334 -0.08302733333333333
172371964 1.0550436666666667 -0.060867000000000004
173857843 1.0032299999999998 -0.083534
175343722 1.0007653333333335 -0.08402933333333333
176829601 0.9974623333333333 -0.08387499999999999
178315480 0.9938916666666667 -0.085484
179801359 0.9904556666666666 -0.08633133333333333
181287238 0.992771 -0.087493
182773117 0.9964429999999999 -0.08914666666666667
184258996 1.00018 -0.08941166666666667
185744875 1.0016283333333333 -0.09031499999999999
187230754 1.0044716666666667 -0.091293
188716633 1.0059736666666665 -0.09161233333333334
190202512 1.0075503333333333 -0.09255966666666667
191688391 1.0097543333333334 -0.092459
193174270 1.0092556666666666 -0.09360066666666667
194660149 1.0095186666666667 -0.093163
196146028 1.0096749999999999 -0.094503
197631907 1.008713 -0.09405133333333333
199117786 1.0075513333333335 -0.095095
200603665 1.0064543333333333 -0.09571766666666666
202089544 1.0037223333333334 -0.09690599999999999
203575423 1.0024056666666665 -0.09672266666666667
205061302 0.9991196666666666 -0.09822066666666666
206547181 0.9963166666666666 -0.098475
208033060 0.9925539999999998 -0.10055599999999999
209518939 0.988263 -0.10114566666666668
211004818 0.9891306666666667 -0.10343599999999999
212490697 0.9931360000000001 -0.103953
213976576 0.997459 -0.10400966666666667
215462455 1.0002366666666667 -0.10525033333333333
216948334 1.0023423333333332 -0.10649400000000002
218434213 1.0051813333333335 -0.10648200000000001
219920092 1.007248 -0.10657266666666666
221405971 1.007915 -0.10692133333333333
222891850 1.0093400000000001 -0.10737633333333334
224377729 1.008717 -0.10772933333333334
225863608 1.0085006666666667 -0.10751733333333334
227349487 1.0078923333333334 -0.10783533333333334
228835366 1.0080406666666666 -0.10184133333333334
230321245 1.005545 -0.11038833333333335
231807124 1.0030020000000002 -0.110664
233293003 1.0001216666666666 -0.11216066666666667
234778882 0.9966193333333333 -0.11196099999999999
236264761 0.9938193333333333 -0.11351433333333333
237750640 0.9900019999999999 -0.11456099999999998
239236519 0.9859333333333332 -0.11610799999999999
240722398 0.9858116666666668 -0.116973
242208277 0.9900073333333334 -0.11820000000000001
243694156 0.9935236666666666 -0.11902066666666666
245180035 0.997064 -0.12017066666666666
246665914 0.999891 -0.120832
248151793 1.0020596666666666 -0.12102466666666667
249637672 1.004316 -0.12272366666666668
251123551 1.005386 -0.12245966666666667
252609430 1.0063763333333335 -0.12296766666666668
254095309 1.0065813333333333 -0.12397766666666667
255581188 1.0068676666666667 -0.12257633333333334
257067067 1.005126 -0.12435333333333333
258552946 1.0047073333333334 -0.12450233333333333
260038825 1.003103 -0.12502466666666667
261524704 1.0010390000000002 -0.12455133333333333
263010583 0.9974176666666666 -0.125949
264496462 0.9943556666666667 -0.12696166666666667
265982341 0.9912316666666667 -0.12723833333333331
267468220 0.98696 -0.12917233333333333
268954099 0.9825873333333334 -0.1304133333333333
270439978 0.980537 -0.130488
271925857 0.985655 -0.13255233333333333
273411736 0.9892893333333332 -0.13460400000000003
274897615 0.9929216666666666 -0.1346436666666667
276383494 0.996322 -0.13631800000000002
277869373 0.9981463333333332 -0.13773966666666668
279355252 1.0007593333333331 -0.13743866666666665
280841131 1.002902 -0.13810633333333333
282327010 1.0034373333333333 -0.13807166666666668
283812889 1.0037923333333334 -0.13882133333333335
285298768 1.004036 -0.13959833333333335
286784647 1.0031316666666665 -0.13968633333333333
288270526 1.0027670000000002 -0.13960466666666668
289756405 0.9997686666666666 -0.13948433333333332
291242284 0.9986026666666667 -0.14015333333333332
292728163 0.99494 -0.140505
294214042 0.9934486666666666 -0.14128833333333332
295699921 0.9888696666666666 -0.14277566666666666
297185800 0.9846469999999999 -0.14241966666666667
298671679 0.9806516666666667 -0.14393200000000003
300157558 0.9763653333333333 -0.14284300000000003
301643437 0.9815863333333333 -0.14496533333333336
303129316 0.9858243333333334 -0.14624666666666666
304615195 0.9894613333333333 -0.14724
306101074 0.992827 -0.148401
307586953 0.9946366666666666 -0.15034166666666668
309072832 0.9974536666666666 -0.14986333333333332
310558711 0.9997280000000001 -0.15197233333333335
312044590 1.0002156666666666 -0.15204466666666663
313530469 1.0008110000000001 -0.151829
315016348 1.001824 -0.15277566666666667
316502227 1.0018926666666668 -0.15277966666666667
317988106 1.0010096666666668 -0.15250366666666668
319473985 0.998441 -0.15316033333333334
320959864 0.9965056666666667 -0.15397466666666668
322445743 0.9942480000000001 -0.153307
323931622 0.9914473333333333 -0.15352566666666667
325417501 0.9873943333333334 -0.15300633333333333
326903380 0.9833633333333333 -0.15396166666666666
328389259 0.9787663333333333 -0.154307
329875138 0.9738256666666668 -0.15426499999999999
331361017 0.9768993333333333 -0.15676533333333334
332846896 0.9813580000000001 -0.15869766666666665
334332775 0.9836116666666667 -0.16185366666666667
335818654 0.9866413333333334 -0.16284833333333332
337304533 0.9901466666666666 -0.16345866666666667
338790412 0.9920583333333334 -0.16519333333333333
340276291 0.991944 -0.17191599999999999
341762170 0.9926473333333333 -0.17271233333333333
343248049 0.9929203333333333 -0.172472
344733928 0.9936006666666666 -0.17252866666666666
346219807 0.9932536666666668 -0.1736673333333333
347705686 0.9912936666666665 -0.17400733333333332
349191565 0.9899796666666667 -0.173513
350677444 0.9883836666666667 -0.17477633333333334
352163323 0.9855786666666666 -0.17441433333333334
353649202 0.985302 -0.16286933333333334
355135081 0.9788493333333333 -0.174086
356620960 0.976772 -0.163589
358106839 0.9691876666666667 -0.17487966666666666
359592718 0.9664593333333333 -0.16481766666666667
361078597 0.9661186666666667 -0.178141
362564476 0.9725193333333334 -0.16928333333333334
364050355 0.973703 -0.18205966666666665
365536234 0.9795429999999999 -0.17336766666666667
367022113 0.9786039999999999 -0.18586866666666668
368507992 0.984341 -0.17512966666666666
369993871 0.9824616666666667 -0.18824166666666664
371479750 0.9881379999999998 -0.17768799999999998
372965629 0.9848343333333333 -0.18913166666666667
374451508 0.9892396666666666 -0.17867100000000002
375937387 0.9858403333333333 -0.18963433333333332
377423266 0.9877256666666666 -0.17726300000000003
378909145 0.9834903333333335 -0.189128
380395024 0.9845866666666666 -0.17805033333333334
381880903 0.9791310000000001 -0.189298
383366782 0.9764083333333334 -0.189574
384852661 0.9751536666666668 -0.18249666666666667
386338540 0.970949 -0.1834266666666667
387824419 0.9680093333333334 -0.185042
389310298 0.962837 -0.1829626666666667
390796177 0.9624436666666667 -0.18418866666666667
392282056 0.9661529999999999 -0.18763733333333335
393767935 0.9689236666666666 -0.188688
395253814 0.9723183333333333 -0.19105733333333333
396739693 0.9746126666666667 -0.19115533333333334
398225572 0.9768893333333333 -0.1928696666666667
399711451 0.9779499999999999 -0.19430500000000003
401197330 0.9795716666666667 -0.19460666666666668
402683209 0.9801913333333333 -0.19581733333333332
404169088 0.9809633333333333 -0.19540533333333332
405654967 0.980016 -0.198021
407140846 0.9799973333333334 -0.1965063333333333
408626725 0.978532 -0.19610633333333335
410112604 0.977002 -0.196507
411598483 0.9754236666666666 -0.19545133333333334
413084362 0.9715159999999999 -0.19553466666666663
414570241 0.9689436666666666 -0.1952223333333333
416056120 0.965844 -0.19564499999999999
417541999 0.961182 -0.19499366666666665
419027878 0.9572113333333334 -0.19483533333333333
420513757 0.9550206666666666 -0.1953763333333333
421999636 0.9584716666666667 -0.197728
423485515 0.9618166666666667 -0.1989723333333333
424971394 0.9653176666666666 -0.2019903333333333
426457273 0.9675750000000001 -0.20357833333333333
427943152 0.9687003333333334 -0.20548699999999998
429429031 0.9715506666666668 -0.20580766666666664
430914910 0.9727266666666666 -0.20738366666666666
432400789 0.9724186666666667 -0.2074526666666667
433886668 0.9740513333333333 -0.207893
435372547 0.974239 -0.20781400000000003
436858426 0.9739686666666666 -0.20904266666666668
438344305 0.971896 -0.20970133333333332
439830184 0.97037 -0.20873833333333333
441316063 0.9684486666666667 -0.20904233333333333
442801942 0.9669783333333334 -0.208221
444287821 0.9635883333333334 -0.208114
445773700 0.960193 -0.20818466666666666
447259579 0.9560773333333333 -0.20807299999999998
448745458 0.9527503333333334 -0.20762500000000003
450231337 0.9494116666666667 -0.206377
451717216 0.9532979999999999 -0.20857633333333334
453203095 0.9553163333333333 -0.21034733333333333
454688974 0.9604973333333334 -0.21116066666666666
456174853 0.9612326666666666 -0.213098
457660732 0.9636846666666666 -0.21421666666666664
459146611 0.9624996666666666 -0.22129866666666667
460632490 0.9679886666666667 -0.21592999999999998
462118369 0.9679873333333333 -0.21666666666666667
463604248 0.9675903333333333 -0.21750000000000003
465090127 0.9668563333333333 -0.21870799999999999
466576006 0.966236 -0.21902966666666668
468061885 0.9662246666666667 -0.21755499999999997
469547764 0.9647503333333334 -0.21745233333333333
471033643 0.9626566666666667 -0.21783266666666667
472519522 0.9616326666666666 -0.210731
474005401 0.9569273333333334 -0.2178783333333333
475491280 0.9544456666666666 -0.21634233333333333
476977159 0.9503666666666666 -0.21659799999999998
478463038 0.946004 -0.21745099999999998
479948917 0.9414346666666665 -0.21689566666666668
481434796 0.9451673333333334 -0.21872266666666665
482920675 0.948514 -0.220272
484406554 0.9507996666666667 -0.222283
485892433 0.9534273333333334 -0.22382466666666667
487378312 0.956515 -0.22468666666666667
488864191 0.9577693333333333 -0.22569399999999998
490350070 0.9593959999999999 -0.22590666666666667
491835949 0.960511 -0.22771966666666668
493321828 0.96163 -0.22630799999999998
494807707 0.9607443333333333 -0.22823466666666667
496293586 0.9599543333333332 -0.22904333333333335
497779465 0.9586856666666667 -0.22943933333333333
499265344 0.958667 -0.22827300000000003
500751223 0.9593843333333334 -0.22166333333333332
502237102 0.9542806666666667 -0.22779066666666667
503722981 0.9507613333333333 -0.22769000000000003
505208860 0.9485013333333333 -0.22810733333333333
506694739 0.9443933333333333 -0.22787966666666667
508180618 0.9417333333333334 -0.22642566666666666
509666497 0.9363843333333334 -0.22711
511152376 0.9387979999999999 -0.22867533333333334
512638255 0.9418693333333333 -0.22981866666666664
514124134 0.9445169999999999 -0.23373833333333335
515610013 0.9474486666666667 -0.23215966666666668
517095892 0.9501480000000001 -0.23386433333333334
518581771 0.9518030000000001 -0.2349996666666667
520067650 0.9525886666666666 -0.23668333333333336
521553529 0.9534986666666666 -0.23808566666666664
523039408 0.9543916666666666 -0.23651666666666668
524525287 0.953682 -0.23838733333333337
526011166 0.954078 -0.23814733333333335
527497045 0.952957 -0.23781
528982924 0.9518920000000001 -0.2377
530468803 0.9493576666666668 -0.23825933333333335
531954682 0.9470426666666666 -0.2373626666666667
533440561 0.9447420000000001 -0.23796399999999998
534926440 0.9419083333333335 -0.23665100000000003
536412319 0.9386063333333334 -0.23693633333333333
537898198 0.9354773333333334 -0.23704099999999997
539384077 0.9296473333333334 -0.23723566666666665
540869956 0.9290729999999999 -0.23861666666666667
542355835 0.933124 -0.23834933333333333
543841714 0.9361450000000001 -0.23983633333333332
545327593 0.9389470000000001 -0.24092366666666667
546813472 0.9399723333333334 -0.24060233333333333
548299351 0.940353 -0.24266633333333334
549785230 0.9414486666666667 -0.24199433333333334
551271109 0.943584 -0.24181766666666668
552756988 0.9420656666666666 -0.2404143333333333
554242867 0.9416556666666667 -0.24054966666666666
555728746 0.941531 -0.240177
557214625 0.9396573333333332 -0.23786366666666667
558700504 0.9376356666666666 -0.23818566666666666
560186383 0.9355226666666668 -0.23848433333333333
561672262 0.9314556666666666 -0.23724066666666666
563158141 0.9286396666666666 -0.23797433333333332
564644020 0.9260380000000001 -0.23646866666666666
566129899 0.9202819999999999 -0.236308
567615778 0.916544 -0.23504433333333333
569101657 0.9111220000000001 -0.23493366666666668
570587536 0.909291 -0.23506433333333335
572073415 0.9125096666666667 -0.23851199999999997
573559294 0.9159859999999999 -0.240702
575045173 0.9184056666666667 -0.24415399999999998
576531052 0.920869 -0.245973
578016931 0.9244243333333334 -0.246972
579502810 0.925395 -0.2501116666666667
580988689 0.9263236666666667 -0.250743
582474568 0.9273996666666667 -0.254374
583960447 0.9288776666666667 -0.255125
585446326 0.9277993333333333 -0.2558373333333333
586932205 0.9276556666666668 -0.25817566666666664
588418084 0.9280200000000001 -0.2579616666666667
589903963 0.9271280000000001 -0.25678266666666666
591389842 0.9252556666666667 -0.2581373333333334
592875721 0.9226543333333334 -0.2596176666666667
594361600 0.9203523333333333 -0.258805
595847479 0.9178756666666666 -0.25998099999999996
597333358 0.9149013333333333 -0.2612593333333333
598819237 0.910189 -0.2606756666666667
600305116 0.908583 -0.26117266666666666
601790995 0.9117273333333333 -0.263104
603276874 0.9164543333333333 -0.26525
604762753 0.9181616666666667 -0.267644
606248632 0.9218353333333335 -0.269975
607734511 0.9243126666666667 -0.270268
609220390 0.9263963333333334 -0.2707273333333333
610706269 0.9288096666666666 -0.271126
612192148 0.9283863333333334 -0.27148600000000006
613678027 0.929882 -0.2723426666666667
615163906 0.9299603333333334 -0.27258466666666664
616649785 0.9288923333333333 -0.2728086666666667
618135664 0.929693 -0.2706366666666667
619621543 0.9251913333333333 -0.27961
621107422 0.9210363333333333 -0.283743
622593301 0.9239486666666666 -0.2732926666666667
624079180 0.9205716666666667 -0.271695
625565059 0.9176989999999999 -0.27102833333333337
627050938 0.9138069999999999 -0.26900133333333337
628536817 0.9093206666666666 -0.2693546666666667
630022696 0.9520200000000001 -0.25483666666666666
631508575 0.9092663333333334 -0.2711913333333333
632994454 0.9118806666666667 -0.2740516666666667
634480333 0.915165 -0.2751073333333333
635966212 0.9172410000000001 -0.277799
637452091 0.9198793333333333 -0.27824766666666667
638937970 0.9216596666666667 -0.27923733333333334
640423849 0.9228306666666667 -0.2833366666666667
641909728 0.9244736666666666 -0.28131866666666666
643395607 0.9246636666666667 -0.28153233333333333
644881486 0.925066 -0.282524
646367365 0.935012 -0.26284
647853244 0.9240836666666666 -0.28194400000000003
649339123 0.9224686666666667 -0.28240533333333334
650825002 0.920829 -0.28152299999999997
652310881 0.9176776666666666 -0.28196499999999997
653796760 0.915955 -0.27943066666666666
655282639 0.9115873333333333 -0.27874333333333334
656768518 0.9082763333333334 -0.27709666666666666
658254397 0.9049476666666667 -0.27664733333333336
659740276 0.8993096666666668 -0.276676
661226155 0.9020000000000001 -0.27823133333333333
662712034 0.9048043333333333 -0.27963933333333335
664197913 0.9083373333333333 -0.28145400000000004
665683792 0.9114893333333333 -0.283407
667169671 0.9124496666666667 -0.28390099999999996
668655550 0.9143080000000001 -0.2849026666666667
670141429 0.9168763333333333 -0.28453500000000004
671627308 0.9165683333333333 -0.285742
673113187 0.9162706666666667 -0.29063100000000003
674599066 0.9170590000000001 -0.286033
676084945 0.9162273333333334 -0.28537666666666667
677570824 0.9158563333333333 -0.2831443333333334
679056703 0.9152399999999999 -0.2836813333333334
680542582 0.9111546666666667 -0.2874716666666666
682028461 0.909678 -0.28090333333333334
683514340 0.9073583333333333 -0.2810076666666667
685000219 0.9041646666666666 -0.27784499999999995
686486098 0.9014386666666666 -0.2780196666666666
687971977 0.8975146666666666 -0.27541766666666667
689457856 0.8943696666666666 -0.272736
690943735 0.8934336666666667 -0.2752246666666667
692429614 0.8939036666666667 -0.27998933333333337
693915493 0.8984493333333333 -0.2819176666666667
695401372 0.8992663333333334 -0.282567
696887251 0.9016926666666666 -0.2867423333333334
698373130 0.902997 -0.28890366666666667
699859009 0.9036303333333334 -0.2895113333333334
701344888 0.904153 -0.2919036666666667
702830767 0.9057769999999999 -0.2936646666666667
704316646 0.9045059999999999 -0.29381166666666664
705802525 0.9053616666666667 -0.293453
707288404 0.9063119999999999 -0.29283366666666666
708774283 0.9030100000000001 -0.2958273333333334
710260162 0.8993513333333333 -0.29593566666666665
711746041 0.8999536666666668 -0.29469866666666666
713231920 0.8963463333333334 -0.294332
714717799 0.8941536666666666 -0.29394133333333333
716203678 0.8898573333333334 -0.29514433333333334
717689557 0.8864256666666668 -0.29442166666666664
719175436 0.8828386666666667 -0.29444
720661315 0.8816283333333333 -0.295468
722147194 0.8859793333333333 -0.297033
723633073 0.8859643333333334 -0.3008946666666667
725118952 0.8892963333333332 -0.301611
726604831 0.8891873333333334 -0.30890100000000004
728090710 0.8934989999999999 -0.3036913333333333
729576589 0.8915879999999999 -0.31072466666666665
731062468 0.8950710000000001 -0.3075476666666666
732548347 0.8932496666666667 -0.313375
734034226 0.897102 -0.30787600000000004
735520105 0.8947023333333334 -0.310491
737005984 0.8959093333333333 -0.3076933333333333
738491863 0.8914306666666666 -0.314251
739977742 0.891795 -0.30624633333333334
741463621 0.8901533333333335 -0.31097400000000003
742949500 0.8895363333333334 -0.3064386666666667
744435379 0.885221 -0.3106166666666667
745921258 0.8845966666666666 -0.3018366666666667
747407137 0.877504 -0.30972533333333335
748893016 0.8763103333333334 -0.30323133333333335
750378895 0.8752363333333334 -0.302864
751864774 0.8782010000000001 -0.30336
753350653 0.881497 -0.307483
754836532 0.8831069999999999 -0.3103533333333333
756322411 0.8841413333333333 -0.3101936666666667
757808290 0.8853913333333333 -0.312726
759294169 0.8864096666666667 -0.31279199999999996
760780048 0.8879299999999999 -0.313807
762265927 0.8880363333333334 -0.3128556666666667
763751806 0.8882156666666666 -0.31501033333333334
765237685 0.8886073333333334 -0.3153276666666667
766723564 0.8870443333333333 -0.31671699999999997
768209443 0.8855186666666667 -0.3156326666666666
769695322 0.8845433333333333 -0.3150296666666667
771181201 0.8831920000000001 -0.313607
772667080 0.8795066666666665 -0.31473866666666667
774152959 0.8769446666666667 -0.3146096666666667
775638838 0.8754230000000001 -0.3120016666666667
777124717 0.8703333333333333 -0.3149946666666667
778610596 0.867984 -0.31049200000000005
780096475 0.8628520000000001 -0.31297033333333335
781582354 0.867952 -0.31146433333333334
783068233 0.8686846666666667 -0.31801
784554112 0.872164 -0.3185493333333333
786039991 0.8736506666666667 -0.319981
787525870 0.8769913333333332 -0.320537
789011749 0.8765550000000001 -0.32158366666666666
790497628 0.880214 -0.32156366666666664
791983507 0.8803483333333334 -0.31709799999999994
793469386 0.8815196666666667 -0.3217663333333333
794955265 0.8812906666666667 -0.32232900000000003
796441144 0.881694 -0.3212273333333333
797927023 0.880106 -0.3207256666666667
799412902 0.879952 -0.32037099999999996
800898781 0.8776299999999999 -0.3199383333333333
802384660 0.8766246666666667 -0.31773433333333334
803870539 0.874065 -0.3184133333333334
805356418 0.869795 -0.3189216666666666
806842297 0.867374 -0.31793999999999994
808328176 0.8636876666666667 -0.31678066666666665
809814055 0.859125 -0.3152836666666667
811299934 0.8618696666666666 -0.31729100000000005
812785813 0.8647533333333334 -0.31843499999999997
814271692 0.8666043333333334 -0.320741
815757571 0.8695356666666667 -0.32435566666666665
817243450 0.8715756666666666 -0.32643099999999997
818729329 0.8727433333333332 -0.32585400000000003
820215208 0.8735286666666667 -0.326988
821701087 0.8735123333333333 -0.3289513333333333
823186966 0.8757876666666666 -0.32957400000000003
824672845 0.873605 -0.3307773333333333
826158724 0.8743659999999999 -0.33141366666666666
827644603 0.8722573333333333 -0.33128133333333337
829130482 0.872503 -0.33071366666666674
830616361 0.8701296666666667 -0.33031699999999997
832102240 0.8686013333333333 -0.33063400000000004
833588119 0.8659733333333333 -0.32972
835073998 0.8637606666666667 -0.32951933333333333
836559877 0.8584753333333333 -0.3309993333333333
838045756 0.8550466666666668 -0.32969866666666664
839531635 0.8508433333333333 -0.32856233333333335
841017514 0.8521116666666667 -0.331241
842503393 0.855042 -0.332968
843989272 0.857479 -0.33536099999999996
845475151 0.85948 -0.3378923333333333
846961030 0.8617156666666667 -0.3398873333333334
848446909 0.8635579999999999 -0.340262
849932788 0.8647456666666665 -0.3402016666666667
851418667 0.8663460000000001 -0.34222400000000003
852904546 0.8663733333333333 -0.3428356666666667
854390425 0.8667386666666667 -0.3424236666666667
855876304 0.8654813333333333 -0.34335933333333335
857362183 0.8649679999999998 -0.3428893333333333
858848062 0.8642059999999999 -0.34126033333333333
860333941 0.8631190000000001 -0.339185
861819820 0.8594353333333333 -0.3409066666666667
863305699 0.8583196666666667 -0.34022
864791578 0.853497 -0.34108133333333335
866277457 0.8518686666666667 -0.336937
867763336 0.8480196666666667 -0.33724166666666666
869249215 0.841704 -0.33625533333333335
870735094 0.8428800000000001 -0.33662
872220973 0.8452160000000001 -0.3404196666666666
873706852 0.8483103333333334 -0.343226
875192731 0.849456 -0.3450866666666667
876678610 0.8528713333333333 -0.34575833333333333
878164489 0.8534553333333333 -0.34740666666666664
879650368 0.8559166666666668 -0.34907400000000005
881136247 0.8565856666666667 -0.349597
882622126 0.8570829999999999 -0.3510183333333334
884108005 0.8583533333333332 -0.349736
885593884 0.8577756666666666 -0.3517776666666667
887079763 0.856338 -0.3506466666666667
888565642 0.8551153333333333 -0.3502156666666667
890051521 0.8544363333333332 -0.3478236666666667
891537400 0.8518626666666668 -0.34880466666666665
893023279 0.8491456666666667 -0.3493826666666667
894509158 0.8469090000000001 -0.34704
895995037 0.8439793333333334 -0.3465276666666666
897480916 0.8405176666666666 -0.3450856666666667
898966795 0.8353243333333333 -0.341623
900452674 0.8325666666666667 -0.34413066666666664
901938553 0.8365273333333333 -0.34599
903424432 0.8380223333333333 -0.34960966666666665
904910311 0.840823 -0.3504103333333333
906396190 0.8415523333333333 -0.35484466666666664
907882069 0.8439443333333333 -0.3544366666666667
909367948 0.844567 -0.3573763333333333
910853827 0.847679 -0.35755700000000007
912339706 0.8469206666666667 -0.36000799999999994
913825585 0.8466223333333334 -0.3587226666666667
915311464 0.8464686666666666 -0.359489
916797343 0.8459850000000001 -0.35942633333333335
918283222 0.8446186666666667 -0.357203
919769101 0.8421763333333333 -0.3572396666666666
921254980 0.8426343333333334 -0.3588883333333333
922740859 0.838654 -0.35579900000000003
924226738 0.8370626666666667 -0.35547633333333334
925712617 0.8339156666666666 -0.35398
927198496 0.8300040000000001 -0.352546
928684375 0.8255916666666666 -0.35174066666666665
930170254 0.81942 -0.3549136666666666
931656133 0.8251143333333334 -0.35223033333333326
933142012 0.8275683333333334 -0.3565883333333333
934627891 0.8300516666666667 -0.35742500000000005
936113770 0.8324283333333332 -0.35909199999999997
937599649 0.8333 -0.3617806666666667
939085528 0.837101 -0.3627503333333333
940571407 0.8361036666666667 -0.36432266666666663
942057286 0.8393536666666667 -0.36221533333333333
943543165 0.8379846666666667 -0.36302666666666666
945029044 0.8392893333333333 -0.36310966666666666
946514923 0.8379606666666666 -0.363484
948000802 0.8390356666666666 -0.3622273333333334
949486681 0.8383873333333334 -0.36083133333333334
950972560 0.836264 -0.36099166666666666
952458439 0.8333823333333333 -0.35987600000000003
953944318 0.831057 -0.3582910000000001
955430197 0.8287506666666666 -0.35698266666666667
956916076 0.8265173333333333 -0.3555966666666666
958401955 0.8232940000000001 -0.35183000000000003
959887834 0.82048 -0.35297566666666663
961373713 0.820605 -0.3555813333333333
962859592 0.8228956666666667 -0.355585
964345471 0.8252163333333332 -0.3575646666666667
965831350 0.826305 -0.3616763333333333
967317229 0.8282103333333334 -0.36244733333333334
968803108 0.8284696666666665 -0.36405966666666667
970288987 0.8301443333333333 -0.36576800000000004
971774866 0.829672 -0.36518466666666666
973260745 0.8326883333333331 -0.3658106666666667
974746624 0.8313223333333334 -0.3651606666666667
976232503 0.8292160000000001 -0.3682733333333333
977718382 0.8292123333333333 -0.364611
979204261 0.8299476666666666 -0.36538899999999996
980690140 0.828005 -0.365769
982176019 0.8268026666666666 -0.36522066666666664
983661898 0.8241183333333334 -0.36369433333333334
985147777 0.823047 -0.363284
986633656 0.818482 -0.36307133333333336
988119535 0.8163526666666666 -0.360172
989605414 0.8121056666666666 -0.35990000000000005
991091293 0.8130213333333334 -0.359931
992577172 0.8144036666666666 -0.3626396666666667
994063051 0.8172863333333332 -0.36424366666666663
995548930 0.8179086666666667 -0.366995
997034809 0.8185183333333333 -0.368841
998520688 0.8211883333333333 -0.36886599999999997
1000006567 0.8206823333333334 -0.37101633333333334
1001492446 0.822965 -0.3704543333333333
1002978325 0.8215266666666666 -0.3727533333333333
1004464204 0.8210553333333334 -0.371213
1005950083 0.8210026666666668 -0.37165133333333333
1007435962 0.8207683333333332 -0.3712043333333333
1008921841 0.8192816666666666 -0.371369
1010407720 0.818726 -0.370952
1011893599 0.8169446666666667 -0.36921133333333334
1013379478 0.811033 -0.3735716666666667
1014865357 0.8146650000000001 -0.36436866666666673
1016351236 0.8060776666666666 -0.3711313333333333
1017837115 0.8082443333333332 -0.361121
1019322994 0.8001613333333334 -0.36722366666666667
1020808873 0.8035663333333334 -0.3605233333333333
1022294752 0.8007193333333333 -0.37135500000000005
1023780631 0.8074416666666666 -0.36538866666666664
1025266510 0.8043933333333334 -0.375789
1026752389 0.8114863333333333 -0.3685386666666666
1028238268 0.8071403333333333 -0.37901399999999996
1029724147 0.8125926666666667 -0.37208966666666665
1031210026 0.8093629999999999 -0.3786386666666666
1032695905 0.8146006666666666 -0.37036633333333335
1034181784 0.809002 -0.38029466666666667
1035667663 0.8134623333333333 -0.3729733333333334
1037153542 0.8076773333333334 -0.38166066666666665
1038639421 0.8134753333333333 -0.3705813333333334
1040125300 0.8065316666666668 -0.3780216666666667
1041611179 0.8092616666666667 -0.3716326666666667
1043097058 0.8023423333333333 -0.38019033333333335
1044582937 0.805473 -0.3688306666666667
1046068816 0.7961173333333335 -0.3785
1047554695 0.8017196666666667 -0.3675596666666667
1049040574 0.7906409999999999 -0.37505499999999997
1050526453 0.7926533333333333 -0.37144533333333335
1052012332 0.7946459999999999 -0.373771
1053498211 0.7961333333333332 -0.3775733333333333
1054984090 0.7981626666666667 -0.37785966666666665
1056469969 0.8000919999999999 -0.379888
1057955848 0.8015343333333332 -0.381208
1059441727 0.8037960000000001 -0.37983999999999996
1060927606 0.8040446666666666 -0.38286133333333333
1062413485 0.8053713333333334 -0.38223366666666664
1063899364 0.8054503333333334 -0.383306
1065385243 0.8048259999999999 -0.38306066666666666
1066871122 0.8036446666666667 -0.38239033333333333
1068357001 0.8036116666666667 -0.3819773333333334
1069842880 0.8018613333333334 -0.38121099999999997
1071328759 0.8009976666666666 -0.3816733333333333
1072814638 0.7976960000000001 -0.3808103333333333
1074300517 0.7977386666666667 -0.378854
1075786396 0.794742 -0.37899666666666665
1077272275 0.8300143333333333 -0.37422466666666665
1078758154 0.7879809999999999 -0.37744833333333333
1080244033 0.7843896666666668 -0.37873633333333334
1081729912 0.7885986666666667 -0.3790496666666667
1083215791 0.7902063333333333 -0.38230499999999995
1084701670 0.7936746666666666 -0.3820806666666667
1086187549 0.794115 -0.3837076666666667
1087673428 0.7955616666666666 -0.38670766666666667
1089159307 0.7975583333333334 -0.3863573333333334
1090645186 0.7975126666666666 -0.3873163333333333
1092131065 0.7984033333333332 -0.3863783333333333
1093616944 0.7986023333333333 -0.38656766666666664
1095102823 0.799306 -0.38476
1096588702 0.799516 -0.38571400000000006
1098074581 0.7957693333333333 -0.3858
1099560460 0.7971150000000001 -0.38538266666666665
1101046339 0.7952646666666666 -0.38302466666666674
1102532218 0.7918293333333333 -0.384785
1104018097 0.7899943333333334 -0.38321
1105503976 0.7867386666666666 -0.38257199999999997
1106989855 0.7859826666666666 -0.3804053333333333
1108475734 0.7809136666666666 -0.3812773333333333
1109961613 0.7781686666666667 -0.37801066666666666
1111447492 0.7813346666666666 -0.380503
1112933371 0.7828740000000001 -0.38384900000000005
1114419250 0.7836833333333333 -0.38492400000000004
1115905129 0.7864853333333333 -0.389076
1117391008 0.7883183333333332 -0.38891533333333334
1118876887 0.7895263333333333 -0.38871066666666665
1120362766 0.7908986666666667 -0.39111433333333334
1121848645 0.791379 -0.39009699999999997
1123334524 0.7899476666666666 -0.395232
1124820403 0.7909863333333332 -0.39274566666666666
1126306282 0.7893933333333333 -0.393013
1127792161 0.7893986666666667 -0.3917556666666666
1129278040 0.776893 -0.3977853333333334
1130763919 0.7880076666666667 -0.3909223333333333
1132249798 0.7846920000000001 -0.39000399999999996
1133735677 0.7827159999999999 -0.39076666666666665
1135221556 0.7803246666666667 -0.39122666666666667
1136707435 0.7777609999999999 -0.3896326666666667
1138193314 0.7727740000000001 -0.38947899999999996
1139679193 0.7696913333333333 -0.3882733333333333
1141165072 0.7712013333333333 -0.3892083333333333
1142650951 0.7724340000000001 -0.39186366666666667
1144136830 0.77774 -0.393762
1145622709 0.7784603333333333 -0.39565500000000003
1147108588 0.7804476666666668 -0.39705799999999997
1148594467 0.7821406666666667 -0.396707
1150080346 0.7804203333333334 -0.39719366666666667
1151566225 0.7829510000000001 -0.39872833333333335
1153052104 0.7839126666666667 -0.3989236666666667
1154537983 0.7823893333333333 -0.4008156666666667
1156023862 0.783293 -0.39845766666666665
1157509741 0.7807203333333333 -0.40091666666666664
1158995620 0.7809183333333335 -0.39771566666666663
1160481499 0.7786393333333333 -0.39768699999999996
1161967378 0.7774126666666666 -0.3989163333333334
1163453257 0.7736273333333333 -0.3970393333333333
1164939136 0.7704676666666667 -0.396356
1166425015 0.7686746666666666 -0.393029
1167910894 0.763096 -0.39434033333333335
1169396773 0.7598473333333334 -0.39406800000000003
1170882652 0.760838 -0.391807
1172368531 0.7611846666666667 -0.39768333333333333
1173854410 0.7639873333333332 -0.3999606666666667
1175340289 0.7657293333333334 -0.40047933333333335
1176826168 0.7670243333333334 -0.40229966666666667
1178312047 0.7696333333333333 -0.403562
1179797926 0.769624 -0.4050723333333333
1181283805 0.7695553333333334 -0.4052096666666667
1182769684 0.7698186666666667 -0.40507033333333337
1184255563 0.7705176666666667 -0.406483
1185741442 0.7698923333333333 -0.4051343333333333
1187227321 0.7690676666666668 -0.40532166666666664
1188713200 0.7663739999999999 -0.4048063333333333
1190199079 0.76466 -0.406156
1191684958 0.7629606666666667 -0.4050936666666667
1193170837 0.7588173333333333 -0.4054360000000001
1194656716 0.75689 -0.402121
1196142595 0.7535780000000001 -0.4025446666666666
1197628474 0.7493029999999999 -0.4002763333333334
1199114353 0.7486576666666668 -0.39635133333333333
1200600232 0.7448366666666667 -0.4004026666666667
1202086111 0.7476746666666667 -0.40323099999999995
1203571990 0.7496153333333333 -0.4084933333333334
1205057869 0.7517520000000001 -0.40995966666666667
1206543748 0.7544383333333333 -0.41025466666666666
1208029627 0.7572603333333333 -0.41151199999999993
1209515506 0.7594413333333332 -0.411695
1211001385 0.7600153333333334 -0.4128623333333333
1212487264 0.7594263333333334 -0.4152303333333333
1213973143 0.7623786666666666 -0.41372366666666666
1215459022 0.7594750000000001 -0.41693099999999994
1216944901 0.7613856666666666 -0.41385099999999997
1218430780 0.7520773333333333 -0.4212033333333333
1219916659 0.7591073333333332 -0.4122893333333333
1221402538 0.7565813333333334 -0.4113853333333333
1222888417 0.7558409999999999 -0.41046999999999995
1224374296 0.7528453333333335 -0.40994899999999995
1225860175 0.7499823333333334 -0.408768
1227346054 0.7482556666666667 -0.40572333333333327
1228831933 0.7599776666666666 -0.38978633333333335
1230317812 0.7410156666666667 -0.40275333333333335
1231803691 0.7441736666666666 -0.40514500000000003
1233289570 0.746165 -0.40757
1234775449 0.7481626666666666 -0.41048033333333334
1236261328 0.7498226666666667 -0.4108226666666666
1237747207 0.751883 -0.41080200000000006
1239233086 0.752478 -0.4129076666666667
1240718965 0.7535033333333333 -0.41319633333333333
1242204844 0.7500003333333334 -0.4167863333333333
1243690723 0.7511743333333335 -0.415414
1245176602 0.7522143333333333 -0.4149636666666667
1246662481 0.7532383333333333 -0.4132686666666667
1248148360 0.7509253333333333 -0.412708
1249634239 0.7513183333333333 -0.40931433333333334
1251120118 0.7481616666666667 -0.40911666666666663
1252605997 0.7464516666666666 -0.407961
1254091876 0.7437456666666667 -0.404985
1255577755 0.7415746666666666 -0.40116233333333334
1257063634 0.7382283333333334 -0.39958133333333334
1258549513 0.732539 -0.4005366666666667
1260035392 0.7290046666666666 -0.39661799999999997
1261521271 0.7329203333333334 -0.3985906666666667
1263007150 0.7327476666666666 -0.40280333333333335
1264493029 0.733997 -0.405241
1265978908 0.736631 -0.40764433333333333
1267464787 0.7363306666666666 -0.40980466666666665
1268950666 0.737419 -0.41192200000000007
1270436545 0.7368996666666666 -0.41509100000000004
1271922424 0.7369403333333334 -0.41741733333333336
1273408303 0.737513 -0.417379
1274894182 0.7410006666666668 -0.411448
1276380061 0.737189 -0.41649933333333333
1277865940 0.7399483333333334 -0.41417300000000007
1279351819 0.7351046666666666 -0.4164656666666667
1280837698 0.7324766666666666 -0.41733400000000004
1282323577 0.7313646666666668 -0.41736700000000004
1283809456 0.7317063333333333 -0.41257733333333335
1285295335 0.7273386666666667 -0.4153166666666667
1286781214 0.7267343333333333 -0.41080466666666665
1288267093 0.7203666666666667 -0.41281566666666664
1289752972 0.71991 -0.40752966666666673
1291238851 0.7195823333333333 -0.41262899999999997
1292724730 0.7246623333333333 -0.412348
1294210609 0.7241453333333334 -0.41697066666666666
1295696488 0.7290853333333334 -0.4131496666666667
1297182367 0.726975 -0.4188486666666667
1298668246 0.7327953333333334 -0.41557566666666673
1300154125 0.7272893333333332 -0.4241796666666667
1301640004 0.7341413333333332 -0.418487
1303125883 0.731011 -0.42184099999999997
1304611762 0.7348433333333334 -0.41670199999999996
1306097641 0.7316486666666667 -0.42055599999999993
1307583520 0.7354943333333334 -0.413468
1309069399 0.7309709999999999 -0.419346
1310555278 0.7327413333333334 -0.41533033333333336
1312041157 0.7281316666666667 -0.4158946666666667
1313527036 0.730988 -0.40856566666666666
1315012915 0.7260230000000001 -0.4118866666666667
1316498794 0.729549 -0.402985
1317984673 0.7186816666666668 -0.40853199999999995
1319470552 0.7183756666666666 -0.4051643333333333
1320956431 0.7175136666666666 -0.405738
1322442310 0.7187033333333334 -0.4080953333333333
1323928189 0.7219076666666666 -0.41220566666666664
1325414068 0.7229133333333332 -0.41210600000000003
1326899947 0.7236083333333333 -0.415263
1328385826 0.7258213333333332 -0.4168246666666667
1329871705 0.7276693333333334 -0.41677433333333336
1331357584 0.7277503333333334 -0.4158213333333333
1332843463 0.7293656666666667 -0.4166096666666667
1334329342 0.728237 -0.4207463333333334
1335815221 0.7289396666666667 -0.419093
1337301100 0.7278543333333333 -0.42018266666666665
1338786979 0.7277659999999999 -0.4180543333333333
1340272858 0.72588 -0.41973466666666664
1341758737 0.724978 -0.41870199999999996
1343244616 0.7238313333333334 -0.41952199999999995
1344730495 0.7198180000000001 -0.41728566666666667
1346216374 0.7192013333333334 -0.415834
1347702253 0.7167643333333333 -0.41445533333333334
1349188132 0.7145496666666666 -0.41266066666666673
1350674011 0.7136516666666667 -0.41558300000000004
1352159890 0.7158030000000001 -0.41597
1353645769 0.7133419999999999 -0.41837033333333334
1355131648 0.7161336666666666 -0.4183046666666666
1356617527 0.7136323333333334 -0.42299333333333333
1358103406 0.715609 -0.42161133333333334
1359589285 0.7152683333333334 -0.4218113333333333
1361075164 0.7153183333333334 -0.4244826666666666
1362561043 0.7147243333333334 -0.42497399999999996
1364046922 0.7127943333333334 -0.424788
1365532801 0.7126516666666666 -0.4254373333333333
1367018680 0.7094643333333334 -0.428045
1368504559 0.7091810000000001 -0.428591
1369990438 0.7077223333333333 -0.42696033333333333
1371476317 0.704269 -0.42488166666666666
1372962196 0.7018599999999999 -0.4258923333333333
1374448075 0.698535 -0.4262846666666667
1375933954 0.6963863333333333 -0.42502733333333337
1377419833 0.6939646666666667 -0.4253636666666667
1378905712 0.6900020000000001 -0.4272376666666666
1380391591 0.6799353333333333 -0.433125
1381877470 0.689137 -0.42795933333333336
1383363349 0.6922506666666667 -0.428674
1384849228 0.6953093333333333 -0.428263
1386335107 0.6976296666666667 -0.43018799999999996
1387820986 0.70159 -0.4311443333333333
1389306865 0.7021990000000001 -0.43127033333333337
1390792744 0.7033836666666667 -0.43081466666666673
1392278623 0.7054170000000001 -0.43077133333333334
1393764502 0.7052296666666668 -0.43196100000000004
1395250381 0.705546 -0.4296033333333333
1396736260 0.7075163333333333 -0.43047233333333335
1398222139 0.7041689999999999 -0.430262
1399708018 0.7089443333333333 -0.42711366666666667
1401193897 0.7055006666666666 -0.4258733333333333
1402679776 0.7029556666666666 -0.4261996666666667
1404165655 0.702246 -0.4259196666666667
1405651534 0.7027846666666666 -0.419973
1407137413 0.6973916666666667 -0.420269
1408623292 0.6965303333333334 -0.41867733333333335
1410109171 0.6950246666666665 -0.4148483333333333
1411595050 0.6973996666666666 -0.420907
1413080929 0.7018593333333335 -0.41816666666666663
1414566808 0.7030659999999999 -0.42405999999999994
1416052687 0.705365 -0.42591
1417538566 0.7060146666666666 -0.42621266666666663
1419024445 0.7086323333333334 -0.42901166666666674
1420510324 0.7130489999999999 -0.42538866666666664
1421996203 0.7130393333333332 -0.42623066666666665
1423482082 0.712363 -0.4268923333333334
1424967961 0.7124139999999999 -0.42915499999999995
1426453840 0.7137443333333332 -0.427706
1427939719 0.7156183333333334 -0.4266796666666666
1429425598 0.7142879999999999 -0.42615433333333336
1430911477 0.7132126666666666 -0.4230863333333333
1432397356 0.7099909999999999 -0.425303
1433883235 0.708398 -0.4233716666666667
1435369114 0.7081816666666666 -0.4197786666666667
1436854993 0.703408 -0.4206636666666667
1438340872 0.7032746666666667 -0.4192306666666667
1439826751 0.7017763333333334 -0.413829
1441312630 0.7004579999999999 -0.417424
1442798509 0.7043956666666666 -0.4188943333333333
1444284388 0.7053816666666667 -0.4200646666666667
1445770267 0.705745 -0.4213266666666667
1447256146 0.7062433333333334 -0.4243843333333333
1448742025 0.7076633333333334 -0.424517
1450227904 0.7064286666666666 -0.4251936666666667
1451713783 0.707672 -0.4253120000000001
1453199662 0.7077743333333334 -0.42533333333333334
1454685541 0.7067076666666668 -0.42471233333333336
1456171420 0.7065816666666667 -0.423873
1457657299 0.7049566666666668 -0.4236836666666666
1459143178 0.7040506666666667 -0.4229096666666667
1460629057 0.7006990000000001 -0.4232993333333333
1462114936 0.6985413333333333 -0.42280066666666666
1463600815 0.6959383333333333 -0.42284733333333335
1465086694 0.6926296666666666 -0.4229756666666667
1466572573 0.687446 -0.423721
1468058452 0.6861666666666667 -0.42058033333333333
1469544331 0.6810423333333334 -0.41952866666666666
1471030210 0.6819246666666666 -0.42160533333333333
1472516089 0.6840470000000001 -0.424709
1474001968 0.6883793333333333 -0.42394333333333334
1475487847 0.6889806666666667 -0.428361
1476973726 0.6912863333333332 -0.428156
1478459605 0.6933616666666668 -0.4282686666666667
1479945484 0.694465 -0.429586
1481431363 0.6958953333333332 -0.4290043333333333
1482917242 0.6966913333333333 -0.43004099999999995
1484403121 0.6974143333333335 -0.42930466666666667
1485889000 0.6954539999999999 -0.43071366666666666
1487374879 0.696025 -0.42847433333333335
1488860758 0.69622 -0.42710633333333337
1490346637 0.6921773333333333 -0.42951633333333333
1491832516 0.6946563333333334 -0.4248976666666667
1493318395 0.6919523333333334 -0.4231606666666667
1494804274 0.6880510000000001 -0.42421
1496290153 0.6867086666666666 -0.42250933333333335
1497776032 0.6818656666666666 -0.42256
1499261911 0.6794686666666666 -0.42025266666666666
1500747790 0.6781736666666668 -0.42132833333333336
1502233669 0.680772 -0.42520833333333335
1503719548 0.6812613333333334 -0.4287906666666667
1505205427 0.6851536666666668 -0.4282956666666667
1506691306 0.6858783333333333 -0.42910033333333336
1508177185 0.6858506666666666 -0.43267933333333336
1509663064 0.6886313333333334 -0.43164566666666665
1511148943 0.6880323333333332 -0.43406666666666666
1512634822 0.6881816666666666 -0.4340636666666667
1514120701 0.6904163333333333 -0.4332483333333334
1515606580 0.6907396666666666 -0.4347453333333333
1517092459 0.6874373333333333 -0.43370333333333333
1518578338 0.6849280000000001 -0.43596233333333334
1520064217 0.6833543333333333 -0.4342956666666667
1521550096 0.6802856666666667 -0.4367906666666667
1523035975 0.6821853333333333 -0.4313206666666667
1524521854 0.6781260000000001 -0.43225700000000006
1526007733 0.6733433333333333 -0.42959166666666676
1527493612 0.6689599999999999 -0.42865166666666665
1528979491 0.6675163333333334 -0.42784966666666663
1530465370 0.6660226666666667 -0.42820033333333335
1531951249 0.6669646666666665 -0.4294806666666667
1533437128 0.6696833333333334 -0.43340266666666666
1534923007 0.6720510000000001 -0.43484933333333337
1536408886 0.674318 -0.4346083333333333
1537894765 0.6769506666666668 -0.436874
1539380644 0.6785993333333332 -0.43581333333333333
1540866523 0.6773846666666667 -0.4400636666666667
1542352402 0.6781273333333333 -0.4376796666666667
1543838281 0.678906 -0.43623900000000004
1545324160 0.677105 -0.4393343333333333
1546810039 0.6788716666666667 -0.43651733333333337
1548295918 0.6774476666666667 -0.4354656666666667
1549781797 0.677417 -0.43407233333333334
1551267676 0.6732663333333333 -0.43365633333333337
1552753555 0.6705656666666666 -0.43394533333333335
1554239434 0.6698523333333334 -0.43093999999999993
1555725313 0.6646046666666666 -0.432737
1557211192 0.6631156666666667 -0.4274483333333334
1558697071 0.6577253333333334 -0.4274546666666667
1560182950 0.6548013333333333 -0.42439566666666667
1561668829 0.6564596666666668 -0.42946466666666666
1563154708 0.6601273333333333 -0.4307383333333334
1564640587 0.6627136666666666 -0.431533
1566126466 0.6629149999999999 -0.435438
1567612345 0.6661323333333333 -0.4372336666666667
1569098224 0.6662243333333333 -0.4406373333333333
1570584103 0.6665690000000001 -0.4401793333333333
1572069982 0.6685896666666666 -0.44005166666666673
1573555861 0.666062 -0.4414383333333334
1575041740 0.671897 -0.44525
1576527619 0.6680376666666666 -0.44124800000000003
1578013498 0.6667343333333333 -0.4389823333333333
1579499377 0.6680103333333333 -0.437935
1580985256 0.6652586666666667 -0.43896666666666667
1582471135 0.6664673333333333 -0.44078
1583957014 0.6642926666666668 -0.43444166666666667
1585442893 0.6623376666666666 -0.432746
1586928772 0.6578486666666666 -0.4334903333333333
1588414651 0.6527813333333333 -0.43401400000000007
1589900530 0.6508703333333333 -0.428453
1591386409 0.650804 -0.435258
1592872288 0.655138 -0.43511799999999995
1594358167 0.6569539999999999 -0.435846
1595844046 0.6560413333333334 -0.4398376666666666
1597329925 0.6569373333333334 -0.441932
1598815804 0.6586963333333333 -0.443589
1600301683 0.6607486666666668 -0.44245133333333336
1601787562 0.6600776666666667 -0.44492200000000004
1603273441 0.6617156666666667 -0.444764
1604759320 0.6600366666666666 -0.4452036666666667
1606245199 0.6637973333333332 -0.4409983333333333
1607731078 0.6604196666666667 -0.4432746666666667
1609216957 0.6607999999999999 -0.44095533333333337
1610702836 0.6596836666666667 -0.44023966666666664
1612188715 0.6592183333333334 -0.4394896666666666
1613674594 0.6550020000000001 -0.43903933333333334
1615160473 0.6536653333333332 -0.43708166666666665
1616646352 0.6532163333333333 -0.43152366666666664
1618132231 0.6477516666666666 -0.433543
1619618110 0.6466316666666667 -0.42977166666666666
1621103989 0.6466233333333333 -0.431721
1622589868 0.6477746666666667 -0.43337866666666675
1624075747 0.6486193333333334 -0.4363776666666667
1625561626 0.6473523333333334 -0.4435336666666667
1627047505 0.6493680000000001 -0.44325666666666663
1628533384 0.650109 -0.44408866666666663
1630019263 0.651214 -0.44459899999999997
1631505142 0.6522176666666666 -0.4451433333333333
1632991021 0.651973 -0.4455133333333334
1634476900 0.6513566666666667 -0.44598866666666664
1635962779 0.653022 -0.444874
1637448658 0.6515586666666667 -0.44525433333333336
1638934537 0.6508096666666666 -0.442972
1640420416 0.6509926666666667 -0.442065
1641906295 0.6479326666666666 -0.444286
1643392174 0.6464373333333334 -0.443762
1644878053 0.6446266666666667 -0.44193066666666664
1646363932 0.6424426666666667 -0.44014233333333336
1647849811 0.6385586666666666 -0.43926899999999997
1649335690 0.6359043333333333 -0.4371703333333334
1650821569 0.6346786666666666 -0.43895866666666666
1652307448 0.636724 -0.4414923333333333
1653793327 0.6370779999999999 -0.443636
1655279206 0.6393853333333334 -0.4422726666666667
1656765085 0.6404756666666667 -0.44594833333333334
1658250964 0.6401296666666666 -0.4472063333333334
1659736843 0.6413063333333332 -0.44689400000000007
1661222722 0.640805 -0.447309
1662708601 0.641569 -0.44747000000000003
1664194480 0.6414789999999999 -0.4489283333333334
1665680359 0.6396233333333333 -0.45104533333333335
1667166238 0.638812 -0.4497623333333334
1668652117 0.6389143333333333 -0.4480546666666667
1670137996 0.638121 -0.44627333333333336
1671623875 0.637172 -0.44647233333333336
1673109754 0.6343326666666668 -0.444083
1674595633 0.6315816666666666 -0.44390233333333334
1676081512 0.6299976666666667 -0.4422056666666667
1677567391 0.6575453333333333 -0.44186533333333333
1679053270 0.6232786666666666 -0.440961
1680539149 0.6230176666666667 -0.438939
1682025028 0.6261403333333333 -0.44143033333333337
1683510907 0.6265483333333334 -0.44358233333333336
1684996786 0.62929 -0.44480533333333333
1686482665 0.6318486666666666 -0.44779433333333335
1687968544 0.6323046666666667 -0.44663366666666665
1689454423 0.6329066666666666 -0.44712766666666665
1690940302 0.6337956666666666 -0.447852
1692426181 0.6352523333333333 -0.44807033333333335
1693912060 0.6357886666666667 -0.448254
1695397939 0.6355856666666666 -0.446629
1696883818 0.6349953333333334 -0.4483856666666666
1698369697 0.6357043333333334 -0.447168
1699855576 0.6349156666666667 -0.44590833333333335
1701341455 0.6336560000000001 -0.4439423333333334
1702827334 0.6337703333333334 -0.4429053333333333
1704313213 0.6311356666666668 -0.4443876666666667
1705799092 0.6272263333333333 -0.445142
1707284971 0.6287036666666667 -0.4373336666666667
1708770850 0.6239463333333334 -0.436647
1710256729 0.622329 -0.43597933333333333
1711742608 0.622513 -0.44004333333333334
1713228487 0.6283703333333334 -0.4372943333333333
1714714366 0.6286346666666667 -0.440074
1716200245 0.6276653333333333 -0.44436933333333334
1717686124 0.6309406666666667 -0.4429093333333333
1719172003 0.6298826666666667 -0.44520199999999993
1720657882 0.6320089999999999 -0.44567133333333336
1722143761 0.6326936666666666 -0.4446946666666667
1723629640 0.630718 -0.447366
1725115519 0.6320203333333333 -0.4462163333333333
1726601398 0.6313796666666667 -0.444102
1728087277 0.6290680000000001 -0.44435399999999997
1729573156 0.6282329999999999 -0.4407113333333333
1731059035 0.624895 -0.44247499999999995
1732544914 0.623487 -0.4431373333333333
1734030793 0.6236853333333333 -0.43911866666666666
1735516672 0.61814 -0.4403823333333334
1737002551 0.6157076666666667 -0.4393296666666666
1738488430 0.6151736666666667 -0.4351963333333333
1739974309 0.6108096666666666 -0.435019
1741460188 0.6139546666666668 -0.43737000000000004
1742946067 0.6156356666666666 -0.43956066666666666
1744431946 0.6177043333333333 -0.44251666666666667
1745917825 0.6198126666666667 -0.44359599999999993
1747403704 0.619941 -0.44277833333333333
1748889583 0.6230876666666667 -0.4430966666666667
1750375462 0.6223933333333332 -0.44615833333333327
1751861341 0.6242866666666668 -0.44552366666666665
1753347220 0.625633 -0.44561199999999995
1754833099 0.622151 -0.44720333333333334
1756318978 0.623989 -0.4478773333333333
1757804857 0.623649 -0.44690433333333335
1759290736 0.6236013333333333 -0.44474600000000003
1760776615 0.6209173333333333 -0.44506033333333334
1762262494 0.6211613333333333 -0.44396399999999997
1763748373 0.6188020000000001 -0.44618599999999997
1765234252 0.6173096666666668 -0.44074100000000005
1766720131 0.6163976666666667 -0.44151500000000005
1768206010 0.6146253333333332 -0.44023433333333334
1769691889 0.6114693333333333 -0.43651466666666666
1771177768 0.6109323333333334 -0.437727
1772663647 0.6127696666666668 -0.44161333333333336
1774149526 0.6162623333333334 -0.44125166666666665
1775635405 0.6179833333333334 -0.44367899999999993
1777121284 0.6192173333333334 -0.445857
1778607163 0.62203 -0.445395
1780093042 0.6251133333333334 -0.4446396666666667
1781578921 0.623204 -0.4469573333333334
1783064800 0.6253116666666666 -0.44661700000000004
1784550679 0.6246386666666667 -0.4458233333333333
1786036558 0.624747 -0.44576299999999996
1787522437 0.623004 -0.4426963333333333
1789008316 0.6249716666666666 -0.44540566666666664
1790494195 0.6247026666666667 -0.443357
1791980074 0.622572 -0.4411506666666667
1793465953 0.6219353333333334 -0.4395613333333333
1794951832 0.6175186666666667 -0.4415723333333333
1796437711 0.6182 -0.4339013333333333
1797923590 0.6113923333333333 -0.436441
1799409469 0.6107533333333333 -0.4319286666666667
1800895348 0.6086726666666668 -0.43493333333333334
1802381227 0.613295 -0.43480499999999994
1803867106 0.6118450000000001 -0.4392183333333333
1805352985 0.6145816666666667 -0.43890500000000005
1806838864 0.6152706666666666 -0.44093800000000005
1808324743 0.6184543333333333 -0.43899566666666673
1809810622 0.6175556666666666 -0.44326799999999994
1811296501 0.6183043333333332 -0.44016866666666665
1812782380 0.6184673333333333 -0.4419623333333333
1814268259 0.6199023333333333 -0.44236499999999995
1815754138 0.620389 -0.442128
1817240017 0.6185256666666666 -0.441562
1818725896 0.6182613333333333 -0.440774
1820211775 0.6362613333333332 -0.43388866666666664
1821697654 0.6140979999999999 -0.4386586666666667
1823183533 0.6106313333333333 -0.43877533333333335
1824669412 0.6076446666666667 -0.43742533333333333
1826155291 0.6063846666666667 -0.43450900000000003
1827641170 0.603439 -0.435956
1829127049 0.5974213333333332 -0.4338863333333333
1830612928 0.5976486666666667 -0.43510566666666667
1832098807 0.601055 -0.43424466666666667
1833584686 0.603228 -0.435903
1835070565 0.6043783333333334 -0.4378786666666667
1836556444 0.607041 -0.4388923333333334
1838042323 0.6095753333333334 -0.43952300000000005
1839528202 0.6085470000000001 -0.440745
1841014081 0.6100253333333333 -0.443115
1842499960 0.6099423333333333 -0.442683
1843985839 0.6110006666666666 -0.443176
1845471718 0.612645 -0.4409866666666667
1846957597 0.6099236666666666 -0.44213600000000003
1848443476 0.6048523333333333 -0.446182
1849929355 0.603776 -0.44347866666666674
1851415234 0.603323 -0.444375
1852901113 0.6027483333333333 -0.4422546666666667
1854386992 0.6005616666666667 -0.4425316666666667
1855872871 0.5970873333333334 -0.4407916666666667
1857358750 0.5954756666666666 -0.44146366666666664
1858844629 0.5939483333333333 -0.43791033333333335
1860330508 0.5921373333333333 -0.43603333333333333
1861816387 0.5921506666666666 -0.4400536666666666
1863302266 0.5950573333333334 -0.44233100000000003
1864788145 0.5968353333333334 -0.4435896666666667
1866274024 0.5992216666666668 -0.4450643333333333
1867759903 0.6013883333333333 -0.446235
1869245782 0.6031036666666667 -0.44545066666666666
1870731661 0.60166 -0.4477446666666667
1872217540 0.6023226666666667 -0.448286
1873703419 0.6027009999999999 -0.45006900000000005
1875189298 0.6039439999999999 -0.448723
1876675177 0.6016493333333334 -0.44842333333333334
1878161056 0.6031019999999999 -0.44910333333333335
1879646935 0.5987140000000001 -0.4480196666666667
1881132814 0.6020503333333332 -0.444747
1882618693 0.5956883333333334 -0.45157966666666666
1884104572 0.5963280000000001 -0.444145
1885590451 0.5945496666666666 -0.4438606666666667
1887076330 0.5936003333333333 -0.441356
1888562209 0.59171 -0.4379220000000001
1890048088 0.5864449999999999 -0.436259
1891533967 0.59025 -0.438193
1893019846 0.5919133333333333 -0.4409003333333333
1894505725 0.5922356666666667 -0.441877
1895991604 0.594532 -0.442676
1897477483 0.5937450000000001 -0.44570299999999996
1898963362 0.5945223333333334 -0.4457676666666666
1900449241 0.5975573333333334 -0.44476699999999997
1901935120 0.5973746666666667 -0.445648
1903420999 0.5948853333333334 -0.44658533333333333
1904906878 0.5937 -0.446769
1906392757 0.5942573333333333 -0.44771933333333336
1907878636 0.5958286666666667 -0.4432593333333334
1909364515 0.5963413333333333 -0.44241033333333335
1910850394 0.5907680000000001 -0.44531433333333337
1912336273 0.5894026666666666 -0.44275533333333333
1913822152 0.5898733333333334 -0.43981733333333334
1915308031 0.5888766666666667 -0.43647233333333335
1916793910 0.5828636666666668 -0.4364843333333333
1918279789 0.5820733333333333 -0.434626
1919765668 0.5785376666666667 -0.4323223333333333
1921251547 0.5792449999999999 -0.43421166666666666
1922737426 0.581372 -0.43747699999999995
1924223305 0.5827966666666667 -0.43810433333333326
1925709184 0.5853706666666666 -0.4396043333333333
1927195063 0.5859070000000001 -0.4431416666666667
1928680942 0.5878446666666667 -0.443575
1930166821 0.5849156666666667 -0.44810599999999995
1931652700 0.5870013333333333 -0.44424033333333335
1933138579 0.5901369999999999 -0.4437176666666667
1934624458 0.5882280000000001 -0.4453286666666667
1936110337 0.5896543333333333 -0.44380033333333335
1937596216 0.5869536666666667 -0.44578933333333337
1939082095 0.5874639999999999 -0.4457683333333333
1940567974 0.5901603333333333 -0.44148533333333334
1942053853 0.5841843333333333 -0.4442826666666666
1943539732 0.5835273333333334 -0.44144366666666673
1945025611 0.5847806666666667 -0.4396086666666667
1946511490 0.5804673333333333 -0.4394386666666667
1947997369 0.577957 -0.43574766666666664
1949483248 0.5744346666666668 -0.4361656666666667
1950969127 0.576435 -0.4356006666666667
1952455006 0.577231 -0.43881033333333336
1953940885 0.5780646666666667 -0.4401793333333333
1955426764 0.5798926666666667 -0.4409363333333333
1956912643 0.5787643333333333 -0.4430083333333333
1958398522 0.5803349999999999 -0.44381033333333325
1959884401 0.5813533333333333 -0.445904
1961370280 0.5812106666666667 -0.4474373333333334
1962856159 0.58299 -0.44494100000000003
1964342038 0.5810713333333334 -0.4445836666666667
1965827917 0.5821383333333333 -0.445104
1967313796 0.5480713333333332 -0.4160993333333334
1968799675 0.5791536666666667 -0.44563233333333335
1970285554 0.5793996666666666 -0.4435753333333334
1971771433 0.5776753333333332 -0.44500066666666666
1973257312 0.574831 -0.4435646666666666
1974743191 0.5729543333333332 -0.4403416666666667
1976229070 0.5720793333333334 -0.4389526666666666
1977714949 0.570827 -0.4384506666666666
1979200828 0.578499 -0.43145666666666666
1980686707 0.5673813333333334 -0.43511066666666665
1982172586 0.5665713333333333 -0.43940333333333337
1983658465 0.565203 -0.44302100000000005
1985144344 0.5697426666666666 -0.44155966666666663
1986630223 0.569427 -0.44212500000000005
1988116102 0.5713636666666667 -0.4462106666666667
1989601981 0.5699676666666668 -0.4331340000000001
1991087860 0.5710816666666667 -0.4485303333333333
1992573739 0.5725086666666668 -0.447295
1994059618 0.5724980000000001 -0.44622233333333333
1995545497 0.5720053333333334 -0.449834
1997031376 0.5725046666666667 -0.44808933333333334
1998517255 0.568476 -0.44725666666666664
2000003134 0.5705503333333333 -0.44634866666666667
2001489013 0.5688970000000001 -0.4445316666666666
2002974892 0.5681346666666666 -0.4421313333333334
2004460771 0.562419 -0.446776
2005946650 0.5621550000000001 -0.44347800000000004
2007432529 0.562698 -0.43855099999999997
2008918408 0.5574596666666666 -0.44030600000000003
2010404287 0.5565923333333332 -0.440213
2011890166 0.5567006666666666 -0.44174633333333335
2013376045 0.56071 -0.44374399999999997
2014861924 0.5606283333333334 -0.44658033333333336
2016347803 0.5643276666666667 -0.44760133333333335
2017833682 0.5630606666666668 -0.4494626666666666
2019319561 0.5665456666666667 -0.45004
2020805440 0.5720166666666666 -0.44926233333333326
2022291319 0.5671923333333333 -0.45213366666666666
2023777198 0.5674766666666667 -0.451007
2025263077 0.5672613333333333 -0.4510943333333333
2026748956 0.5673376666666666 -0.44938800000000007
2028234835 0.5669116666666666 -0.4514076666666667
2029720714 0.5685833333333333 -0.44746400000000003
2031206593 0.565348 -0.450979
2032692472 0.56705 -0.44626933333333335
2034178351 0.5649763333333333 -0.44277066666666665
2035664230 0.5651723333333333 -0.4398706666666667
2037150109 0.5630633333333334 -0.4412046666666667
2038635988 0.5596003333333334 -0.4384726666666667
2040121867 0.5573533333333334 -0.43825200000000003
2041607746 0.5580323333333334 -0.44110066666666664
2043093625 0.5602866666666666 -0.440688
2044579504 0.5606306666666666 -0.440188
2046065383 0.5601630000000001 -0.445786
2047551262 0.560531 -0.4475496666666667
2049037141 0.562443 -0.44615699999999997
2050523020 0.5625473333333333 -0.444899
2052008899 0.5616393333333334 -0.44635633333333335
2053494778 0.5621533333333333 -0.4468283333333333
2054980657 0.5615826666666667 -0.4455626666666667
2056466536 0.5604293333333333 -0.446209
2057952415 0.5585323333333333 -0.447236
2059438294 0.5588226666666667 -0.4445443333333334
2060924173 0.5569516666666666 -0.444604
2062410052 0.5553266666666666 -0.44231533333333334
2063895931 0.5521076666666667 -0.44380100000000006
2065381810 0.5509769999999999 -0.44100100000000003
2066867689 0.5468516666666666 -0.4410056666666667
2068353568 0.5457563333333333 -0.439279
2069839447 0.5415206666666667 -0.43764166666666665
2071325326 0.5425166666666666 -0.4387636666666667
2072811205 0.5441736666666667 -0.4425946666666667
2074297084 0.544396 -0.44532499999999997
2075782963 0.5493163333333334 -0.44265166666666667
2077268842 0.5512886666666666 -0.4439766666666667
2078754721 0.5509663333333333 -0.448337
2080240600 0.552724 -0.447869
2081726479 0.5532306666666666 -0.45069166666666666
2083212358 0.55505 -0.448556
2084698237 0.5546896666666666 -0.44749466666666665
2086184116 0.55491 -0.4487046666666667
2087669995 0.5544326666666667 -0.44557166666666664
2089155874 0.5555576666666667 -0.44206033333333333
2090641753 0.5550243333333333 -0.4468666666666667
2092127632 0.551075 -0.4454016666666667
2093613511 0.5525056666666667 -0.442226
2095099390 0.5504576666666666 -0.44288599999999995
2096585269 0.547765 -0.440602
2098071148 0.5456776666666666 -0.4378823333333333
2099557027 0.5432113333333334 -0.43588166666666667
2101042906 0.544976 -0.4370353333333333
2102528785 0.5448970000000001 -0.44144733333333336
2104014664 0.5493199999999999 -0.4408863333333333
2105500543 0.5497546666666667 -0.44221399999999994
2106986422 0.5520843333333334 -0.44409099999999996
2108472301 0.5507750000000001 -0.4462743333333334
2109958180 0.5532560000000001 -0.446123
2111444059 0.5539930000000001 -0.44805300000000003
2112929938 0.5548483333333334 -0.448093
2114415817 0.5543396666666667 -0.44552233333333335
2115901696 0.5536736666666667 -0.44726333333333335
2117387575 0.5529526666666666 -0.4474386666666667
2118873454 0.554574 -0.44545133333333337
2120359333 0.5492849999999999 -0.45240966666666665
2121845212 0.5475003333333334 -0.44814099999999996
2123331091 0.5511763333333334 -0.444612
2124816970 0.549298 -0.4404983333333334
2126302849 0.5450383333333333 -0.44057399999999997
2127788728 0.5445976666666666 -0.4402256666666666
2129274607 0.541905 -0.43750666666666665
2130760486 0.5434136666666666 -0.4256606666666667
2132246365 0.5437516666666666 -0.44024100000000005
2133732244 0.5433393333333334 -0.4422143333333333
2135218123 0.5457926666666667 -0.441912
2136704002 0.547241 -0.44261533333333336
2138189881 0.5462833333333333 -0.4455016666666667
2139675760 0.5468620000000001 -0.44675266666666663
2141161639 0.5492033333333333 -0.4479816666666667
2142647518 0.545834 -0.44905033333333333
2144133397 0.5461863333333333 -0.44849866666666666
2145619276 0.546496 -0.44761266666666666
2147105155 0.5448033333333333 -0.448337
2148591034 0.5440996666666668 -0.45035700000000006
2150076913 0.544649 -0.4458316666666667
2151562792 0.5429476666666666 -0.4467386666666666
2153048671 0.542347 -0.4447286666666666
2154534550 0.5379200000000001 -0.4453783333333334
2156020429 0.536857 -0.44380533333333333
2157506308 0.5345993333333334 -0.4426146666666666
2158992187 0.5334666666666666 -0.44125233333333336
2160478066 0.531621 -0.4399013333333333
2161963945 0.5322173333333332 -0.441157
2163449824 0.5315963333333333 -0.4468836666666667
2164935703 0.5350469999999999 -0.4458263333333334
2166421582 0.5357776666666667 -0.447451
2167907461 0.538358 -0.44937933333333335
2169393340 0.540174 -0.44885899999999995
2170879219 0.5388116666666667 -0.45272833333333334
2172365098 0.5408749999999999 -0.44916466666666666
2173850977 0.5434823333333333 -0.44996966666666666
2175336856 0.5408430000000001 -0.44960133333333335
2176822735 0.5362633333333333 -0.4535806666666667
2178308614 0.5410763333333333 -0.4495753333333334
2179794493 0.536273 -0.4512136666666667
2181280372 0.5399173333333334 -0.445986
2182766251 0.5322973333333333 -0.4522873333333333
2184252130 0.5373736666666666 -0.44532533333333335
2185738009 0.5316433333333332 -0.4433666666666667
2187223888 0.5234293333333333 -0.44313933333333333
2188709767 0.528959 -0.4420946666666666
2190195646 0.5270596666666667 -0.43749333333333335
2191681525 0.5298766666666667 -0.43963599999999997
2193167404 0.5345046666666667 -0.4407706666666667
2194653283 0.5313 -0.44483233333333333
2196139162 0.5388953333333333 -0.44025966666666666
2197625041 0.5358896666666667 -0.44651833333333335
2199110920 0.5406023333333333 -0.44386533333333333
2200596799 0.5368993333333334 -0.446178
2202082678 0.5372693333333333 -0.445727
2203568557 0.53632 -0.44681499999999996
2205054436 0.5393913333333332 -0.4441983333333333
2206540315 0.5382486666666666 -0.44450933333333326
2208026194 0.5509413333333333 -0.40841333333333335
2209512073 0.536426 -0.44508333333333333
2210997952 0.5350273333333333 -0.44407800000000003
2212483831 0.532488 -0.4456106666666666
2213969710 0.5363153333333334 -0.4386873333333334
2215455589 0.5289096666666667 -0.43917633333333334
2216941468 0.5308756666666666 -0.43633733333333335
2218427347 0.5319083333333333 -0.43107066666666666
2219913226 0.5272433333333333 -0.43021166666666666
2221399105 0.5270093333333333 -0.43228633333333333
2222884984 0.5312553333333333 -0.43518999999999997
2224370863 0.5304669999999999 -0.43668466666666667
2225856742 0.5321843333333334 -0.4404323333333333
2227342621 0.5323876666666667 -0.4437706666666666
2228828500 0.5347860000000001 -0.4426826666666666
2230314379 0.5335796666666667 -0.44424166666666665
2231800258 0.533112 -0.445626
2233286137 0.5325806666666666 -0.44739233333333334
2234772016 0.5337426666666666 -0.4443173333333334
2236257895 0.538516 -0.44551500000000005
2237743774 0.5338163333333333 -0.443411
2239229653 0.5349773333333333 -0.444717
2240715532 0.5358036666666667 -0.4440296666666667
2242201411 0.5298086666666666 -0.443849
2243687290 0.5298463333333333 -0.444018
2245173169 0.531504 -0.439471
2246659048 0.5296713333333334 -0.4367756666666667
2248144927 0.5287006666666666 -0.437359
2249630806 0.526884 -0.4326893333333333
2251116685 0.525423 -0.4389723333333333
2252602564 0.5255443333333334 -0.43827733333333335
2254088443 0.5276506666666667 -0.4403766666666667
2255574322 0.525386 -0.43896700000000005
2257060201 0.5267063333333334 -0.43843666666666664
2258546080 0.5258803333333333 -0.4418393333333334
2260031959 0.5301423333333334 -0.4413626666666666
2261517838 0.5282093333333333 -0.4432993333333333
2263003717 0.5273696666666666 -0.443756
2264489596 0.5241843333333333 -0.44259266666666663
2265975475 0.526981 -0.44206233333333333
2267461354 0.5251666666666667 -0.4459953333333333
2268947233 0.5274156666666667 -0.442667
2270433112 0.5203193333333332 -0.44563233333333335
2271918991 0.5204196666666666 -0.44237666666666664
2273404870 0.5181983333333333 -0.4409806666666667
2274890749 0.5171486666666667 -0.4417896666666667
2276376628 0.5174526666666667 -0.44058900000000006
2277862507 0.51568 -0.43765000000000004
2279348386 0.5109503333333333 -0.437157
2280834265 0.5110273333333334 -0.4367783333333333
2282320144 0.5105336666666667 -0.4383523333333333
2283806023 0.5145770000000001 -0.4373143333333333
2285291902 0.5140433333333334 -0.43940566666666664
2286777781 0.5170443333333333 -0.43698499999999996
2288263660 0.5160823333333333 -0.44294833333333333
2289749539 0.5175273333333333 -0.44086933333333334
2291235418 0.5182763333333334 -0.441358
2292721297 0.5167843333333334 -0.44314366666666666
2294207176 0.5233946666666667 -0.4391793333333333
2295693055 0.5180776666666668 -0.44122766666666663
2297178934 0.520966 -0.4383436666666667
2298664813 0.5192783333333333 -0.4391653333333334
2300150692 0.515986 -0.43896466666666667
2301636571 0.5152599999999999 -0.43678
2303122450 0.5175960000000001 -0.43527066666666664
2304608329 0.5141123333333334 -0.43438333333333334
2306094208 0.5141513333333334 -0.430952
2307580087 0.5097263333333333 -0.433301
2309065966 0.5087466666666667 -0.430313
2310551845 0.509022 -0.428818
2312037724 0.5111680000000001 -0.43270533333333333
2313523603 0.5091943333333333 -0.4351993333333333
2315009482 0.5153013333333333 -0.4364856666666667
2316495361 0.515169 -0.43823433333333334
2317981240 0.5168349999999999 -0.43834966666666664
2319467119 0.514366 -0.4403969999999999
2320952998 0.5205783333333334 -0.4383246666666667
2322438877 0.4858726666666667 -0.4226286666666667
2323924756 0.524953 -0.4377413333333333
2325410635 0.5218039999999999 -0.43854299999999996
2326896514 0.5218630000000001 -0.44149900000000003
2328382393 0.5259916666666666 -0.4371343333333333
2329868272 0.5182573333333333 -0.44193533333333335
2331354151 0.5234816666666667 -0.43619633333333335
2332840030 0.521693 -0.43617466666666665
2334325909 0.5168320000000001 -0.43910066666666664
2335811788 0.520377 -0.4334036666666667
2337297667 0.516285 -0.4341276666666667
2338783546 0.5125336666666667 -0.43405033333333337
2340269425 0.5119563333333333 -0.4313826666666667
2341755304 0.5151123333333333 -0.43522766666666673
2343241183 0.510018 -0.4367916666666667
2344727062 0.5186323333333333 -0.43637499999999996
2346212941 0.519608 -0.43675833333333336
2347698820 0.5205893333333332 -0.43709233333333336
2349184699 0.5137706666666667 -0.44479466666666667
2350670578 0.514112 -0.44310266666666664
2352156457 0.5171100000000001 -0.44381566666666666
2353642336 0.5165649999999999 -0.4443973333333333
2355128215 0.5171393333333333 -0.44450166666666674
2356614094 0.5174966666666666 -0.4441816666666667
2358099973 0.5155410000000001 -0.4423973333333333
2359585852 0.5136633333333334 -0.44275366666666666
2361071731 0.5138583333333333 -0.43898299999999996
2362557610 0.5122643333333334 -0.44228433333333333
2364043489 0.5100683333333333 -0.4417176666666667
2365529368 0.5023513333333334 -0.44322533333333336
2367015247 0.50808 -0.4384783333333333
2368501126 0.5007833333333334 -0.43987333333333334
2369987005 0.5058950000000001 -0.43547833333333336
2371472884 0.5031253333333333 -0.43990099999999993
2372958763 0.5007419999999999 -0.4443186666666667
2374444642 0.5035086666666667 -0.44545833333333335
2375930521 0.5046769999999999 -0.44857733333333333
2377416400 0.5092816666666667 -0.44741933333333334
2378902279 0.5091716666666667 -0.446855
2380388158 0.5125846666666667 -0.4470273333333334
2381874037 0.5114510000000001 -0.4453636666666667
2383359916 0.5123323333333333 -0.4431483333333333
2384845795 0.5100446666666666 -0.4469343333333333
2386331674 0.512541 -0.4443723333333333
2387817553 0.51123 -0.44292200000000004
2389303432 0.5122166666666667 -0.4400786666666667
2390789311 0.5099250000000001 -0.44056933333333337
2392275190 0.5058243333333333 -0.44273633333333334
2393761069 0.508317 -0.437983
2395246948 0.505677 -0.43623033333333333
2396732827 0.5051156666666666 -0.43851766666666664
2398218706 0.5010473333333333 -0.4359840000000001
2399704585 0.49912666666666666 -0.4288053333333333
2401190464 0.500896 -0.43604100000000007
2402676343 0.5018326666666667 -0.4379463333333333
2404162222 0.5046616666666667 -0.4377326666666666
2405648101 0.5050073333333334 -0.43595200000000006
2407133980 0.504806 -0.43790900000000005
2408619859 0.5098613333333334 -0.43614833333333336
2410105738 0.5063456666666667 -0.4455226666666667
2411591617 0.5100106666666667 -0.4377216666666666
2413077496 0.506182 -0.4464683333333333
2414563375 0.5112450000000001 -0.4429893333333333
2416049254 0.507915 -0.4444586666666666
2417535133 0.5069736666666667 -0.441997
2419021012 0.5204426666666667 -0.44427666666666665
2420506891 0.5066893333333333 -0.44367466666666666
2421992770 0.503597 -0.44139066666666665
2423478649 0.5032070000000001 -0.44294833333333333
2424964528 0.49895533333333325 -0.44402733333333333
2426450407 0.5005176666666666 -0.4409213333333333
2427936286 0.4940803333333334 -0.4431686666666667
2429422165 0.4949223333333333 -0.4363426666666667
2430908044 0.4912356666666667 -0.44287666666666664
2432393923 0.4949683333333333 -0.439923
2433879802 0.49816666666666665 -0.43971033333333337
2435365681 0.4959806666666667 -0.44331000000000004
2436851560 0.49537866666666663 -0.446469
2438337439 0.4987703333333333 -0.4459413333333333
2439823318 0.49895433333333333 -0.44845766666666664
2441309197 0.5014463333333333 -0.443564
2442795076 0.5038490000000001 -0.4420323333333333
2444280955 0.5030733333333334 -0.44581933333333335
2445766834 0.5025386666666667 -0.44466500000000003
2447252713 0.49953000000000003 -0.4444646666666667
2448738592 0.50167 -0.44991633333333336
2450224471 0.49904966666666667 -0.44020533333333334
2451710350 0.49439799999999995 -0.4425143333333333
2453196229 0.49667733333333336 -0.442077
2454682108 0.49468399999999996 -0.4384219999999999
2456167987 0.4909966666666667 -0.43793566666666667
2457653866 0.4900086666666666 -0.43541766666666665
2459139745 0.48810366666666666 -0.4284396666666666
2460625624 0.4865466666666666 -0.43584666666666666
2462111503 0.4889576666666667 -0.4334536666666667
2463597382 0.48840666666666666 -0.43966299999999997
2465083261 0.48820966666666665 -0.44167466666666666
2466569140 0.4905996666666667 -0.44179033333333334
2468055019 0.49195000000000005 -0.44175133333333333
2469540898 0.49193466666666663 -0.4428526666666666
2471026777 0.4911236666666667 -0.44591833333333336
2472512656 0.497542 -0.4330956666666667
2473998535 0.49348733333333333 -0.4452036666666667
2475484414 0.4910603333333334 -0.4425536666666667
2476970293 0.4957073333333333 -0.43913899999999995
2478456172 0.4927143333333333 -0.439268
2479942051 0.4919013333333333 -0.4424886666666667
2481427930 0.49077600000000005 -0.44023733333333337
2482913809 0.4881876666666667 -0.4375963333333333
2484399688 0.4889503333333334 -0.44209000000000004
2485885567 0.4863946666666667 -0.43715
2487371446 0.4805916666666667 -0.4361026666666667
2488857325 0.480339 -0.4325636666666666
2490343204 0.4774846666666666 -0.43448966666666666
2491829083 0.4821786666666667 -0.43184433333333333
2493314962 0.48372166666666666 -0.4374086666666667
2494800841 0.48900366666666667 -0.437568
2496286720 0.49052233333333334 -0.4384263333333333
2497772599 0.49097300000000005 -0.441051
2499258478 0.4952806666666667 -0.440707
2500744357 0.49280799999999997 -0.4449536666666667
2502230236 0.49637899999999996 -0.441975
2503716115 0.49582433333333337 -0.442191
2505201994 0.49732666666666664 -0.44314766666666666
2506687873 0.495544 -0.4428476666666667
2508173752 0.49640866666666666 -0.44247
2509659631 0.4957286666666667 -0.439659
2511145510 0.49679999999999996 -0.4395363333333333
2512631389 0.49515033333333336 -0.4368003333333333
2514117268 0.49458566666666665 -0.435429
2515603147 0.4932463333333333 -0.4350523333333333
2517089026 0.4901503333333333 -0.432323
2518574905 0.4917223333333334 -0.4272263333333333
2520060784 0.48811866666666665 -0.4276216666666666
2521546663 0.48963466666666666 -0.43204099999999995
2523032542 0.48855899999999997 -0.43402333333333337
2524518421 0.49108866666666673 -0.4335776666666667
2526004300 0.4921313333333333 -0.43657866666666667
2527490179 0.49117666666666665 -0.43631133333333333
2528976058 0.4923013333333333 -0.43738799999999994
2530461937 0.4969226666666667 -0.43752166666666664
2531947816 0.4920866666666666 -0.44027466666666665
2533433695 0.491744 -0.43946233333333334
2534919574 0.49128766666666673 -0.4412046666666667
2536405453 0.4910046666666667 -0.44022066666666665
2537891332 0.49133466666666664 -0.438667
2539377211 0.49309833333333336 -0.4373033333333333
2540863090 0.49143200000000004 -0.4375286666666667
2542348969 0.489334 -0.4374483333333334
2543834848 0.4881786666666666 -0.434568
2545320727 0.4876763333333333 -0.43352799999999997
2546806606 0.48191933333333337 -0.4350783333333333
2548292485 0.48259466666666667 -0.43215733333333334
2549778364 0.4788216666666667 -0.43168333333333336
2551264243 0.479155 -0.433258
2552750122 0.481631 -0.43458766666666665
2554236001 0.48473133333333335 -0.4364133333333333
2555721880 0.4845743333333333 -0.441141
2557207759 0.48338200000000003 -0.43930566666666665
2558693638 0.4850126666666667 -0.44205633333333333
2560179517 0.4830696666666667 -0.4441486666666667
2561665396 0.48439133333333334 -0.44225933333333334
2563151275 0.4840630000000001 -0.4455206666666667
2564637154 0.4822836666666667 -0.4472666666666667
2566123033 0.48429300000000003 -0.44560266666666665
2567608912 0.4840413333333333 -0.44548533333333334
2569094791 0.4826683333333333 -0.44340666666666667
2570580670 0.4826133333333333 -0.4445776666666667
2572066549 0.4849556666666666 -0.442443
2573552428 0.48208433333333334 -0.439831
2575038307 0.478689 -0.44019899999999995
2576524186 0.4761866666666667 -0.44223100000000004
2578010065 0.4761976666666667 -0.4424026666666667
2579495944 0.47305166666666665 -0.4418566666666666
2580981823 0.4666263333333333 -0.4422816666666667
2582467702 0.47653566666666664 -0.441104
2583953581 0.4755403333333334 -0.442074
2585439460 0.47809066666666666 -0.44123833333333334
2586925339 0.4781756666666666 -0.44048533333333334
2588411218 0.47901900000000003 -0.440622
2589897097 0.47810033333333335 -0.441913
2591382976 0.48027966666666666 -0.4412393333333333
2592868855 0.4807686666666666 -0.4405516666666667
2594354734 0.4795203333333333 -0.44042966666666666
2595840613 0.4794340000000001 -0.43861966666666663
2597326492 0.478847 -0.436328
2598812371 0.47785666666666665 -0.43270800000000004
2600298250 0.47692666666666667 -0.43466699999999997
2601784129 0.4751073333333333 -0.43218699999999993
2603270008 0.47607 -0.42857233333333333
2604755887 0.4749463333333333 -0.42851333333333336
2606241766 0.46606600000000004 -0.43275166666666665
2607727645 0.46889166666666665 -0.4253576666666667
2609213524 0.46499466666666667 -0.423111
2610699403 0.465824 -0.41734166666666667
2612185282 0.46557333333333334 -0.4242086666666667
2613671161 0.4655936666666667 -0.4243113333333333
2615157040 0.4662553333333333 -0.4269556666666667
2616642919 0.4678466666666667 -0.42616000000000004
2618128798 0.471887 -0.42940433333333333
2619614677 0.47236399999999995 -0.429346
2621100556 0.4724816666666667 -0.4293816666666667
2622586435 0.4720686666666667 -0.4302653333333333
2624072314 0.47152700000000003 -0.432299
2625558193 0.46788233333333334 -0.4296136666666667
2627044072 0.4699466666666667 -0.429005
2628529951 0.4724346666666667 -0.4289136666666667
2630015830 0.4697536666666667 -0.42811000000000005
2631501709 0.4688056666666667 -0.426887
2632987588 0.463959 -0.4264136666666667
2634473467 0.465646 -0.4291693333333333
2635959346 0.46943700000000005 -0.42554166666666665
2637445225 0.4648116666666667 -0.42410299999999995
2638931104 0.4624 -0.4220883333333334
2640416983 0.460301 -0.42001
2641902862 0.45999166666666663 -0.4242533333333333
2643388741 0.4581296666666667 -0.42708799999999997
2644874620 0.46156233333333335 -0.42883699999999997
2646360499 0.4663023333333333 -0.42794233333333337
2647846378 0.46885200000000005 -0.42793233333333336
2649332257 0.46696000000000004 -0.43432899999999997
2650818136 0.4692536666666667 -0.43349166666666666
2652304015 0.469379 -0.43385366666666664
2653789894 0.46968866666666664 -0.43588733333333335
2655275773 0.4699433333333333 -0.4335073333333333
2656761652 0.46926766666666664 -0.43594466666666665
2658247531 0.4718696666666667 -0.433436
2659733410 0.4653 -0.43422866666666665
2661219289 0.4628466666666667 -0.43463566666666664
2662705168 0.4654046666666667 -0.43416499999999997
2664191047 0.4653893333333334 -0.42924733333333337
2665676926 0.4648113333333333 -0.43215433333333336
2667162805 0.46571366666666664 -0.4353013333333333
2668648684 0.4574666666666667 -0.429042
2670134563 0.46446666666666675 -0.4321253333333333
2671620442 0.46068299999999995 -0.4284816666666667
2673106321 0.459923 -0.4306163333333333
2674592200 0.4624553333333334 -0.4335453333333333
2676078079 0.4611236666666667 -0.43811333333333335
2677563958 0.467574 -0.4343573333333333
2679049837 0.46183833333333335 -0.433184
2680535716 0.46868 -0.43528966666666663
2682021595 0.4649566666666667 -0.43260433333333337
2683507474 0.4668603333333334 -0.43390900000000004
2684993353 0.4695213333333334 -0.43202066666666666
2686479232 0.4618326666666666 -0.435805
2687965111 0.4783026666666667 -0.43524499999999994
2689450990 0.46183599999999997 -0.428971
2690936869 0.4629216666666667 -0.4280836666666667
2692422748 0.45540733333333333 -0.4274266666666667
2693908627 0.45828833333333335 -0.4260606666666667
2695394506 0.453543 -0.4246403333333333
2696880385 0.45787566666666674 -0.42220799999999997
2698366264 0.44898166666666667 -0.4236273333333333
2699852143 0.4491213333333333 -0.42049200000000003
2701338022 0.4484183333333333 -0.4217766666666667
2702823901 0.453381 -0.42249099999999995
2704309780 0.4559306666666667 -0.42564566666666664
2705795659 0.4594833333333333 -0.4258376666666666
2707281538 0.4593146666666667 -0.423937
2708767417 0.46464066666666665 -0.425267
2710253296 0.46847900000000003 -0.422745
2711739175 0.46181099999999997 -0.426884
2713225054 0.462191 -0.4262646666666667
2714710933 0.47139033333333336 -0.4237503333333333
2716196812 0.46859366666666663 -0.421436
2717682691 0.4693886666666667 -0.423444
2719168570 0.47245833333333337 -0.422965
2720654449 0.46415999999999996 -0.42128766666666667
2722140328 0.48533699999999996 -0.4176816666666667
2723626207 0.466027 -0.4192396666666667
2725112086 0.4681956666666667 -0.4162246666666667
2726597965 0.4618153333333333 -0.4156276666666667
2728083844 0.45900266666666667 -0.4149416666666667
2729569723 0.45967766666666665 -0.4294613333333333
2731055602 0.45597233333333337 -0.41349366666666665
2732541481 0.4567003333333333 -0.4174166666666667
2734027360 0.4579306666666667 -0.42088
2735513239 0.4617253333333333 -0.41815800000000003
2736999118 0.459873 -0.42425833333333335
2738484997 0.46260166666666663 -0.4259523333333333
2739970876 0.46248266666666665 -0.4246243333333333
2741456755 0.4609753333333333 -0.4286996666666667
2742942634 0.4644176666666667 -0.4283873333333334
2744428513 0.46101100000000006 -0.43192766666666665
2745914392 0.46621500000000005 -0.42803933333333327
2747400271 0.46044366666666664 -0.4329733333333334
2748886150 0.458243 -0.43113766666666664
2750372029 0.4595263333333333 -0.434182
2751857908 0.459914 -0.43267999999999995
2753343787 0.45569166666666666 -0.43459899999999996
2754829666 0.46070099999999997 -0.42973066666666665
2756315545 0.454517 -0.4322703333333333
2757801424 0.45857966666666666 -0.42912799999999995
2759287303 0.4484146666666667 -0.4376253333333333
2760773182 0.44763966666666666 -0.43713399999999997
2762259061 0.4523436666666667 -0.43718433333333334
2763744940 0.4515826666666667 -0.44239333333333336
2765230819 0.4576736666666667 -0.4360473333333333
2766716698 0.449778 -0.44391033333333335
2768202577 0.4564816666666667 -0.4405586666666667
2769688456 0.4617283333333333 -0.44008699999999995
2771174335 0.45988366666666664 -0.4420363333333333
2772660214 0.456999 -0.444952
2774146093 0.461902 -0.43939233333333333
2775631972 0.46373533333333333 -0.4355313333333333
2777117851 0.4616196666666667 -0.4436436666666667
2778603730 0.4600926666666667 -0.44060799999999994
2780089609 0.4670003333333333 -0.434717
2781575488 0.4621593333333333 -0.4350866666666667
2783061367 0.45835699999999996 -0.43846333333333337
2784547246 0.4580423333333334 -0.43514533333333333
2786033125 0.4555723333333333 -0.4336166666666667
2787519004 0.4550086666666667 -0.429491
2789004883 0.45957866666666664 -0.42596533333333336
2790490762 0.45328666666666667 -0.4287393333333333
2791976641 0.453961 -0.432633
2793462520 0.45735333333333333 -0.43377533333333335
2794948399 0.4551426666666667 -0.43428533333333336
2796434278 0.45793466666666666 -0.43117633333333333
2797920157 0.45754199999999995 -0.437777
2799406036 0.4595646666666667 -0.43511733333333336
2800891915 0.45837866666666666 -0.4378416666666667
2802377794 0.46175666666666665 -0.4378436666666667
2803863673 0.4587016666666666 -0.436746
2805349552 0.45891433333333337 -0.4349503333333333
2806835431 0.460031 -0.436665
2808321310 0.460939 -0.4347193333333333
2809807189 0.459063 -0.43477566666666667
2811293068 0.45573266666666673 -0.43570966666666666
2812778947 0.45615433333333333 -0.432872
2814264826 0.45433299999999993 -0.43907633333333335
2815750705 0.45366166666666663 -0.4340553333333334
2817236584 0.450601 -0.4274203333333333
2818722463 0.4475436666666666 -0.42816866666666664
2820208342 0.44377700000000003 -0.4250636666666667
2821694221 0.449363 -0.4346993333333333
2823180100 0.4487586666666667 -0.4308243333333333
2824665979 0.4572073333333333 -0.43999933333333335
2826151858 0.4485886666666667 -0.4389403333333333
2827637737 0.45583033333333334 -0.43786166666666665
2829123616 0.4467466666666666 -0.4286206666666666
2830609495 0.4564443333333334 -0.44219499999999995
2832095374 0.4551823333333333 -0.44076266666666664
2833581253 0.45214766666666667 -0.4408796666666666
2835067132 0.4495733333333334 -0.43599699999999997
2836553011 0.449394 -0.434053
2838038890 0.45220599999999994 -0.433756
2839524769 0.44770166666666666 -0.43526400000000004
2841010648 0.446841 -0.43056366666666673
2842496527 0.45034166666666664 -0.4300003333333334
2843982406 0.44539100000000004 -0.428182
2845468285 0.4400106666666667 -0.42779866666666666
2846954164 0.445483 -0.429563
2848440043 0.4389963333333333 -0.4252843333333333
2849925922 0.43949866666666665 -0.421046
2851411801 0.43785466666666667 -0.41878
2852897680 0.4409243333333333 -0.4221413333333333
2854383559 0.44186366666666665 -0.42847100000000005
2855869438 0.4424056666666667 -0.4210146666666667
2857355317 0.4463966666666667 -0.4311716666666667
2858841196 0.44900199999999996 -0.4315576666666667
2860327075 0.44630300000000006 -0.42261566666666667
2861812954 0.4508483333333333 -0.42683466666666664
2863298833 0.4492466666666666 -0.4297336666666667
2864784712 0.44670000000000004 -0.42687866666666663
2866270591 0.4437816666666667 -0.42679833333333334
2867756470 0.4479146666666667 -0.4266753333333333
2869242349 0.4953803333333333 -0.427049
2870728228 0.44658466666666663 -0.4222613333333333
2872214107 0.444532 -0.42438966666666667
2873699986 0.446976 -0.42566433333333337
2875185865 0.44386566666666666 -0.41711133333333333
2876671744 0.4454656666666666 -0.41712166666666667
2878157623 0.4436443333333333 -0.41816000000000003
2879643502 0.44644599999999995 -0.4148716666666667
2881129381 0.44073233333333334 -0.4166096666666667
2882615260 0.44689533333333326 -0.4141163333333333
2884101139 0.4445953333333333 -0.4194166666666666
2885587018 0.442335 -0.42703599999999997
2887072897 0.4457226666666667 -0.41965233333333335
2888558776 0.4469876666666666 -0.4251453333333333
2890044655 0.4478473333333333 -0.42375999999999997
2891530534 0.444915 -0.421711
2893016413 0.448407 -0.42765233333333336
2894502292 0.44814100000000007 -0.42629133333333336
2895988171 0.44394466666666665 -0.4253933333333333
2897474050 0.44604166666666667 -0.4234803333333333
2898959929 0.4470983333333333 -0.42224599999999995
2900445808 0.44917333333333337 -0.4227376666666667
2901931687 0.44630833333333336 -0.4224926666666666
2903417566 0.44518033333333334 -0.42441100000000004
2904903445 0.441563 -0.4214983333333333
2906389324 0.44296699999999994 -0.4197946666666667
2907875203 0.4386333333333334 -0.419325
2909361082 0.43886633333333336 -0.41698933333333327
2910846961 0.440348 -0.4158996666666667
2912332840 0.44044866666666666 -0.41823533333333335
2913818719 0.4382756666666667 -0.41969366666666663
2915304598 0.43752966666666665 -0.42407833333333333
2916790477 0.4383436666666667 -0.4253153333333333
2918276356 0.443861 -0.425994
2919762235 0.439824 -0.42555499999999996
2921248114 0.43794233333333327 -0.4277666666666667
2922733993 0.4324053333333333 -0.43811799999999995
2924219872 0.439543 -0.4263436666666666
2925705751 0.43892299999999995 -0.43041966666666664
2927191630 0.4389733333333334 -0.4294736666666667
2928677509 0.43518866666666667 -0.43181933333333333
2930163388 0.43705533333333335 -0.42954833333333337
2931649267 0.4335286666666667 -0.42823166666666673
2933135146 0.43693933333333335 -0.42843699999999996
2934621025 0.43359433333333336 -0.42828366666666673
2936106904 0.42998899999999995 -0.42810966666666667
2937592783 0.4281916666666667 -0.4274556666666667
2939078662 0.42616433333333337 -0.4253206666666667
2940564541 0.4263393333333334 -0.42712600000000006
2942050420 0.429338 -0.42728066666666664
2943536299 0.42816366666666666 -0.430675
2945022178 0.42885633333333334 -0.430302
2946508057 0.4336103333333334 -0.4312133333333334
2947993936 0.43071166666666666 -0.43309100000000006
2949479815 0.436679 -0.430127
2950965694 0.434548 -0.43075166666666664
2952451573 0.438094 -0.431633
2953937452 0.437607 -0.4326103333333333
2955423331 0.43744200000000005 -0.4283266666666667
2956909210 0.4388093333333334 -0.429545
2958395089 0.435418 -0.43155133333333334
2959880968 0.435732 -0.4287066666666666
2961366847 0.43643666666666664 -0.42553
2962852726 0.4319866666666667 -0.4269213333333333
2964338605 0.4343973333333333 -0.4235263333333333
2965824484 0.4334016666666667 -0.422464
2967310363 0.4319946666666666 -0.419214
2968796242 0.430393 -0.41642833333333334
2970282121 0.427336 -0.4157686666666667
2971768000 0.4305353333333333 -0.4166526666666666
2973253879 0.4298276666666667 -0.41799600000000003
2974739758 0.431184 -0.41766333333333333
2976225637 0.430587 -0.4228703333333333
2977711516 0.43477566666666667 -0.41870633333333335
2979197395 0.43350566666666673 -0.42049733333333333
2980683274 0.43499466666666664 -0.42043600000000003
2982169153 0.43330833333333335 -0.42218599999999995
2983655032 0.4361456666666666 -0.420069
2985140911 0.43619366666666665 -0.419958
2986626790 0.4339406666666667 -0.41994400000000004
2988112669 0.434926 -0.4219373333333334
2989598548 0.4364033333333333 -0.41753100000000004
2991084427 0.4347476666666667 -0.417024
2992570306 0.4319673333333333 -0.41436999999999996
2994056185 0.4311163333333334 -0.4134786666666666
2995542064 0.431564 -0.41325800000000007
2997027943 0.4286026666666667 -0.4135203333333333
2998513822 0.42828533333333335 -0.406833
2999999701 0.42417533333333335 -0.404404
