# HZ S RI R 50
10000 0.7990906666666666 -0.04791833333333333
1495879 -0.7088916666666667 1.025931
2981758 -0.1501493333333333 0.6339816666666667
4467637 -0.027013333333333334 0.38000666666666666
5953516 0.015341333333333334 0.2636649999999999
7439395 0.028221666666666666 0.198828
8925274 0.24337599999999998 -0.13944499999999999
10411153 0.18317233333333333 -0.11376333333333333
11897032 0.143123 -0.09820233333333334
13382911 0.11474399999999998 -0.08709099999999999
14868790 0.09432233333333334 -0.078812
16354669 0.07859533333333332 -0.07259299999999999
17840548 0.06630333333333333 -0.06733566666666665
19326427 0.056419333333333335 -0.063207
20812306 0.04808733333333333 -0.05955366666666667
22298185 0.04144899999999999 -0.05645766666666666
23784064 0.035813 -0.05381966666666666
25269943 0.031008666666666664 -0.051529
26755822 0.026784999999999996 -0.04948433333333333
28241701 0.025515 -0.04749633333333332
29727580 0.019971666666666665 -0.045875
31213459 0.019202 -0.04737033333333333
32699338 0.018937333333333334 -0.04980866666666667
34185217 0.018716 -0.05207166666666666
35671096 0.017952 -0.05493699999999999
37156975 0.016455666666666667 -0.05837066666666666
38642854 0.014869333333333333 -0.06175766666666666
40128733 0.011654333333333333 -0.06609733333333333
41614612 0.009458333333333332 -0.070312
43100491 0.003894333333333333 -0.076072
44586370 -0.0031149999999999997 -0.08297433333333333
46072249 -0.015168000000000001 -0.09178166666666666
47558128 -0.03129533333333333 -0.10428933333333334
49044007 -0.05856466666666666 -0.12481133333333333
50529886 -0.10564399999999999 -0.16512633333333332
52015765 -0.21321766666666667 -0.26177766666666663
53501644 -0.35742900000000005 -0.678187
54987523 0.8101613333333333 -1.0206803333333334
56473402 0.7381013333333334 -0.25455866666666666
57959281 0.5837726666666666 -0.12392700000000001
59445160 0.541108 -0.06615
60931039 0.5414053333333333 -0.04554166666666666
62416918 0.5433473333333333 -0.05002966666666667
63902797 0.54531 -0.055279
65388676 0.5468309999999998 -0.06058633333333333
66874555 0.5484383333333334 -0.05940566666666667
68360434 0.5407869999999999 -0.10252499999999999
69846313 0.5524483333333333 -0.048349
71332192 0.5538953333333333 -0.04568499999999999
72818071 0.5506733333333333 -0.06940366666666666
74303950 0.5519016666666666 -0.06555466666666666
75789829 0.5567776666666666 -0.030198333333333334
77275708 0.5556946666666667 -0.03506666666666666
78761587 0.555253 -0.03279933333333333
80247466 0.5455506666666667 -0.09341
81733345 0.5495976666666667 -0.06953599999999999
83219224 0.5468286666666666 -0.07628966666666666
84705103 0.5420683333333334 -0.089962
86190982 0.5508046666666666 -0.025088666666666665
87676861 0.5388673333333334 -0.08637333333333333
89162740 0.5395803333333333 -0.07400699999999999
90648619 0.5370853333333333 -0.08441333333333334
92134498 0.5401313333333333 -0.08354299999999999
93620377 0.545648 -0.06745233333333334
95106256 0.5443196666666666 -0.08218266666666665
96592135 0.545835 -0.082354
98078014 0.5479639999999999 -0.08022599999999999
99563893 0.5500326666666666 -0.07963633333333332
101049772 0.5491630000000001 -0.08667033333333332
102535651 0.5497496666666666 -0.08833999999999999
104021530 0.5497503333333333 -0.08847433333333334
105507409 0.549632 -0.08957766666666667
106993288 0.54892 -0.09037200000000001
108479167 0.5482813333333333 -0.09197833333333333
109965046 0.5466576666666666 -0.091539
111450925 0.5470246666666667 -0.091989
112936804 0.5454476666666666 -0.09369933333333333
114422683 0.5431256666666666 -0.095393
115908562 0.5413383333333333 -0.09558366666666665
117394441 0.5392159999999999 -0.09707099999999999
118880320 0.5372453333333334 -0.097379
120366199 0.5354056666666667 -0.09819633333333333
121852078 0.537906 -0.10017666666666666
123337957 0.540523 -0.10213766666666665
124823836 0.5428209999999999 -0.10416133333333333
126309715 0.5452113333333333 -0.10537533333333333
127795594 0.5462183333333333 -0.10620866666666665
129281473 0.5480856666666666 -0.10794699999999999
130767352 0.5497029999999999 -0.10859666666666667
132253231 0.5502400000000001 -0.10987833333333333
133739110 0.5511546666666667 -0.11135166666666665
135224989 0.5423669999999999 -0.11474066666666667
136710868 0.5424893333333333 -0.11589766666666668
138196747 0.541829 -0.11641466666666667
139682626 0.5419966666666667 -0.11728400000000001
141168505 0.5411223333333333 -0.117396
142654384 0.5395129999999999 -0.11870133333333333
144140263 0.5384473333333333 -0.11931166666666666
145626142 0.537216 -0.119725
147112021 0.5346089999999999 -0.12123866666666666
148597900 0.5327786666666666 -0.12108166666666667
150083779 0.5310856666666666 -0.12223399999999998
151569658 0.5331859999999999 -0.12376333333333334
153055537 0.5344979999999999 -0.1257523333333333
154541416 0.5365066666666667 -0.12728199999999998
156027295 0.5381026666666666 -0.12845733333333334
157513174 0.5394423333333332 -0.12984766666666664
158999053 0.539888 -0.131788
160484932 0.540978 -0.13267
161970811 0.5418516666666666 -0.133351
163456690 0.5425423333333332 -0.13453266666666666
164942569 0.5422396666666667 -0.13580066666666668
166428448 0.5411553333333333 -0.13737666666666665
167914327 0.5406 -0.13718433333333332
169400206 0.540986 -0.135022
170886085 0.5375083333333333 -0.142382
172371964 0.535981 -0.1433613333333333
173857843 0.5347193333333333 -0.14421
175343722 0.532524 -0.14507699999999998
176829601 0.5303563333333332 -0.14574333333333334
178315480 0.527739 -0.146988
179801359 0.525188 -0.147891
181287238 0.5258333333333333 -0.14955466666666667
182773117 0.528153 -0.15142533333333333
184258996 0.529879 -0.15326999999999996
185744875 0.5311600000000001 -0.154296
187230754 0.533096 -0.15606399999999998
188716633 0.5339173333333332 -0.15752133333333332
190202512 0.5350440000000001 -0.15851966666666667
191688391 0.5353299999999999 -0.15972599999999998
193174270 0.5354783333333333 -0.160777
194660149 0.5356886666666667 -0.16100466666666666
196146028 0.5375190000000001 -0.15585933333333335
197631907 0.535828 -0.16077666666666665
199117786 0.5361586666666667 -0.15781633333333334
200603665 0.5334643333333333 -0.161748
202089544 0.5335893333333332 -0.15942966666666666
203575423 0.5307156666666667 -0.16326733333333332
205061302 0.529431 -0.16072166666666668
206547181 0.5258226666666667 -0.1648
208033060 0.524447 -0.16258466666666666
209518939 0.5202836666666666 -0.16676533333333332
211004818 0.5223626666666666 -0.16539766666666667
212490697 0.523411 -0.17023133333333332
213976576 0.5263863333333334 -0.16926633333333332
215462455 0.5267126666666666 -0.17422433333333331
216948334 0.5296759999999999 -0.17265599999999998
218434213 0.5291656666666666 -0.17746566666666666
219920092 0.531909 -0.17516233333333334
221405971 0.530567 -0.17970699999999998
222891850 0.5318036666666666 -0.17785733333333334
224377729 0.5310156666666666 -0.18138633333333334
225863608 0.5319606666666665 -0.179174
227349487 0.5301973333333333 -0.18331333333333336
228835366 0.5299456666666666 -0.18130466666666667
230321245 0.527786 -0.1843683333333333
231807124 0.5271416666666666 -0.18274466666666667
233293003 0.5243353333333333 -0.18650633333333333
234778882 0.5237153333333333 -0.18420466666666663
236264761 0.519532 -0.18744699999999997
237750640 0.5183486666666666 -0.18574333333333332
239236519 0.5140073333333333 -0.18946533333333332
240722398 0.5160163333333333 -0.18514
242208277 0.5151906666666666 -0.19337433333333331
243694156 0.5179453333333333 -0.195436
245180035 0.5197606666666666 -0.19772866666666666
246665914 0.5213249999999999 -0.198451
248151793 0.5222126666666667 -0.20024766666666666
249637672 0.5231566666666666 -0.20216599999999998
251123551 0.523623 -0.20294799999999996
252609430 0.5243436666666665 -0.2038893333333333
254095309 0.524674 -0.2054563333333333
255581188 0.5241056666666666 -0.20631499999999997
257067067 0.5230866666666666 -0.20692033333333332
258552946 0.5227236666666666 -0.20797
260038825 0.5212753333333333 -0.20841066666666666
261524704 0.5201233333333334 -0.20926266666666665
263010583 0.517954 -0.20986799999999997
264496462 0.5152889999999999 -0.21084533333333333
265982341 0.5133646666666666 -0.21101933333333334
267468220 0.5106173333333333 -0.21120366666666662
268954099 0.5075866666666666 -0.21188200000000001
270439978 0.5063256666666667 -0.213038
271925857 0.5081166666666667 -0.21548033333333333
273411736 0.50994 -0.2178233333333333
274897615 0.5119539999999999 -0.219901
276383494 0.5131606666666666 -0.221776
277869373 0.514362 -0.22313733333333333
279355252 0.5154996666666667 -0.22494533333333333
280841131 0.5164183333333333 -0.225899
282327010 0.5161593333333334 -0.22668933333333333
283812889 0.5155799999999999 -0.2282783333333333
285298768 0.5159426666666667 -0.2289743333333333
286784647 0.5163296666666667 -0.22996866666666665
288270526 0.5149046666666666 -0.22981666666666667
289756405 0.5134209999999999 -0.23095566666666667
291242284 0.5119933333333333 -0.23143766666666665
292728163 0.510185 -0.23176199999999997
294214042 0.5079006666666667 -0.232151
295699921 0.5052356666666666 -0.23205266666666668
297185800 0.503037 -0.2324493333333333
298671679 0.500002 -0.23274833333333333
300157558 0.497507 -0.23273966666666668
301643437 0.499478 -0.23549133333333333
303129316 0.5016633333333333 -0.237979
304615195 0.5026246666666665 -0.24008366666666664
306101074 0.5045503333333333 -0.24258833333333332
307586953 0.5060256666666666 -0.24351
309072832 0.5066539999999999 -0.24556666666666666
310558711 0.5073966666666667 -0.24720766666666666
312044590 0.5075303333333332 -0.24785933333333332
313530469 0.50834 -0.248879
315016348 0.5080766666666666 -0.2500446666666667
316502227 0.507202 -0.25035799999999997
317988106 0.5069543333333333 -0.2508836666666666
319473985 0.5059126666666667 -0.25068799999999997
320959864 0.5043416666666666 -0.25122333333333335
322445743 0.5028853333333334 -0.25148933333333334
323931622 0.5011676666666667 -0.2514673333333333
325417501 0.498753 -0.2514956666666667
326903380 0.4960903333333333 -0.25099133333333334
328389259 0.4930023333333333 -0.25073366666666663
329875138 0.4900713333333333 -0.25143899999999997
331361017 0.48960366666666666 -0.2567523333333333
332846896 0.49319 -0.256378
334332775 0.49449599999999994 -0.25898933333333335
335818654 0.49538899999999997 -0.26118966666666665
337304533 0.4968933333333333 -0.26386299999999996
338790412 0.49755499999999997 -0.26550666666666667
340276291 0.49928399999999995 -0.26711766666666664
341762170 0.49792166666666665 -0.26818333333333333
343248049 0.49866299999999997 -0.26990499999999995
344733928 0.49840533333333337 -0.270505
346219807 0.4993653333333333 -0.2713743333333333
347705686 0.49756 -0.272756
349191565 0.49695333333333336 -0.27254333333333325
350677444 0.49545533333333336 -0.2733413333333333
352163323 0.49435999999999997 -0.273347
353649202 0.49174799999999996 -0.27368666666666663
355135081 0.4896453333333333 -0.273445
356620960 0.4878553333333333 -0.273987
358106839 0.48508666666666667 -0.27316599999999996
359592718 0.4819866666666666 -0.2737303333333333
361078597 0.48244999999999993 -0.27609700000000004
362564476 0.4835486666666667 -0.27863366666666667
364050355 0.48511666666666664 -0.28084299999999995
365536234 0.4859533333333333 -0.28358700000000003
367022113 0.4869536666666666 -0.2852943333333333
368507992 0.4875763333333333 -0.28768599999999994
369993871 0.48861099999999996 -0.28905000000000003
371479750 0.475134 -0.2954906666666667
372965629 0.48888866666666664 -0.29148099999999993
374451508 0.4888093333333333 -0.29179133333333335
375937387 0.48740999999999995 -0.29304566666666665
377423266 0.487325 -0.2937983333333333
378909145 0.48634733333333335 -0.29467166666666667
380395024 0.4848473333333333 -0.2942823333333333
381880903 0.48359299999999994 -0.29538733333333334
383366782 0.48171133333333327 -0.2943823333333333
384852661 0.4802936666666667 -0.29511499999999996
386338540 0.47727733333333333 -0.29513633333333333
387824419 0.47448366666666664 -0.29581399999999997
389310298 0.47197 -0.2952553333333333
390796177 0.47074366666666667 -0.29646266666666665
392282056 0.47278633333333336 -0.298902
393767935 0.4739586666666667 -0.30174999999999996
395253814 0.47521766666666665 -0.3032856666666666
396739693 0.4762416666666667 -0.305735
398225572 0.4770133333333333 -0.3075106666666666
399711451 0.47739033333333325 -0.30892733333333333
401197330 0.4783203333333333 -0.3094813333333333
402683209 0.47776700000000005 -0.3117446666666666
404169088 0.477795 -0.3127543333333333
405654967 0.478187 -0.31270899999999996
407140846 0.47623166666666666 -0.313525
408626725 0.476707 -0.31376766666666667
410112604 0.47521066666666667 -0.31406233333333333
411598483 0.4736476666666667 -0.31447099999999995
413084362 0.4720553333333333 -0.3149203333333333
414570241 0.47076233333333334 -0.31420633333333337
416056120 0.4682496666666667 -0.314424
417541999 0.46608633333333327 -0.3132493333333333
419027878 0.4632066666666666 -0.31315566666666667
420513757 0.46198100000000003 -0.3141623333333333
421999636 0.463317 -0.31723966666666664
423485515 0.464403 -0.319432
424971394 0.4655103333333333 -0.32135099999999994
426457273 0.4662193333333334 -0.32369366666666666
427943152 0.4668093333333333 -0.32528766666666664
429429031 0.46773333333333333 -0.3270046666666666
430914910 0.47046866666666665 -0.32484633333333335
432400789 0.4686386666666667 -0.32852566666666666
433886668 0.46936 -0.32755766666666664
435372547 0.466543 -0.3304703333333333
436858426 0.46857333333333334 -0.3282936666666666
438344305 0.46598266666666666 -0.33135899999999996
439830184 0.46711366666666665 -0.329855
441316063 0.46319199999999994 -0.3322043333333333
442801942 0.46391366666666667 -0.32980966666666667
444287821 0.458904 -0.3328253333333333
445773700 0.45971166666666663 -0.3287503333333333
447259579 0.45461699999999994 -0.3324203333333333
448745458 0.4542713333333333 -0.32857499999999995
450231337 0.450011 -0.3317323333333333
451717216 0.4511573333333333 -0.33312433333333336
453203095 0.45219533333333334 -0.3371443333333333
454688974 0.45328799999999997 -0.33950166666666665
456174853 0.4547683333333333 -0.3405606666666666
457660732 0.45463499999999996 -0.34314300000000003
459146611 0.45502999999999993 -0.3439186666666667
460632490 0.4550626666666666 -0.3460816666666667
462118369 0.4559833333333333 -0.3464763333333334
463604248 0.455954 -0.3485586666666667
465090127 0.454971 -0.34952666666666665
466576006 0.44721466666666665 -0.3559663333333334
468061885 0.453742 -0.35043766666666665
469547764 0.47793399999999997 -0.3500536666666666
471033643 0.45137833333333327 -0.35015799999999997
472519522 0.45019366666666666 -0.35089399999999993
474005401 0.44808533333333334 -0.350655
475491280 0.446475 -0.34992766666666664
476977159 0.4432426666666667 -0.35001499999999997
478463038 0.4407106666666666 -0.3497226666666666
479948917 0.438337 -0.3491386666666666
481434796 0.439303 -0.35167766666666667
482920675 0.440619 -0.3549363333333333
484406554 0.4409773333333334 -0.3566733333333333
485892433 0.442878 -0.3595523333333333
487378312 0.44376099999999996 -0.36141233333333334
488864191 0.44425666666666663 -0.36246999999999996
490350070 0.4437693333333333 -0.364835
491835949 0.4446173333333333 -0.36529533333333336
493321828 0.44513600000000003 -0.3660373333333333
494807707 0.4442603333333333 -0.36729966666666664
496293586 0.44347633333333336 -0.3681703333333333
497779465 0.4424936666666667 -0.36886533333333327
499265344 0.44218999999999997 -0.36862966666666663
500751223 0.44036566666666666 -0.36958899999999995
502237102 0.439535 -0.36849199999999993
503722981 0.4369489999999999 -0.3691756666666666
505208860 0.43498666666666663 -0.3686746666666667
506694739 0.43332466666666664 -0.368002
508180618 0.43048733333333333 -0.3678666666666667
509666497 0.42730333333333326 -0.36718399999999995
511152376 0.4278093333333333 -0.368641
512638255 0.42931366666666665 -0.3717633333333333
514124134 0.42968066666666666 -0.37490433333333334
515610013 0.43163399999999996 -0.3763506666666667
517095892 0.43142099999999994 -0.37911866666666666
518581771 0.43187966666666666 -0.38021499999999997
520067650 0.432145 -0.381884
521553529 0.43004133333333333 -0.38511433333333334
523039408 0.43463999999999997 -0.38149599999999995
524525287 0.4304039999999999 -0.38639533333333326
526011166 0.433201 -0.3828463333333333
527497045 0.4292433333333333 -0.3877773333333333
528982924 0.4323363333333333 -0.383464
530468803 0.4260226666666667 -0.3883816666666666
531954682 0.4294673333333333 -0.3835443333333333
533440561 0.422785 -0.3872146666666666
534926440 0.4255753333333333 -0.38375099999999995
536412319 0.4179523333333333 -0.3864363333333334
537898198 0.42083899999999996 -0.38216799999999995
539384077 0.4127753333333333 -0.384718
540869956 0.41652466666666665 -0.38256366666666664
542355835 0.4131383333333333 -0.38953666666666664
543841714 0.41956233333333326 -0.3877853333333333
545327593 0.414714 -0.39514999999999995
546813472 0.4207336666666666 -0.3919793333333333
548299351 0.41705166666666665 -0.3974816666666666
549785230 0.42191766666666664 -0.395482
551271109 0.41645866666666664 -0.401225
552756988 0.42129633333333333 -0.3977963333333333
554242867 0.41687433333333335 -0.4032766666666666
555728746 0.420599 -0.398375
557214625 0.41487066666666667 -0.403289
558700504 0.41849666666666663 -0.3987686666666666
560186383 0.41301066666666664 -0.403728
561672262 0.4164933333333334 -0.39892500000000003
563158141 0.409983 -0.4029109999999999
564644020 0.4119176666666667 -0.399022
566129899 0.4047676666666667 -0.40123699999999995
567615778 0.4054563333333333 -0.3983323333333333
569101657 0.40205566666666664 -0.39722999999999997
570587536 0.40037233333333333 -0.39845699999999995
572073415 0.40214366666666657 -0.401486
573559294 0.4025506666666666 -0.4047226666666666
575045173 0.403254 -0.40684599999999993
576531052 0.40415699999999993 -0.41026199999999996
578016931 0.4047126666666667 -0.4113693333333333
579502810 0.40483199999999997 -0.4133093333333333
580988689 0.4050003333333333 -0.4156296666666666
582474568 0.404822 -0.41649
583960447 0.404977 -0.41866433333333336
585446326 0.4047153333333333 -0.419025
586932205 0.4051633333333333 -0.41931166666666664
588418084 0.402782 -0.41967566666666667
589903963 0.40243966666666664 -0.42016366666666666
591389842 0.40114933333333325 -0.4198646666666666
592875721 0.39976466666666666 -0.42038133333333333
594361600 0.39719533333333334 -0.4204893333333333
595847479 0.396798 -0.41976066666666667
597333358 0.39409666666666665 -0.417748
598819237 0.39088966666666664 -0.41796799999999995
600305116 0.388478 -0.418231
601790995 0.3889476666666667 -0.42164233333333334
603276874 0.3908156666666667 -0.4234943333333333
604762753 0.39210766666666663 -0.42547199999999996
606248632 0.3927693333333333 -0.4281313333333333
607734511 0.39309299999999997 -0.4303663333333333
609220390 0.3927153333333333 -0.43141433333333334
610706269 0.39369533333333334 -0.4334206666666667
612192148 0.3933576666666666 -0.4347303333333333
613678027 0.39357833333333336 -0.435415
615163906 0.3926863333333333 -0.435876
616649785 0.3929276666666667 -0.43573033333333333
618135664 0.39088233333333333 -0.4370036666666666
619621543 0.39003599999999994 -0.43662199999999995
621107422 0.38815399999999994 -0.43576299999999996
622593301 0.38782099999999997 -0.4354766666666666
624079180 0.38639699999999993 -0.43390766666666664
625565059 0.38530099999999995 -0.433543
627050938 0.3824396666666666 -0.43265033333333325
628536817 0.3792466666666666 -0.43211166666666667
630022696 0.37685966666666665 -0.4310676666666667
631508575 0.39516899999999994 -0.43206833333333333
632994454 0.37768266666666667 -0.43520366666666666
634480333 0.37783599999999995 -0.4382676666666666
635966212 0.3777793333333333 -0.4402443333333333
637452091 0.37784733333333326 -0.441231
638937970 0.3770903333333333 -0.4441609999999999
640423849 0.37758433333333336 -0.44576299999999996
641909728 0.37712066666666666 -0.4452003333333333
643395607 0.38288066666666665 -0.4434373333333333
644881486 0.3766856666666666 -0.44700133333333325
646367365 0.3762576666666666 -0.447493
647853244 0.37445766666666663 -0.44805033333333333
649339123 0.3737153333333333 -0.44822999999999996
650825002 0.3712123333333333 -0.44770200000000004
652310881 0.36977366666666667 -0.4462073333333333
653796760 0.36815833333333337 -0.4458833333333333
655282639 0.36628299999999997 -0.4452986666666666
656768518 0.3646546666666666 -0.44404099999999996
658254397 0.36120966666666665 -0.4429246666666667
659740276 0.3586733333333333 -0.4409523333333333
661226155 0.3579596666666667 -0.44350266666666666
662712034 0.357983 -0.44727900000000004
664197913 0.35787499999999994 -0.44952466666666663
665683792 0.3586836666666667 -0.45297299999999996
667169671 0.35770033333333334 -0.45524699999999996
668655550 0.3585506666666667 -0.4577986666666667
670141429 0.358673 -0.46005966666666664
671627308 0.35843366666666665 -0.46118466666666663
673113187 0.3577683333333333 -0.4627663333333333
674599066 0.35782499999999995 -0.4638776666666667
676084945 0.35789666666666664 -0.464758
677570824 0.3564919999999999 -0.4650643333333333
679056703 0.35546433333333327 -0.4657793333333333
680542582 0.35567966666666667 -0.46548599999999996
682028461 0.35341933333333336 -0.46540933333333334
683514340 0.352197 -0.465539
685000219 0.3507786666666666 -0.465715
686486098 0.3488176666666667 -0.4643406666666666
687971977 0.34515799999999996 -0.464047
689457856 0.3428313333333333 -0.4631936666666666
690943735 0.344009 -0.4642259999999999
692429614 0.3441706666666666 -0.4678483333333333
693915493 0.3461713333333334 -0.469798
695401372 0.34548366666666663 -0.4722719999999999
696887251 0.3471386666666666 -0.473735
698373130 0.34773866666666664 -0.47545233333333337
699859009 0.349884 -0.47717566666666666
701344888 0.3490933333333333 -0.4778243333333333
702830767 0.34930266666666665 -0.4784363333333333
704316646 0.349219 -0.479957
705802525 0.349691 -0.480274
707288404 0.35036199999999995 -0.4789136666666667
708774283 0.349157 -0.4787786666666666
710260162 0.348846 -0.47827166666666665
711746041 0.3483586666666666 -0.47835266666666665
713231920 0.34664033333333333 -0.47733533333333333
714717799 0.34521266666666667 -0.4763799999999999
716203678 0.3447246666666666 -0.47381299999999993
717689557 0.34250333333333327 -0.47326566666666664
719175436 0.34020433333333333 -0.4709816666666667
720661315 0.338087 -0.471725
722147194 0.3410116666666666 -0.47379233333333337
723633073 0.34034466666666663 -0.47674233333333327
725118952 0.34102333333333334 -0.479348
726604831 0.341012 -0.481342
728090710 0.3412773333333333 -0.48333000000000004
729576589 0.34236633333333333 -0.4848393333333333
731062468 0.341451 -0.4863739999999999
732548347 0.3413246666666666 -0.4864883333333333
734034226 0.3411803333333333 -0.48755099999999996
735520105 0.340905 -0.4878643333333333
737005984 0.3397246666666667 -0.4888656666666667
738491863 0.3400606666666666 -0.48813799999999996
739977742 0.3378763333333333 -0.48792233333333335
741463621 0.3372173333333333 -0.48810733333333334
742949500 0.3352663333333333 -0.48720199999999997
744435379 0.33363533333333334 -0.4862666666666667
745921258 0.332289 -0.48501099999999997
747407137 0.33042466666666664 -0.4834963333333333
748893016 0.32771266666666665 -0.48208033333333333
750378895 0.326747 -0.48193933333333333
751864774 0.32645466666666667 -0.48468433333333333
753350653 0.326395 -0.48799266666666663
754836532 0.3270723333333333 -0.49037866666666663
756322411 0.32698066666666664 -0.49252199999999996
757808290 0.326079 -0.4943386666666667
759294169 0.32700566666666664 -0.49639700000000003
760780048 0.3260223333333333 -0.4977573333333334
762265927 0.32555233333333333 -0.49901166666666663
763751806 0.326212 -0.49962399999999996
765237685 0.324226 -0.500324
766723564 0.32374899999999995 -0.5014939999999999
768209443 0.30328666666666665 -0.4926333333333333
769695322 0.33740099999999995 -0.525651
771181201 0.32062633333333335 -0.5012736666666666
772667080 0.3193603333333333 -0.5001893333333333
774152959 0.318044 -0.4994113333333333
775638838 0.3168066666666666 -0.4965286666666667
777124717 0.3133913333333333 -0.4961736666666666
778610596 0.31130899999999995 -0.49527066666666664
780096475 0.3092123333333333 -0.4946693333333333
781582354 0.3089923333333333 -0.4971383333333333
783068233 0.30944333333333335 -0.5003113333333333
784554112 0.31095300000000003 -0.5027246666666667
786039991 0.31105133333333335 -0.5056983333333332
787525870 0.312246 -0.5064996666666666
789011749 0.3120173333333333 -0.5089863333333333
790497628 0.3110633333333333 -0.5109206666666666
791983507 0.311763 -0.5124569999999999
793469386 0.31381299999999995 -0.5121016666666667
794955265 0.31122099999999997 -0.512779
796441144 0.311335 -0.5138693333333333
797927023 0.31069966666666665 -0.5140226666666666
799412902 0.3094753333333333 -0.5134516666666666
800898781 0.307604 -0.5132943333333333
802384660 0.30800633333333327 -0.512432
803870539 0.30734566666666663 -0.510297
805356418 0.30460899999999996 -0.5104053333333334
806842297 0.30331133333333327 -0.5089493333333333
808328176 0.30142366666666665 -0.5058786666666666
809814055 0.29938499999999996 -0.5053916666666667
811299934 0.29910366666666666 -0.5071623333333333
812785813 0.29840199999999995 -0.5106846666666667
814271692 0.300513 -0.5129293333333333
815757571 0.3013123333333333 -0.5165506666666666
817243450 0.299103 -0.5176113333333333
818729329 0.299771 -0.5195476666666666
820215208 0.30056466666666665 -0.520074
821701087 0.29979333333333336 -0.521891
823186966 0.3211183333333333 -0.5374909999999999
824672845 0.2991566666666666 -0.523751
826158724 0.29827366666666666 -0.523641
827644603 0.29691433333333334 -0.5239023333333332
829130482 0.29720366666666664 -0.5239826666666666
830616361 0.29612399999999994 -0.522586
832102240 0.29439 -0.5228013333333332
833588119 0.29292433333333334 -0.521519
835073998 0.293591 -0.51953
836559877 0.29112133333333334 -0.5183803333333333
838045756 0.28859899999999994 -0.5164433333333333
839531635 0.287366 -0.513274
841017514 0.2850543333333333 -0.517012
842503393 0.284536 -0.5192173333333333
843989272 0.28585066666666664 -0.5225550000000001
845475151 0.2852906666666667 -0.5247356666666666
846961030 0.2848036666666667 -0.5277046666666667
848446909 0.2859373333333333 -0.529589
849932788 0.28464766666666663 -0.531879
851418667 0.2860843333333333 -0.5323066666666666
852904546 0.283914 -0.534943
854390425 0.28198766666666664 -0.5358373333333333
855876304 0.2826276666666666 -0.5366783333333333
857362183 0.282666 -0.5363516666666666
858848062 0.2827126666666666 -0.5357906666666666
860333941 0.28149499999999994 -0.536345
861819820 0.27981833333333334 -0.5355089999999999
863305699 0.2792113333333333 -0.5354753333333333
864791578 0.27787999999999996 -0.5343943333333333
866277457 0.27680133333333334 -0.5330476666666666
867763336 0.27513966666666667 -0.530929
869249215 0.2740843333333333 -0.5289143333333333
870735094 0.27284699999999995 -0.5294443333333333
872220973 0.272409 -0.5324236666666666
873706852 0.2707463333333333 -0.534907
875192731 0.2722023333333333 -0.5386386666666666
876678610 0.27093799999999996 -0.5399153333333333
878164489 0.27073800000000003 -0.5419403333333334
879650368 0.2708833333333333 -0.544206
881136247 0.2701403333333333 -0.5459826666666665
882622126 0.27146466666666663 -0.5463583333333333
884108005 0.26882999999999996 -0.5473973333333333
885593884 0.269389 -0.547188
887079763 0.2683256666666667 -0.5476153333333333
888565642 0.26931499999999997 -0.5463586666666667
890051521 0.268412 -0.5476633333333334
891537400 0.26555533333333337 -0.5479533333333333
893023279 0.26526266666666665 -0.546074
894509158 0.262959 -0.5456876666666666
895995037 0.26184066666666667 -0.5436226666666666
897480916 0.26036966666666667 -0.5415626666666666
898966795 0.25798799999999994 -0.5393783333333333
900452674 0.2578006666666666 -0.5387069999999999
901938553 0.2575076666666667 -0.5419966666666667
903424432 0.25808433333333336 -0.544021
904910311 0.259355 -0.546284
906396190 0.258049 -0.5487446666666667
907882069 0.2579743333333333 -0.5506176666666667
909367948 0.25817866666666667 -0.552173
910853827 0.25763566666666665 -0.552057
912339706 0.2577563333333333 -0.5538273333333332
913825585 0.2554886666666666 -0.5546913333333334
915311464 0.25689033333333333 -0.5537443333333333
916797343 0.25753366666666666 -0.5548223333333333
918283222 0.26200066666666666 -0.5518190000000001
919769101 0.27607933333333334 -0.5656846666666666
921254980 0.25318966666666665 -0.553237
922740859 0.25223266666666666 -0.550964
924226738 0.252019 -0.5506053333333334
925712617 0.2539983333333333 -0.5464546666666666
927198496 0.24868799999999996 -0.546563
928684375 0.24594366666666667 -0.5446756666666667
930170254 0.24586233333333332 -0.5424163333333333
931656133 0.245145 -0.5456003333333334
933142012 0.24499366666666667 -0.5482496666666666
934627891 0.24556266666666665 -0.5500586666666667
936113770 0.24518466666666666 -0.552918
937599649 0.24511766666666668 -0.5546309999999999
939085528 0.249281 -0.5554066666666666
940571407 0.24838433333333332 -0.5564243333333333
942057286 0.24919566666666665 -0.5582676666666667
943543165 0.24733766666666668 -0.5588703333333334
945029044 0.2415 -0.5614679999999999
946514923 0.246309 -0.55951
948000802 0.23961933333333332 -0.561121
949486681 0.2453433333333333 -0.558729
950972560 0.23874766666666664 -0.5608976666666666
952458439 0.24383866666666665 -0.5579573333333333
953944318 0.23678033333333331 -0.5586526666666667
955430197 0.24229933333333334 -0.55612
956916076 0.233312 -0.5568909999999999
958401955 0.238089 -0.5526636666666667
959887834 0.23081433333333334 -0.5521066666666666
961373713 0.23525833333333335 -0.553669
962859592 0.23027033333333335 -0.5581333333333333
964345471 0.23647366666666664 -0.5584140000000001
965831350 0.2302293333333333 -0.5626303333333333
967317229 0.23662699999999998 -0.562525
968803108 0.23044 -0.5655553333333333
970288987 0.236479 -0.5661356666666666
971774866 0.22957299999999997 -0.5687336666666667
973260745 0.23515666666666668 -0.5678833333333333
974746624 0.23080599999999998 -0.5681786666666666
976232503 0.23569966666666667 -0.5686869999999999
977718382 0.2290273333333333 -0.5691556666666666
979204261 0.23605066666666666 -0.5671893333333333
980690140 0.226908 -0.5690933333333332
982176019 0.233455 -0.5664356666666666
983661898 0.228284 -0.5657743333333334
985147777 0.22782533333333332 -0.5634486666666666
986633656 0.22762633333333332 -0.5621813333333333
988119535 0.22409833333333332 -0.5608909999999999
989605414 0.222727 -0.5584936666666667
991091293 0.2217623333333333 -0.5599933333333332
992577172 0.22148633333333334 -0.5637163333333333
994063051 0.2218693333333333 -0.5652119999999999
995548930 0.2213063333333333 -0.5675806666666666
997034809 0.222043 -0.5697573333333332
998520688 0.220498 -0.5715373333333333
1000006567 0.22072066666666668 -0.5727703333333333
1001492446 0.22139866666666666 -0.5736680000000001
1002978325 0.21949433333333335 -0.5752436666666667
1004464204 0.220726 -0.5742663333333333
1005950083 0.21919499999999997 -0.575008
1007435962 0.21867499999999998 -0.5749053333333334
1008921841 0.21814199999999997 -0.5743523333333334
1010407720 0.217221 -0.5739383333333333
1011893599 0.215116 -0.5741276666666666
1013379478 0.2147843333333333 -0.5719356666666666
1014865357 0.21109899999999998 -0.571053
1016351236 0.21036033333333332 -0.5690056666666666
1017837115 0.207806 -0.5669036666666666
1019322994 0.20695566666666665 -0.5653763333333333
1020808873 0.20603766666666667 -0.565898
1022294752 0.20485733333333334 -0.5684480000000001
1023780631 0.20458366666666666 -0.571824
1025266510 0.20445000000000002 -0.5749716666666667
1026752389 0.20556999999999997 -0.5762636666666666
1028238268 0.20589466666666667 -0.5792326666666666
1029724147 0.20551600000000003 -0.5810513333333334
1031210026 0.20376399999999997 -0.581467
1032695905 0.2026693333333333 -0.5830506666666666
1034181784 0.20292066666666667 -0.583595
1035667663 0.20258033333333336 -0.5846503333333333
1037153542 0.204376 -0.584002
1038639421 0.20259999999999995 -0.583326
1040125300 0.2025773333333333 -0.583364
1041611179 0.19972666666666666 -0.5825406666666666
1043097058 0.19905033333333333 -0.5816063333333333
1044582937 0.19786933333333334 -0.5809279999999999
1046068816 0.1961093333333333 -0.5788923333333333
1047554695 0.195376 -0.5777406666666667
1049040574 0.19309566666666667 -0.5752763333333333
1050526453 0.19159666666666667 -0.5754246666666667
1052012332 0.192823 -0.5781866666666666
1053498211 0.19135366666666667 -0.5814553333333332
1054984090 0.192145 -0.5835009999999998
1056469969 0.19238366666666665 -0.585101
1057955848 0.19353066666666666 -0.587527
1059441727 0.19365100000000002 -0.5886453333333332
1060927606 0.19465233333333332 -0.5904896666666666
1062413485 0.194187 -0.5908866666666666
1063899364 0.19239666666666666 -0.5914923333333333
1065385243 0.19496499999999997 -0.5916859999999999
1066871122 0.194216 -0.5922166666666666
1068357001 0.19831866666666664 -0.5926446666666667
1069842880 0.19343133333333332 -0.590104
1071328759 0.19135366666666667 -0.589131
1072814638 0.1910093333333333 -0.5876063333333332
1074300517 0.18927266666666664 -0.5852133333333334
1075786396 0.18898099999999998 -0.5837559999999999
1077272275 0.18933299999999997 -0.5813386666666666
1078758154 0.18531233333333333 -0.5791436666666666
1080244033 0.185396 -0.5771433333333333
1081729912 0.1836693333333333 -0.5802853333333333
1083215791 0.18495666666666666 -0.583008
1084701670 0.18285466666666667 -0.5860869999999999
1086187549 0.18396366666666666 -0.5888693333333334
1087673428 0.182969 -0.5902333333333334
1089159307 0.1848713333333333 -0.591217
1090645186 0.1830426666666667 -0.592203
1092131065 0.18457133333333334 -0.5925986666666667
1093616944 0.18455733333333335 -0.5936916666666666
1095102823 0.18387799999999999 -0.5939096666666666
1096588702 0.18178466666666665 -0.5945849999999999
1098074581 0.181804 -0.59434
1099560460 0.18044699999999997 -0.592552
1101046339 0.177634 -0.5917263333333334
1102532218 0.17795966666666665 -0.590499
1104018097 0.17836 -0.5881993333333333
1105503976 0.17702933333333332 -0.5863576666666666
1106989855 0.17447133333333334 -0.5848969999999999
1108475734 0.17210166666666665 -0.5815639999999999
1109961613 0.1714483333333333 -0.5792416666666667
1111447492 0.16988399999999998 -0.5825009999999999
1112933371 0.170592 -0.5855123333333334
1114419250 0.17115866666666668 -0.587846
1115905129 0.16954899999999998 -0.5919346666666666
1117391008 0.17020066666666667 -0.593432
1118876887 0.16918933333333333 -0.5953493333333333
1120362766 0.1690983333333333 -0.597279
1121848645 0.16884466666666667 -0.5984943333333332
1123334524 0.16964799999999997 -0.5982566666666667
1124820403 0.16904 -0.6005103333333333
1126306282 0.16885799999999998 -0.5997573333333333
1127792161 0.16919566666666666 -0.6001583333333333
1129278040 0.16727433333333333 -0.5996863333333333
1130763919 0.16673433333333332 -0.5985596666666666
1132249798 0.16692866666666664 -0.5989236666666666
1133735677 0.16435266666666665 -0.5960553333333333
1135221556 0.16616233333333333 -0.5952249999999999
1136707435 0.164233 -0.5929053333333333
1138193314 0.164655 -0.591119
1139679193 0.16155533333333333 -0.5883576666666667
1141165072 0.161012 -0.5892086666666666
1142650951 0.16166966666666666 -0.5923826666666666
1144136830 0.15890066666666663 -0.5956166666666667
1145622709 0.1566973333333333 -0.5983176666666666
1147108588 0.15811066666666668 -0.6004316666666667
1148594467 0.15579800000000002 -0.6029146666666666
1150080346 0.157636 -0.6036033333333333
1151566225 0.15356599999999998 -0.6050106666666666
1153052104 0.153976 -0.6064256666666666
1154537983 0.15462333333333333 -0.605671
1156023862 0.15344599999999997 -0.6066206666666667
1157509741 0.15373033333333333 -0.6053706666666666
1158995620 0.15224633333333332 -0.606216
1160481499 0.15194066666666667 -0.6048626666666667
1161967378 0.15142033333333332 -0.6033753333333334
1163453257 0.14969666666666664 -0.6025743333333333
1164939136 0.1478503333333333 -0.5999203333333334
1166425015 0.14952166666666666 -0.5983729999999999
1167910894 0.14699933333333332 -0.596438
1169396773 0.144972 -0.5934723333333333
1170882652 0.143395 -0.5945306666666667
1172368531 0.14317133333333332 -0.5984176666666667
1173854410 0.143082 -0.6006736666666666
1175340289 0.1427233333333333 -0.602706
1176826168 0.14228 -0.6051663333333333
1178312047 0.14340266666666668 -0.6047433333333332
1179797926 0.14070966666666665 -0.6088826666666667
1181283805 0.14207366666666668 -0.6094823333333332
1182769684 0.141351 -0.6091716666666667
1184255563 0.13946599999999998 -0.6103909999999999
1185741442 0.139582 -0.6111193333333333
1187227321 0.14140999999999998 -0.610213
1188713200 0.139816 -0.610915
1190199079 0.139977 -0.6083106666666667
1191684958 0.1398253333333333 -0.6064803333333333
1193170837 0.14040233333333332 -0.6075740000000001
1194656716 0.13836366666666666 -0.6051023333333334
1196142595 0.1376383333333333 -0.6039113333333332
1197628474 0.13723066666666667 -0.599363
1199114353 0.13452966666666666 -0.5970496666666666
1200600232 0.13518666666666665 -0.5979369999999999
1202086111 0.13422166666666666 -0.6023433333333333
1203571990 0.13340333333333332 -0.6028233333333333
1205057869 0.133513 -0.605387
1206543748 0.130874 -0.608828
1208029627 0.13021299999999997 -0.6078333333333332
1209515506 0.13043266666666667 -0.6114153333333332
1211001385 0.1295683333333333 -0.6127013333333333
1212487264 0.13108233333333333 -0.6120866666666667
1213973143 0.1319786666666667 -0.612402
1215459022 0.12825533333333333 -0.6139893333333333
1216944901 0.12738766666666668 -0.6136586666666667
1218430780 0.134567 -0.6163616666666667
1219916659 0.12778666666666666 -0.6119953333333332
1221402538 0.126967 -0.6111926666666666
1222888417 0.12835033333333334 -0.6113106666666666
1224374296 0.124582 -0.608694
1225860175 0.12412133333333332 -0.6071453333333332
1227346054 0.12485533333333332 -0.6029899999999999
1228831933 0.12284133333333333 -0.603522
1230317812 0.12064133333333334 -0.6023536666666667
1231803691 0.12103933333333333 -0.6048583333333333
1233289570 0.12302566666666666 -0.6068439999999999
1234775449 0.123716 -0.6087436666666667
1236261328 0.12211666666666667 -0.6118346666666667
1237747207 0.12360033333333334 -0.6141639999999999
1239233086 0.12320466666666666 -0.614632
1240718965 0.125631 -0.6170133333333332
1242204844 0.12493100000000001 -0.6176606666666666
1243690723 0.126422 -0.617464
1245176602 0.12478133333333333 -0.6182413333333333
1246662481 0.12179633333333331 -0.618627
1248148360 0.12859899999999996 -0.6171793333333333
1249634239 0.12249566666666667 -0.6183609999999999
1251120118 0.13099033333333332 -0.616744
1252605997 0.12367099999999999 -0.614845
1254091876 0.129845 -0.6140563333333332
1255577755 0.124332 -0.612817
1257063634 0.131532 -0.6096183333333333
1258549513 0.120371 -0.6062466666666666
1260035392 0.12810966666666668 -0.603973
1261521271 0.119814 -0.6067993333333332
1263007150 0.124648 -0.6101479999999999
1264493029 0.11776266666666665 -0.6126326666666666
1265978908 0.12228666666666665 -0.6147819999999999
1267464787 0.11618799999999999 -0.6159389999999999
1268950666 0.12152266666666667 -0.6182216666666667
1270436545 0.11463566666666666 -0.6184053333333333
1271922424 0.11511166666666667 -0.6189296666666666
1273408303 0.120416 -0.6191206666666667
1274894182 0.11066766666666666 -0.6211099999999999
1276380061 0.11765966666666666 -0.6194596666666666
1277865940 0.10674633333333333 -0.6196759999999999
1279351819 0.11482666666666666 -0.619601
1280837698 0.10627066666666665 -0.61876
1282323577 0.11353166666666666 -0.617445
1283809456 0.10312266666666665 -0.6168426666666667
1285295335 0.10920999999999999 -0.615163
1286781214 0.10029366666666667 -0.6124513333333332
1288267093 0.10483166666666666 -0.6119906666666666
1289752972 0.09965566666666666 -0.6094083333333333
1291238851 0.097923 -0.6115526666666666
1292724730 0.09875833333333334 -0.6133059999999999
1294210609 0.09589066666666668 -0.6156173333333332
1295696488 0.09743333333333333 -0.6168099999999999
1297182367 0.09838799999999999 -0.6183086666666666
1298668246 0.09768366666666667 -0.619558
1300154125 0.096521 -0.6200823333333334
1301640004 0.09701599999999999 -0.6215776666666667
1303125883 0.09601499999999999 -0.6215029999999999
1304611762 0.09519933333333333 -0.6207316666666666
1306097641 0.09605833333333333 -0.619764
1307583520 0.09386699999999999 -0.619026
1309069399 0.09317833333333334 -0.618356
1310555278 0.09289999999999998 -0.6173176666666667
1312041157 0.09110366666666667 -0.6146969999999998
1313527036 0.09031266666666667 -0.6133926666666667
1315012915 0.09057133333333334 -0.6109373333333332
1316498794 0.08686733333333332 -0.6084476666666667
1317984673 0.084694 -0.6056893333333333
1319470552 0.08268666666666666 -0.6032336666666667
1320956431 0.08242866666666666 -0.6052296666666667
1322442310 0.08420366666666668 -0.6087046666666667
1323928189 0.08398033333333334 -0.6125736666666667
1325414068 0.08316766666666665 -0.6164216666666666
1326899947 0.08446933333333331 -0.6181723333333333
1328385826 0.08277466666666666 -0.6205413333333333
1329871705 0.08495233333333332 -0.6226826666666666
1331357584 0.08379666666666666 -0.6233566666666667
1332843463 0.08260933333333333 -0.6260856666666667
1334329342 0.084172 -0.6263399999999999
1335815221 0.084999 -0.6285933333333333
1337301100 0.084649 -0.6276473333333332
1338786979 0.083856 -0.6270193333333333
1340272858 0.086192 -0.6273376666666666
1341758737 0.086619 -0.6259833333333332
1343244616 0.085173 -0.6244529999999999
1344730495 0.08605733333333333 -0.6225253333333334
1346216374 0.08383733333333333 -0.6222396666666665
1347702253 0.08349266666666666 -0.6192993333333333
1349188132 0.08322199999999999 -0.617246
1350674011 0.08237833333333333 -0.6154636666666666
1352159890 0.08191166666666666 -0.6201446666666667
1353645769 0.08202 -0.623517
1355131648 0.080092 -0.6268846666666665
1356617527 0.081122 -0.6297546666666666
1358103406 0.07937233333333332 -0.6317463333333333
1359589285 0.07994699999999999 -0.6326783333333333
1361075164 0.07950166666666666 -0.6357413333333333
1362561043 0.07983766666666667 -0.6359066666666666
1364046922 0.07929133333333332 -0.637524
1365532801 0.07807966666666666 -0.6378026666666666
1367018680 0.08048 -0.6380729999999999
1368504559 0.081484 -0.6372576666666666
1369990438 0.07684766666666666 -0.6403543333333332
1371476317 0.077371 -0.635227
1372962196 0.07833466666666666 -0.6342456666666667
1374448075 0.07503633333333333 -0.6312263333333333
1375933954 0.07453733333333333 -0.6300363333333332
1377419833 0.07413466666666665 -0.6281583333333333
1378905712 0.07444633333333334 -0.6247523333333334
1380391591 0.07143266666666667 -0.624629
1381877470 0.07224133333333332 -0.626495
1383363349 0.06990833333333332 -0.6310393333333333
1384849228 0.07104533333333332 -0.6330363333333333
1386335107 0.070906 -0.635782
1387820986 0.07055499999999999 -0.6377683333333333
1389306865 0.06994933333333334 -0.6369033333333333
1390792744 0.07085633333333333 -0.6404073333333333
1392278623 0.06785966666666667 -0.640891
1393764502 0.069033 -0.6409623333333334
1395250381 0.069447 -0.6408003333333334
1396736260 0.067177 -0.6397123333333333
1398222139 0.06788833333333333 -0.6393856666666666
1399708018 0.06892566666666666 -0.6385226666666666
1401193897 0.06940133333333333 -0.6359106666666667
1402679776 0.06997199999999999 -0.6339056666666667
1404165655 0.06702266666666665 -0.6334243333333333
1405651534 0.06595766666666666 -0.6289296666666666
1407137413 0.06575833333333332 -0.6262883333333333
1408623292 0.06383366666666666 -0.6228273333333334
1410109171 0.06516333333333332 -0.621911
1411595050 0.061064999999999994 -0.6232736666666666
1413080929 0.062099999999999995 -0.6286879999999999
1414566808 0.060828666666666656 -0.6329210000000001
1416052687 0.06104266666666667 -0.6355536666666666
1417538566 0.06029233333333334 -0.634926
1419024445 0.05974666666666667 -0.6377136666666665
1420510324 0.05839299999999999 -0.64135
1421996203 0.060587 -0.6417353333333332
1423482082 0.05983733333333333 -0.6429036666666668
1424967961 0.06219866666666666 -0.6427326666666666
1426453840 0.05886999999999999 -0.6435803333333332
1427939719 0.057508333333333335 -0.6427156666666667
1429425598 0.058715666666666666 -0.642311
1430911477 0.05866666666666666 -0.6423743333333333
1432397356 0.05968133333333332 -0.64026
1433883235 0.055502333333333334 -0.6363026666666667
1435369114 0.05562466666666666 -0.6372513333333333
1436854993 0.05515166666666666 -0.6328303333333334
1438340872 0.05377166666666666 -0.6315023333333333
1439826751 0.055343 -0.628142
1441312630 0.051879999999999996 -0.6290966666666666
1442798509 0.054921333333333336 -0.6339873333333333
1444284388 0.05107033333333333 -0.6380233333333334
1445770267 0.05382933333333334 -0.638633
1447256146 0.05136533333333333 -0.640755
1448742025 0.052678666666666665 -0.6421333333333333
1450227904 0.05047966666666666 -0.6447716666666666
1451713783 0.053094333333333334 -0.645204
1453199662 0.05245133333333333 -0.6463083333333334
1454685541 0.053884333333333326 -0.6454030000000001
1456171420 0.051577 -0.6454496666666667
1457657299 0.05187666666666666 -0.6448689999999999
1459143178 0.05172266666666667 -0.6434536666666666
1460629057 0.05253233333333333 -0.6427866666666666
1462114936 0.05180566666666667 -0.639933
1463600815 0.05052399999999999 -0.6376743333333332
1465086694 0.050244 -0.6352036666666666
1466572573 0.05206966666666667 -0.6310553333333333
1468058452 0.04911566666666667 -0.628703
1469544331 0.048853999999999995 -0.624472
1471030210 0.049764 -0.6256816666666666
1472516089 0.04506666666666666 -0.6295423333333333
1474001968 0.04557299999999999 -0.6317200000000001
1475487847 0.046829333333333334 -0.6346816666666666
1476973726 0.044484 -0.6364896666666666
1478459605 0.043137666666666664 -0.639529
1479945484 0.04628566666666667 -0.64056
1481431363 0.042381 -0.6429079999999999
1482917242 0.04259366666666667 -0.6435893333333333
1484403121 0.04296733333333334 -0.6445916666666666
1485889000 0.04289099999999999 -0.6441123333333333
1487374879 0.04293333333333333 -0.64398
1488860758 0.041220999999999994 -0.6435643333333332
1490346637 0.041519 -0.643164
1491832516 0.041416999999999995 -0.6410896666666666
1493318395 0.04152433333333333 -0.639813
1494804274 0.04137233333333333 -0.6372903333333333
1496290153 0.04044266666666667 -0.635581
1497776032 0.03982366666666666 -0.6327513333333333
1499261911 0.039323333333333335 -0.6292603333333333
1500747790 0.040250999999999995 -0.6295683333333333
1502233669 0.034314 -0.6323856666666665
1503719548 0.03726766666666666 -0.6354416666666667
1505205427 0.03613333333333333 -0.638174
1506691306 0.03359833333333333 -0.6400816666666667
1508177185 0.033875 -0.642131
1509663064 0.035461999999999994 -0.6427603333333333
1511148943 0.03808366666666666 -0.643451
1512634822 0.035166666666666666 -0.644125
1514120701 0.034250333333333334 -0.6456959999999999
1515606580 0.03562733333333333 -0.6444253333333332
1517092459 0.03508766666666666 -0.6451499999999999
1518578338 0.036581 -0.642964
1520064217 0.03413533333333334 -0.644078
1521550096 0.03310833333333333 -0.6416973333333333
1523035975 0.03297833333333333 -0.6406673333333333
1524521854 0.03477566666666666 -0.6377816666666667
1526007733 0.03194433333333333 -0.6340603333333333
1527493612 0.03202566666666666 -0.6322006666666666
1528979491 0.03348333333333334 -0.629286
1530465370 0.033641 -0.6272053333333334
1531951249 0.02950033333333333 -0.631518
1533437128 0.02763233333333333 -0.632634
1534923007 0.030259666666666664 -0.6356879999999999
1536408886 0.028026 -0.6362963333333334
1537894765 0.025813666666666665 -0.639687
1539380644 0.025601000000000002 -0.6411873333333333
1540866523 0.025239666666666664 -0.6417983333333332
1542352402 0.026407666666666666 -0.641524
1543838281 0.022843333333333334 -0.642621
1545324160 0.026626 -0.644638
1546810039 0.023693333333333334 -0.6426743333333333
1548295918 0.023078 -0.6425173333333334
1549781797 0.020788999999999995 -0.6399360000000001
1551267676 0.020522666666666665 -0.6379539999999999
1552753555 0.020077333333333332 -0.6395626666666666
1554239434 0.020389333333333332 -0.6371333333333333
1555725313 0.017758 -0.6350713333333333
1557211192 0.019566666666666666 -0.632315
1558697071 0.015132666666666666 -0.6307303333333333
1560182950 0.014111333333333332 -0.6279696666666666
1561668829 0.017599 -0.631462
1563154708 0.017321666666666666 -0.6342133333333333
1564640587 0.014810333333333332 -0.636628
1566126466 0.015884 -0.6386766666666667
1567612345 0.014324666666666666 -0.6410403333333333
1569098224 0.015283666666666668 -0.6426543333333333
1570584103 0.016509 -0.642607
1572069982 0.015808666666666665 -0.6453949999999999
1573555861 0.017479333333333333 -0.6434716666666667
1575041740 0.01756033333333333 -0.6408136666666666
1576527619 0.017443 -0.64521
1578013498 0.015342666666666666 -0.6429883333333333
1579499377 0.016558666666666666 -0.6442363333333333
1580985256 0.013358333333333333 -0.645338
1582471135 0.015560999999999998 -0.642305
1583957014 0.014382 -0.6394343333333333
1585442893 0.014097666666666665 -0.6403323333333333
1586928772 0.013385999999999999 -0.6343643333333333
1588414651 0.012149333333333333 -0.6309413333333334
1589900530 0.012575999999999999 -0.6284636666666666
1591386409 0.012433666666666666 -0.6322009999999999
1592872288 0.011385 -0.6353676666666666
1594358167 0.009663999999999999 -0.6379223333333333
1595844046 0.009281 -0.6409446666666666
1597329925 0.00913 -0.6432573333333332
1598815804 0.011215666666666667 -0.6451659999999999
1600301683 0.009842 -0.645393
1601787562 0.007528666666666667 -0.6482113333333333
1603273441 0.009038999999999998 -0.647995
1604759320 0.011428666666666665 -0.6483543333333334
1606245199 0.008875000000000001 -0.6493663333333333
1607731078 0.010423333333333333 -0.6490306666666666
1609216957 0.012354666666666667 -0.648882
1610702836 0.007397000000000001 -0.6471
1612188715 0.009155 -0.645883
1613674594 0.007866999999999999 -0.6438026666666667
1615160473 0.007026333333333333 -0.6422833333333333
1616646352 0.006636999999999999 -0.6404653333333333
1618132231 0.005096666666666667 -0.6368986666666666
1619618110 0.007597666666666667 -0.6345966666666666
1621103989 0.0073156666666666665 -0.636324
1622589868 0.0037729999999999994 -0.639429
1624075747 0.003373666666666667 -0.6429646666666666
1625561626 0.004677000000000001 -0.6432663333333333
1627047505 0.0026223333333333333 -0.645716
1628533384 0.004281666666666666 -0.6477869999999999
1630019263 0.0026739999999999997 -0.6495
1631505142 0.00215 -0.6514693333333332
1632991021 0.005120666666666667 -0.6504936666666666
1634476900 0.002163 -0.6517359999999999
1635962779 0.0019196666666666667 -0.650468
1637448658 0.0009923333333333331 -0.6509273333333333
1638934537 0.0023806666666666663 -0.650142
1640420416 0.0026873333333333332 -0.648781
1641906295 0.002386333333333333 -0.6460586666666666
1643392174 0.002594333333333333 -0.6432676666666666
1644878053 0.0027116666666666665 -0.6403636666666667
1646363932 -0.0015669999999999998 -0.6386270000000001
1647849811 -0.0011703333333333333 -0.6354716666666667
1649335690 0.0012093333333333333 -0.631529
1650821569 -0.003157 -0.6313643333333333
1652307448 -0.0035096666666666666 -0.6362353333333333
1653793327 -0.00507 -0.6396813333333333
1655279206 -0.001481333333333333 -0.6426333333333334
1656765085 -0.005715666666666666 -0.6440346666666666
1658250964 0.0007933333333333335 -0.6478233333333333
1659736843 -0.0057793333333333325 -0.648662
1661222722 -0.0006373333333333333 -0.6504686666666666
1662708601 -0.006488666666666667 -0.650778
1664194480 -0.0036969999999999998 -0.6511943333333333
1665680359 -0.0047936666666666666 -0.6513066666666667
1667166238 -0.0021133333333333334 -0.6512176666666667
1668652117 -0.005239666666666667 -0.6494133333333333
1670137996 -0.004685333333333333 -0.6499296666666666
1671623875 -0.006037666666666667 -0.647245
1673109754 0.00017466666666666672 -0.6452923333333334
1674595633 -0.006787666666666666 -0.6414129999999999
1676081512 -0.0058653333333333335 -0.6398416666666666
1677567391 -0.008506 -0.6357963333333333
1679053270 -0.005993 -0.6326283333333333
1680539149 -0.012483333333333332 -0.631262
1682025028 -0.006254999999999998 -0.6357583333333332
1683510907 -0.008170666666666666 -0.6393479999999999
1684996786 -0.008685666666666666 -0.6425023333333333
1686482665 -0.009330333333333333 -0.6448253333333334
1687968544 -0.009128666666666667 -0.64728
1689454423 -0.009716666666666667 -0.6482859999999999
1690940302 -0.007994333333333332 -0.6511529999999999
1692426181 -0.0037953333333333333 -0.6517363333333333
1693912060 -0.005390333333333334 -0.6519553333333333
1695397939 -0.009388666666666667 -0.6507043333333333
1696883818 -0.009662 -0.652542
1698369697 -0.007597 -0.6510826666666666
1699855576 -0.008448999999999998 -0.6500839999999999
1701341455 -0.009317666666666665 -0.6474106666666666
1702827334 -0.017029333333333334 -0.6439046666666666
1704313213 -0.015595666666666667 -0.6436623333333333
1705799092 -0.013673666666666664 -0.6402289999999999
1707284971 -0.012932666666666665 -0.6378093333333332
1708770850 -0.016223666666666667 -0.6321619999999999
1710256729 -0.01674733333333333 -0.6322966666666666
1711742608 -0.016862000000000002 -0.6356743333333332
1713228487 -0.020316999999999995 -0.6381533333333334
1714714366 -0.022699 -0.6411383333333333
1716200245 -0.020494666666666668 -0.6444363333333333
1717686124 -0.017184666666666668 -0.646704
1719172003 -0.01904933333333333 -0.651286
1720657882 -0.021473 -0.6500929999999999
1722143761 -0.024111 -0.652727
1723629640 -0.026503666666666665 -0.6579186666666667
1725115519 -0.022852333333333336 -0.6525763333333333
1726601398 -0.020396333333333332 -0.6557736666666667
1728087277 -0.018076333333333333 -0.6558959999999999
1729573156 -0.024128999999999998 -0.6511246666666667
1731059035 -0.018724666666666667 -0.6512556666666667
1732544914 -0.021011000000000002 -0.6502206666666667
1734030793 -0.019655 -0.6488206666666666
1735516672 -0.01951733333333333 -0.6471026666666666
1737002551 -0.018433999999999996 -0.6424956666666666
1738488430 -0.019122666666666663 -0.6394439999999999
1739974309 -0.01958033333333333 -0.6379186666666666
1741460188 -0.021345999999999997 -0.639941
1742946067 -0.021294666666666663 -0.6430333333333332
1744431946 -0.023369666666666664 -0.64577
1745917825 -0.025249333333333332 -0.6510743333333333
1747403704 -0.025307333333333334 -0.6513993333333333
1748889583 -0.027295666666666666 -0.6540116666666665
1750375462 -0.028789 -0.6545563333333333
1751861341 -0.029797999999999998 -0.6562836666666666
1753347220 -0.027767 -0.6565916666666666
1754833099 -0.02974933333333333 -0.6572106666666666
1756318978 -0.029724333333333332 -0.6589566666666666
1757804857 -0.030121 -0.6573013333333333
1759290736 -0.029002 -0.6559006666666667
1760776615 -0.03150466666666667 -0.654185
1762262494 -0.03183733333333333 -0.6536979999999999
1763748373 -0.02733966666666667 -0.6517886666666666
1765234252 -0.029368999999999996 -0.6482916666666667
1766720131 -0.031012666666666668 -0.6457946666666666
1768206010 -0.031738333333333334 -0.6416223333333333
1769691889 -0.030015 -0.6395633333333333
1771177768 -0.03418466666666666 -0.6401326666666667
1772663647 -0.033254 -0.643735
1774149526 -0.03576766666666666 -0.64731
1775635405 -0.03567033333333333 -0.6498163333333333
1777121284 -0.037589 -0.6484719999999999
1778607163 -0.037255333333333335 -0.6515446666666667
1780093042 -0.03926933333333333 -0.6526546666666666
1781578921 -0.039048 -0.6519119999999999
1783064800 -0.041422333333333325 -0.6531626666666666
1784550679 -0.03984666666666667 -0.6531046666666667
1786036558 -0.038794666666666665 -0.6535313333333332
1787522437 -0.03938266666666666 -0.6545169999999999
1789008316 -0.04269133333333333 -0.6524466666666666
1790494195 -0.04030266666666666 -0.6495783333333334
1791980074 -0.04401366666666666 -0.647157
1793465953 -0.04177033333333333 -0.6460706666666666
1794951832 -0.03979166666666667 -0.644687
1796437711 -0.042473666666666667 -0.639666
1797923590 -0.043157333333333325 -0.6370049999999999
1799409469 -0.044428999999999996 -0.635335
1800895348 -0.04537466666666666 -0.6338693333333333
1802381227 -0.04468833333333333 -0.6359576666666666
1803867106 -0.05259266666666666 -0.6401249999999999
1805352985 -0.04864866666666666 -0.6425746666666666
1806838864 -0.04805366666666667 -0.6429153333333334
1808324743 -0.050054666666666664 -0.6470616666666666
1809810622 -0.049976999999999994 -0.649501
1811296501 -0.050470333333333325 -0.6513643333333332
1812782380 -0.048412666666666666 -0.6525383333333332
1814268259 -0.05077233333333332 -0.6519699999999999
1815754138 -0.050247999999999994 -0.6507843333333333
1817240017 -0.051164333333333326 -0.651306
1818725896 -0.052038666666666664 -0.6514073333333332
1820211775 -0.05234766666666666 -0.6497213333333333
1821697654 -0.050949 -0.6498936666666666
1823183533 -0.050734 -0.6460529999999999
1824669412 -0.04872633333333333 -0.647346
1826155291 -0.050352666666666664 -0.6449336666666665
1827641170 -0.05099466666666667 -0.6402403333333333
1829127049 -0.05220133333333333 -0.6366816666666667
1830612928 -0.051701333333333335 -0.6375503333333334
1832098807 -0.06427799999999999 -0.6364646666666666
1833584686 -0.053364 -0.642655
1835070565 -0.05522633333333333 -0.6454126666666666
1836556444 -0.05673966666666667 -0.6469776666666666
1838042323 -0.056316333333333336 -0.6480583333333334
1839528202 -0.05929366666666667 -0.6468879999999999
1841014081 -0.060319333333333336 -0.6518083333333333
1842499960 -0.05838866666666666 -0.6527209999999999
1843985839 -0.058214666666666665 -0.6524506666666666
1845471718 -0.05743466666666666 -0.6525599999999999
1846957597 -0.057991666666666664 -0.6533019999999999
1848443476 -0.05937166666666666 -0.653826
1849929355 -0.061481666666666664 -0.6510076666666667
1851415234 -0.058237 -0.6490366666666666
1852901113 -0.05787966666666667 -0.6460143333333332
1854386992 -0.05732099999999999 -0.6453243333333333
1855872871 -0.06369666666666667 -0.6431296666666666
1857358750 -0.062332 -0.6406986666666665
1858844629 -0.061629 -0.6363946666666666
1860330508 -0.06012033333333333 -0.6349066666666666
1861816387 -0.05963866666666667 -0.637326
1863302266 -0.065606 -0.6416796666666666
1864788145 -0.06491033333333332 -0.643393
1866274024 -0.06246466666666667 -0.647219
1867759903 -0.06552533333333332 -0.6481149999999999
1869245782 -0.067372 -0.6497693333333332
1870731661 -0.06269966666666665 -0.6497793333333333
1872217540 -0.055690666666666666 -0.648735
1873703419 -0.064829 -0.6537253333333333
1875189298 -0.06268466666666667 -0.652748
1876675177 -0.06019566666666666 -0.6519173333333332
1878161056 -0.063177 -0.6508179999999999
1879646935 -0.062221000000000005 -0.6505736666666666
1881132814 -0.06038733333333333 -0.6481129999999999
1882618693 -0.06322666666666667 -0.647281
1884104572 -0.06225333333333333 -0.6431813333333333
1885590451 -0.06091466666666666 -0.6422656666666666
1887076330 -0.061556 -0.6395649999999999
1888562209 -0.06272533333333333 -0.634825
1890048088 -0.06308366666666666 -0.6321546666666666
1891533967 -0.06189499999999999 -0.6346503333333333
1893019846 -0.06407433333333333 -0.6392566666666666
1894505725 -0.06524666666666665 -0.6425316666666666
1895991604 -0.06809066666666666 -0.6452313333333333
1897477483 -0.06371399999999999 -0.6464886666666666
1898963362 -0.06708166666666666 -0.6496113333333333
1900449241 -0.065951 -0.6482516666666667
1901935120 -0.06626566666666667 -0.6510683333333332
1903420999 -0.06631033333333333 -0.6514913333333332
1904906878 -0.066173 -0.6533386666666666
1906392757 -0.06532033333333333 -0.6533953333333333
1907878636 -0.06555766666666665 -0.6517953333333333
1909364515 -0.06516533333333333 -0.651206
1910850394 -0.06552466666666665 -0.650593
1912336273 -0.06846133333333332 -0.6476569999999999
1913822152 -0.064809 -0.645737
1915308031 -0.06453766666666666 -0.6452996666666666
1916793910 -0.06569233333333332 -0.6403273333333332
1918279789 -0.06625 -0.6371763333333333
1919765668 -0.06772833333333333 -0.632814
1921251547 -0.068349 -0.637787
1922737426 -0.06853 -0.641237
1924223305 -0.06866466666666665 -0.6416553333333332
1925709184 -0.07118733333333332 -0.6458853333333333
1927195063 -0.07319466666666666 -0.650622
1928680942 -0.07307433333333332 -0.6510726666666666
1930166821 -0.07154766666666665 -0.651615
1931652700 -0.07192899999999999 -0.6531119999999999
1933138579 -0.07274233333333333 -0.6547413333333332
1934624458 -0.06994033333333334 -0.6555529999999999
1936110337 -0.07265366666666666 -0.6539096666666666
1937596216 -0.07015933333333332 -0.6539526666666666
1939082095 -0.07012666666666667 -0.652783
1940567974 -0.07185566666666666 -0.6522416666666666
1942053853 -0.07041166666666665 -0.6504066666666667
1943539732 -0.07148066666666666 -0.6467606666666665
1945025611 -0.06957566666666666 -0.6459826666666666
1946511490 -0.06990833333333332 -0.6427526666666666
1947997369 -0.071352 -0.6397736666666667
1949483248 -0.07229633333333332 -0.6349816666666666
1950969127 -0.072907 -0.6376123333333333
1952455006 -0.07588966666666666 -0.639217
1953940885 -0.07706066666666667 -0.642247
1955426764 -0.076747 -0.6464593333333333
1956912643 -0.078619 -0.6496176666666666
1958398522 -0.078966 -0.6488346666666667
1959884401 -0.07741133333333333 -0.653064
1961370280 -0.07828333333333333 -0.654409
1962856159 -0.078804 -0.654133
1964342038 -0.07799033333333333 -0.6564586666666666
1965827917 -0.07900299999999999 -0.655412
1967313796 -0.06337433333333332 -0.664845
1968799675 -0.08201766666666667 -0.654226
1970285554 -0.08108233333333334 -0.652722
1971771433 -0.08215766666666666 -0.6525913333333333
1973257312 -0.08210266666666667 -0.649202
1974743191 -0.08197266666666667 -0.6480003333333333
1976229070 -0.08093266666666667 -0.6445133333333333
1977714949 -0.08002 -0.6421323333333333
1979200828 -0.07893933333333332 -0.6395533333333333
1980686707 -0.08663666666666667 -0.6289756666666666
1982172586 -0.08198233333333332 -0.6423066666666666
1983658465 -0.086879 -0.6464543333333332
1985144344 -0.08603666666666666 -0.6480956666666666
1986630223 -0.085591 -0.6516786666666665
1988116102 -0.08361766666666666 -0.6538653333333333
1989601981 -0.084605 -0.6496896666666666
1991087860 -0.08674099999999998 -0.6570769999999999
1992573739 -0.084377 -0.6579723333333334
1994059618 -0.09459633333333334 -0.6550363333333333
1995545497 -0.08143066666666665 -0.6569029999999999
1997031376 -0.09190766666666667 -0.6566536666666667
1998517255 -0.081661 -0.657876
2000003134 -0.094138 -0.6529400000000001
2001489013 -0.08412833333333333 -0.6539933333333333
2002974892 -0.092468 -0.6491543333333333
2004460771 -0.08363633333333333 -0.6489626666666666
2005946650 -0.08995566666666666 -0.646504
2007432529 -0.08285233333333333 -0.6442123333333333
2008918408 -0.08974566666666667 -0.6378873333333333
2010404287 -0.08579300000000001 -0.6371293333333333
2011890166 -0.094582 -0.639662
2013376045 -0.08499599999999999 -0.6476693333333333
2014861924 -0.09596066666666665 -0.6470866666666666
2016347803 -0.09077533333333333 -0.6507196666666666
2017833682 -0.09928 -0.6512263333333332
2019319561 -0.091205 -0.655404
2020805440 -0.086944 -0.6575986666666667
2022291319 -0.08915733333333332 -0.6586093333333333
2023777198 -0.10127733333333333 -0.6568143333333333
2025263077 -0.09085433333333333 -0.6584373333333333
2026748956 -0.09937766666666666 -0.657323
2028234835 -0.09303066666666666 -0.657655
2029720714 -0.10117500000000001 -0.6551686666666666
2031206593 -0.091646 -0.6570653333333333
2032692472 -0.09611 -0.6524099999999999
2034178351 -0.10031766666666667 -0.651372
2035664230 -0.09856699999999999 -0.6484526666666667
2037150109 -0.09419699999999999 -0.647685
2038635988 -0.09129466666666666 -0.6437700000000001
2040121867 -0.09634666666666666 -0.6406053333333334
2041607746 -0.09614566666666666 -0.6431223333333332
2043093625 -0.09321233333333334 -0.6475496666666666
2044579504 -0.09716666666666665 -0.6482289999999999
2046065383 -0.09431166666666665 -0.650962
2047551262 -0.097205 -0.652841
2049037141 -0.09375999999999998 -0.6541386666666666
2050523020 -0.099817 -0.6547083333333333
2052008899 -0.098324 -0.6544946666666667
2053494778 -0.09752499999999999 -0.6559740000000001
2054980657 -0.10066133333333334 -0.6557493333333333
2056466536 -0.09721466666666667 -0.6539683333333333
2057952415 -0.09746866666666665 -0.65499
2059438294 -0.09600399999999999 -0.653219
2060924173 -0.09590866666666666 -0.653276
2062410052 -0.09672133333333333 -0.6513039999999999
2063895931 -0.09593366666666665 -0.6482093333333333
2065381810 -0.09437066666666666 -0.6458503333333333
2066867689 -0.094192 -0.6424956666666667
2068353568 -0.09665866666666667 -0.638347
2069839447 -0.09567366666666666 -0.6355106666666667
2071325326 -0.09693366666666665 -0.6389619999999999
2072811205 -0.10176833333333332 -0.6400353333333333
2074297084 -0.098701 -0.6439193333333333
2075782963 -0.09905 -0.6445806666666667
2077268842 -0.09924966666666665 -0.6453243333333334
2078754721 -0.09985499999999999 -0.6469736666666666
2080240600 -0.09748466666666666 -0.6501153333333334
2081726479 -0.10277 -0.6495279999999999
2083212358 -0.10233066666666665 -0.6484543333333332
2084698237 -0.09778566666666667 -0.6508646666666666
2086184116 -0.09824866666666666 -0.6487753333333333
2087669995 -0.09965833333333332 -0.6494493333333332
2089155874 -0.101213 -0.6486056666666666
2090641753 -0.10106066666666666 -0.6455329999999999
2092127632 -0.098358 -0.645072
2093613511 -0.10003466666666666 -0.6411786666666667
2095099390 -0.09951633333333333 -0.6394756666666666
2096585269 -0.10069833333333333 -0.6356433333333333
2098071148 -0.09845866666666667 -0.6323829999999999
2099557027 -0.10313366666666668 -0.626702
2101042906 -0.09970866666666667 -0.6319309999999999
2102528785 -0.101288 -0.6327113333333333
2104014664 -0.10373666666666666 -0.6354986666666667
2105500543 -0.101328 -0.6388423333333333
2106986422 -0.102822 -0.6413203333333333
2108472301 -0.10343366666666666 -0.6437109999999999
2109958180 -0.102253 -0.64521
2111444059 -0.10933899999999999 -0.6456753333333333
2112929938 -0.10597133333333333 -0.6463753333333333
2114415817 -0.10241766666666666 -0.649384
2115901696 -0.10492966666666666 -0.6479743333333332
2117387575 -0.10582833333333333 -0.6479686666666666
2118873454 -0.10203000000000001 -0.6489076666666667
2120359333 -0.10850800000000001 -0.6438089999999999
2121845212 -0.09033466666666667 -0.6535916666666666
2123331091 -0.09228733333333333 -0.649861
2124816970 -0.08933533333333332 -0.6556193333333333
2126302849 -0.08990266666666666 -0.6453849999999999
2127788728 -0.08691833333333332 -0.6451560000000001
2129274607 -0.08912866666666666 -0.6470523333333333
2130760486 -0.08657666666666666 -0.6445449999999999
2132246365 -0.092339 -0.6413366666666667
2133732244 -0.08977966666666666 -0.6465046666666666
2135218123 -0.09260733333333333 -0.6491913333333333
2136704002 -0.08710866666666667 -0.6542753333333333
2138189881 -0.08994333333333333 -0.6566693333333333
2139675760 -0.08783766666666666 -0.651172
2141161639 -0.08802933333333332 -0.657531
2142647518 -0.08696599999999999 -0.6566106666666667
2144133397 -0.08456599999999999 -0.6546726666666666
2145619276 -0.08572133333333333 -0.6561376666666666
2147105155 -0.08731433333333334 -0.6511513333333332
2148591034 -0.10006133333333334 -0.6469083333333333
2150076913 -0.09952466666666666 -0.6451386666666666
2151562792 -0.098784 -0.6423596666666667
2153048671 -0.09421833333333332 -0.642191
2154534550 -0.096384 -0.63645
2156020429 -0.09601266666666666 -0.6351666666666667
2157506308 -0.09954933333333334 -0.6297733333333333
2158992187 -0.09668066666666665 -0.6269836666666666
2160478066 -0.09804933333333334 -0.6260979999999999
2161963945 -0.09525866666666667 -0.6291869999999999
2163449824 -0.100892 -0.6305763333333333
2164935703 -0.104491 -0.6325983333333334
2166421582 -0.10718766666666665 -0.6335816666666667
2167907461 -0.10075066666666667 -0.6370063333333333
2169393340 -0.10524133333333333 -0.6374746666666666
2170879219 -0.09063399999999999 -0.6722396666666667
2172365098 -0.10499833333333332 -0.6404103333333333
2173850977 -0.10400299999999998 -0.6418809999999999
2175336856 -0.11596899999999999 -0.6389446666666665
2176822735 -0.10584966666666668 -0.6387323333333333
2178308614 -0.11169599999999999 -0.6384556666666666
2179794493 -0.10894133333333333 -0.6388999999999999
2181280372 -0.11164866666666665 -0.6379726666666666
2182766251 -0.11216466666666666 -0.6376786666666666
2184252130 -0.11142133333333333 -0.6343880000000001
2185738009 -0.10952599999999998 -0.6345609999999999
2187223888 -0.11085266666666667 -0.630469
2188709767 -0.111841 -0.6269456666666666
2190195646 -0.117685 -0.624333
2191681525 -0.11887999999999999 -0.6273779999999999
2193167404 -0.116114 -0.6320520000000001
2194653283 -0.11831866666666666 -0.6343716666666667
2196139162 -0.11540799999999998 -0.6383306666666666
2197625041 -0.11286366666666667 -0.6403066666666666
2199110920 -0.10880899999999999 -0.64279
2200596799 -0.12237066666666666 -0.6426613333333333
2202082678 -0.12130933333333334 -0.6439886666666667
2203568557 -0.11496433333333334 -0.6458
2205054436 -0.11148066666666667 -0.6456853333333332
2206540315 -0.11461433333333333 -0.648596
2208026194 -0.1388643333333333 -0.6284536666666667
2209512073 -0.11259 -0.6451256666666666
2210997952 -0.11046533333333333 -0.6423009999999999
2212483831 -0.11172099999999999 -0.6411576666666667
2213969710 -0.11382566666666667 -0.6372403333333332
2215455589 -0.11371500000000001 -0.6370049999999999
2216941468 -0.11582433333333333 -0.6333676666666667
2218427347 -0.11100666666666666 -0.6317146666666666
2219913226 -0.10900533333333332 -0.6267013333333333
2221399105 -0.11181733333333332 -0.628285
2222884984 -0.115129 -0.633002
2224370863 -0.12001433333333333 -0.6349363333333333
2225856742 -0.12345999999999999 -0.6387503333333333
2227342621 -0.122689 -0.642025
2228828500 -0.12254833333333333 -0.6417626666666667
2230314379 -0.12231399999999999 -0.643881
2231800258 -0.11820233333333333 -0.6423356666666666
2233286137 -0.11931166666666666 -0.6425906666666666
2234772016 -0.12328266666666667 -0.6467733333333332
2236257895 -0.11768266666666667 -0.6441473333333333
2237743774 -0.11821233333333332 -0.6476983333333333
2239229653 -0.11799899999999999 -0.6435369999999999
2240715532 -0.12111833333333333 -0.6421806666666666
2242201411 -0.12159566666666667 -0.6408833333333332
2243687290 -0.11964766666666667 -0.641448
2245173169 -0.120309 -0.6373786666666665
2246659048 -0.11428966666666665 -0.6345823333333334
2248144927 -0.12043066666666666 -0.6293826666666666
2249630806 -0.12042233333333333 -0.6296563333333334
2251116685 -0.11924399999999999 -0.6302146666666666
2252602564 -0.12429533333333333 -0.6333063333333333
2254088443 -0.12695166666666668 -0.6359086666666666
2255574322 -0.127762 -0.6398473333333333
2257060201 -0.12870166666666666 -0.6425456666666666
2258546080 -0.12622 -0.6434126666666666
2260031959 -0.13147866666666666 -0.645803
2261517838 -0.13193266666666664 -0.6486536666666667
2263003717 -0.13189366666666663 -0.6481396666666666
2264489596 -0.1296466666666667 -0.6477116666666666
2265975475 -0.131134 -0.6481013333333333
2267461354 -0.13274566666666668 -0.6481053333333333
2268947233 -0.13223733333333332 -0.6462893333333334
2270433112 -0.13491166666666668 -0.6467859999999999
2271918991 -0.13300266666666666 -0.6471796666666666
2273404870 -0.12875899999999998 -0.6427999999999999
2274890749 -0.13444266666666665 -0.6366273333333333
2276376628 -0.13422299999999998 -0.6385246666666666
2277862507 -0.13404666666666665 -0.6366676666666666
2279348386 -0.13271033333333332 -0.6309196666666665
2280834265 -0.13821866666666666 -0.6342263333333333
2282320144 -0.13764733333333334 -0.6367896666666667
2283806023 -0.1371433333333333 -0.6412583333333333
2285291902 -0.13693066666666664 -0.6427
2286777781 -0.13519599999999998 -0.6440796666666666
2288263660 -0.135821 -0.6472506666666666
2289749539 -0.133851 -0.6493776666666666
2291235418 -0.13676266666666664 -0.6477716666666666
2292721297 -0.13734233333333332 -0.6524669999999999
2294207176 -0.13598866666666667 -0.6503626666666666
2295693055 -0.1344453333333333 -0.6505806666666667
2297178934 -0.13216833333333333 -0.650191
2298664813 -0.136625 -0.6477343333333333
2300150692 -0.13343433333333332 -0.6439936666666666
2301636571 -0.13389366666666663 -0.6461236666666667
2303122450 -0.13216299999999997 -0.6416896666666667
2304608329 -0.13115866666666667 -0.6431786666666667
2306094208 -0.130255 -0.637145
2307580087 -0.13134233333333334 -0.6342383333333333
2309065966 -0.13162566666666667 -0.6304696666666666
2310551845 -0.13185666666666668 -0.6279443333333333
2312037724 -0.1335903333333333 -0.6331873333333333
2313523603 -0.13192133333333333 -0.6341009999999999
2315009482 -0.13527766666666666 -0.6363146666666666
2316495361 -0.131517 -0.638296
2317981240 -0.13840199999999997 -0.6394703333333333
2319467119 -0.13827966666666663 -0.6397796666666666
2320952998 -0.136293 -0.6419103333333332
2322438877 -0.13599799999999998 -0.63867
2323924756 -0.139228 -0.644083
2325410635 -0.13357566666666665 -0.6427189999999999
2326896514 -0.135271 -0.6424629999999999
2328382393 -0.139567 -0.6448403333333332
2329868272 -0.13816066666666665 -0.6400333333333333
2331354151 -0.138162 -0.6379106666666666
2332840030 -0.13896866666666666 -0.6347303333333333
2334325909 -0.140927 -0.6345303333333333
2335811788 -0.13521366666666665 -0.6309006666666666
2337297667 -0.13782366666666668 -0.6252046666666666
2338783546 -0.14117799999999997 -0.6229376666666667
2340269425 -0.13855166666666666 -0.6206983333333334
2341755304 -0.14101633333333333 -0.6230359999999999
2343241183 -0.14321 -0.6259686666666666
2344727062 -0.13877833333333334 -0.6286133333333332
2346212941 -0.146143 -0.6317119999999999
2347698820 -0.14492433333333332 -0.6343376666666667
2349184699 -0.14394733333333332 -0.636517
2350670578 -0.14174199999999998 -0.6400049999999999
2352156457 -0.14863099999999999 -0.637532
2353642336 -0.14207966666666666 -0.6412593333333333
2355128215 -0.14420999999999998 -0.6431636666666667
2356614094 -0.145017 -0.6397473333333333
2358099973 -0.14747533333333332 -0.6389253333333333
2359585852 -0.1453523333333333 -0.640002
2361071731 -0.143485 -0.6409943333333334
2362557610 -0.145725 -0.6382566666666666
2364043489 -0.14430766666666667 -0.6354056666666665
2365529368 -0.144083 -0.6317216666666666
2367015247 -0.14402233333333334 -0.6266793333333333
2368501126 -0.140623 -0.6277926666666667
2369987005 -0.14188699999999999 -0.6241933333333333
2371472884 -0.14260299999999998 -0.6260786666666667
2372958763 -0.14324666666666666 -0.630752
2374444642 -0.14835133333333334 -0.6302110000000001
2375930521 -0.14815599999999998 -0.633732
2377416400 -0.15141433333333332 -0.6311813333333333
2378902279 -0.15082433333333334 -0.6393016666666667
2380388158 -0.15255233333333335 -0.6380393333333334
2381874037 -0.15455633333333332 -0.6414439999999999
2383359916 -0.152609 -0.639683
2384845795 -0.15257666666666664 -0.6420309999999999
2386331674 -0.15691066666666667 -0.6419233333333333
2387817553 -0.15503366666666665 -0.640244
2389303432 -0.158387 -0.6413106666666666
2390789311 -0.15948366666666666 -0.6366386666666666
2392275190 -0.157875 -0.6375633333333333
2393761069 -0.15781433333333333 -0.6356256666666666
2395246948 -0.157368 -0.6336853333333333
2396732827 -0.15698666666666666 -0.6289683333333334
2398218706 -0.15819266666666665 -0.62823
2399704585 -0.160061 -0.6253103333333333
2401190464 -0.155556 -0.6275913333333333
2402676343 -0.16233633333333333 -0.6318763333333333
2404162222 -0.16025699999999998 -0.635894
2405648101 -0.16010966666666665 -0.6331913333333333
2407133980 -0.16436499999999998 -0.6329443333333333
2408619859 -0.16113 -0.6407543333333333
2410105738 -0.1587873333333333 -0.642833
2411591617 -0.16180533333333333 -0.6403236666666666
2413077496 -0.16091233333333332 -0.6458699999999999
2414563375 -0.1602343333333333 -0.640135
2416049254 -0.1636953333333333 -0.6306489999999999
2417535133 -0.16282666666666662 -0.6385253333333334
2419021012 -0.15878499999999998 -0.6389353333333334
2420506891 -0.15898299999999999 -0.6391506666666666
2421992770 -0.15673466666666663 -0.6363176666666666
2423478649 -0.16331666666666667 -0.6306726666666665
2424964528 -0.1542533333333333 -0.6244856666666667
2426450407 -0.15773833333333334 -0.6253443333333333
2427936286 -0.15930466666666668 -0.6249323333333333
2429422165 -0.15689233333333333 -0.6214156666666666
2430908044 -0.15318933333333332 -0.6247619999999999
2432393923 -0.15854333333333331 -0.6257786666666667
2433879802 -0.15928433333333333 -0.6252943333333333
2435365681 -0.159447 -0.629405
2436851560 -0.15774899999999997 -0.6328239999999999
2438337439 -0.162034 -0.6326916666666667
2439823318 -0.163079 -0.630782
2441309197 -0.156404 -0.633777
2442795076 -0.15814966666666666 -0.635346
2444280955 -0.15591666666666665 -0.6332899999999999
2445766834 -0.15916933333333333 -0.6373776666666666
2447252713 -0.16002466666666665 -0.6339376666666667
2448738592 -0.15330733333333335 -0.6357473333333333
2450224471 -0.16108233333333333 -0.6275926666666667
2451710350 -0.16008499999999998 -0.6329996666666666
2453196229 -0.15817566666666666 -0.6324126666666666
2454682108 -0.162066 -0.6258763333333334
2456167987 -0.1595953333333333 -0.6259863333333333
2457653866 -0.1567223333333333 -0.623045
2459139745 -0.15839199999999998 -0.6183856666666665
2460625624 -0.16232899999999997 -0.6199523333333332
2462111503 -0.160281 -0.6197689999999999
2463597382 -0.15664499999999998 -0.6271720000000001
2465083261 -0.15822233333333335 -0.625583
2466569140 -0.15951566666666667 -0.6296563333333333
2468055019 -0.15709133333333336 -0.6341416666666666
2469540898 -0.16357233333333332 -0.6342203333333332
2471026777 -0.15651766666666667 -0.6396153333333332
2472512656 -0.16038766666666665 -0.632132
2473998535 -0.15895366666666666 -0.6346646666666667
2475484414 -0.153684 -0.6381349999999999
2476970293 -0.14962166666666665 -0.635767
2478456172 -0.15370866666666666 -0.6351323333333334
2479942051 -0.15528366666666665 -0.630536
2481427930 -0.14828199999999997 -0.6392266666666666
2482913809 -0.15249133333333334 -0.6316006666666666
2484399688 -0.15363933333333335 -0.6264313333333333
2485885567 -0.154811 -0.6236033333333333
2487371446 -0.15352699999999997 -0.6230006666666666
2488857325 -0.14982566666666663 -0.6235573333333333
2490343204 -0.15428399999999998 -0.6216296666666667
2491829083 -0.15322566666666665 -0.622064
2493314962 -0.152248 -0.6264586666666666
2494800841 -0.15273699999999998 -0.6283586666666666
2496286720 -0.15330566666666665 -0.6268803333333334
2497772599 -0.147037 -0.6306286666666666
2499258478 -0.14331533333333335 -0.6324186666666667
2500744357 -0.14560233333333333 -0.6360233333333333
2502230236 -0.14622633333333335 -0.6322243333333333
2503716115 -0.14101 -0.6337409999999999
2505201994 -0.1429433333333333 -0.6368706666666666
2506687873 -0.14736233333333332 -0.6301616666666666
2508173752 -0.14074299999999998 -0.631942
2509659631 -0.14164266666666664 -0.6301709999999999
2511145510 -0.13777266666666665 -0.631045
2512631389 -0.137121 -0.6298269999999999
2514117268 -0.14157599999999998 -0.625413
2515603147 -0.13466566666666663 -0.620748
2517089026 -0.13675833333333332 -0.6164493333333333
2518574905 -0.14013333333333333 -0.6135263333333333
2520060784 -0.14004799999999998 -0.6092813333333332
2521546663 -0.1424 -0.6110373333333332
2523032542 -0.14403466666666667 -0.6166363333333333
2524518421 -0.14166099999999998 -0.61922
2526004300 -0.14073399999999997 -0.6204776666666666
2527490179 -0.1367253333333333 -0.6257036666666667
2528976058 -0.14089433333333334 -0.6235126666666666
2530461937 -0.14310033333333333 -0.626778
2531947816 -0.14455666666666667 -0.6254146666666667
2533433695 -0.14638033333333333 -0.6294026666666667
2534919574 -0.14799133333333334 -0.6285743333333333
2536405453 -0.14991966666666667 -0.6276263333333333
2537891332 -0.14986 -0.6264496666666666
2539377211 -0.15668866666666664 -0.6263776666666666
2540863090 -0.15243933333333332 -0.6236413333333333
2542348969 -0.1467093333333333 -0.627204
2543834848 -0.15122799999999997 -0.6197353333333333
2545320727 -0.15141666666666667 -0.6187969999999999
2546806606 -0.151615 -0.6160096666666666
2548292485 -0.15347666666666665 -0.615335
2549778364 -0.15265 -0.6136216666666666
2551264243 -0.15646266666666667 -0.6161853333333334
2552750122 -0.156142 -0.6183133333333333
2554236001 -0.159049 -0.6228696666666667
2555721880 -0.16110433333333332 -0.6194523333333333
2557207759 -0.16414166666666666 -0.6244726666666667
2558693638 -0.16406500000000002 -0.6289263333333333
2560179517 -0.166304 -0.6284296666666667
2561665396 -0.1619533333333333 -0.632101
2563151275 -0.160956 -0.630574
2564637154 -0.16650366666666666 -0.6320429999999999
2566123033 -0.1550953333333333 -0.6332503333333334
2567608912 -0.1661463333333333 -0.6303513333333333
2569094791 -0.16336333333333333 -0.633311
2570580670 -0.16277599999999998 -0.6299193333333333
2572066549 -0.16208233333333333 -0.62548
2573552428 -0.1655623333333333 -0.6244956666666666
2575038307 -0.168319 -0.6218066666666666
2576524186 -0.172145 -0.6204813333333333
2578010065 -0.16518699999999997 -0.6175619999999999
2579495944 -0.17217566666666664 -0.6153386666666667
2580981823 -0.17507466666666666 -0.620905
2582467702 -0.178483 -0.6178713333333332
2583953581 -0.1715256666666667 -0.6244643333333333
2585439460 -0.17102066666666665 -0.6251819999999999
2586925339 -0.17129666666666665 -0.6287556666666667
2588411218 -0.17089166666666666 -0.6309733333333334
2589897097 -0.17497733333333332 -0.6301583333333334
2591382976 -0.17209999999999998 -0.6340849999999999
2592868855 -0.17241266666666666 -0.6315346666666666
2594354734 -0.18436933333333333 -0.6321973333333333
2595840613 -0.16968033333333332 -0.635026
2597326492 -0.17535366666666666 -0.632506
2598812371 -0.17020533333333332 -0.6313146666666667
2600298250 -0.17881366666666665 -0.6318913333333332
2601784129 -0.1731913333333333 -0.629548
2603270008 -0.17647466666666667 -0.6259533333333333
2604755887 -0.16989566666666667 -0.62201
2606241766 -0.17418099999999997 -0.6220103333333333
2607727645 -0.17187 -0.6231176666666666
2609213524 -0.17488933333333329 -0.6196089999999999
2610699403 -0.18007466666666666 -0.617212
2612185282 -0.17298133333333332 -0.6190416666666666
2613671161 -0.16869199999999998 -0.6237969999999999
2615157040 -0.18055233333333331 -0.622816
2616642919 -0.169622 -0.6239336666666666
2618128798 -0.18112866666666663 -0.630674
2619614677 -0.18153566666666668 -0.6299616666666666
2621100556 -0.16516166666666665 -0.6238733333333333
2622586435 -0.16765433333333335 -0.6281273333333333
2624072314 -0.17660566666666666 -0.6272539999999999
2625558193 -0.17430866666666667 -0.6285353333333333
2627044072 -0.17997066666666664 -0.6274623333333333
2628529951 -0.17707699999999998 -0.6279406666666667
2630015830 -0.1757083333333333 -0.6212693333333333
2631501709 -0.18084033333333333 -0.6185053333333332
2632987588 -0.18111933333333333 -0.6209813333333334
2634473467 -0.17098799999999997 -0.6163349999999999
2635959346 -0.18210466666666664 -0.6093273333333333
2637445225 -0.17506566666666667 -0.6097793333333332
2638931104 -0.17943466666666666 -0.602275
2640416983 -0.17202366666666663 -0.6045579999999999
2641902862 -0.18739566666666665 -0.604368
2643388741 -0.178025 -0.6125573333333333
2644874620 -0.18813966666666665 -0.6125913333333333
2646360499 -0.18087866666666666 -0.6187236666666666
2647846378 -0.187326 -0.6157003333333333
2649332257 -0.18149333333333334 -0.6240663333333333
2650818136 -0.19375566666666666 -0.623131
2652304015 -0.18719633333333333 -0.6237753333333332
2653789894 -0.1896933333333333 -0.623985
2655275773 -0.18502866666666665 -0.6276976666666667
2656761652 -0.188666 -0.6216323333333333
2658247531 -0.18431966666666666 -0.6264649999999999
2659733410 -0.19084266666666666 -0.625432
2661219289 -0.178676 -0.623586
2662705168 -0.189024 -0.6206996666666666
2664191047 -0.181441 -0.6221256666666666
2665676926 -0.19091466666666662 -0.618892
2667162805 -0.18230466666666667 -0.6186083333333332
2668648684 -0.1875803333333333 -0.6135783333333333
2670134563 -0.1847186666666667 -0.6133446666666666
2671620442 -0.18779766666666667 -0.6133723333333332
2673106321 -0.18108933333333335 -0.6200343333333334
2674592200 -0.18999500000000002 -0.6211733333333334
2676078079 -0.17987699999999998 -0.6278406666666666
2677563958 -0.1877503333333333 -0.6258666666666666
2679049837 -0.18624833333333335 -0.6296120000000001
2680535716 -0.18637133333333333 -0.6298516666666667
2682021595 -0.181767 -0.6282083333333333
2683507474 -0.1825693333333333 -0.634362
2684993353 -0.18309933333333334 -0.6300406666666666
2686479232 -0.18078066666666665 -0.6320376666666667
2687965111 -0.18583333333333332 -0.6361743333333333
2689450990 -0.17915899999999998 -0.6312116666666666
2690936869 -0.18043299999999998 -0.630495
2692422748 -0.17753533333333332 -0.6283696666666666
2693908627 -0.180151 -0.6232453333333333
2695394506 -0.17566533333333334 -0.6210456666666666
2696880385 -0.17437333333333332 -0.6196576666666667
2698366264 -0.17765866666666666 -0.6165123333333333
2699852143 -0.17548599999999998 -0.612325
2701338022 -0.17715566666666666 -0.6165906666666666
2702823901 -0.17562933333333333 -0.619567
2704309780 -0.17795166666666665 -0.621012
2705795659 -0.17681999999999998 -0.625541
2707281538 -0.17543933333333334 -0.625323
2708767417 -0.17322033333333334 -0.6268096666666667
2710253296 -0.17369300000000001 -0.6253223333333333
2711739175 -0.17548333333333332 -0.6278956666666666
2713225054 -0.17526766666666665 -0.627808
2714710933 -0.17833833333333332 -0.6278883333333334
2716196812 -0.17537366666666668 -0.6259696666666665
2717682691 -0.17705433333333334 -0.6303633333333334
2719168570 -0.17574099999999998 -0.6262976666666666
2720654449 -0.17576899999999998 -0.625423
2722140328 -0.17554366666666665 -0.6240356666666667
2723626207 -0.172334 -0.6224686666666666
2725112086 -0.17644700000000002 -0.6200256666666666
2726597965 -0.17600233333333332 -0.6173309999999999
2728083844 -0.1766753333333333 -0.6126526666666666
2729569723 -0.175037 -0.6115219999999999
2731055602 -0.17370699999999997 -0.6107480000000001
2732541481 -0.1778473333333333 -0.6156576666666667
2734027360 -0.1785233333333333 -0.616552
2735513239 -0.18224766666666664 -0.6178606666666666
2736999118 -0.182315 -0.6179956666666666
2738484997 -0.180584 -0.6215446666666666
2739970876 -0.17945466666666665 -0.6233873333333333
2741456755 -0.182071 -0.6234036666666666
2742942634 -0.18201266666666666 -0.625575
2744428513 -0.18372066666666664 -0.624074
2745914392 -0.18494133333333332 -0.6283323333333334
2747400271 -0.18336766666666665 -0.6280773333333333
2748886150 -0.18429833333333334 -0.6246093333333333
2750372029 -0.18360266666666664 -0.6261023333333333
2751857908 -0.1833016666666667 -0.6213609999999999
2753343787 -0.18484899999999999 -0.6214953333333334
2754829666 -0.18578166666666665 -0.6192363333333334
2756315545 -0.18580599999999997 -0.6159246666666666
2757801424 -0.18573666666666666 -0.61832
2759287303 -0.18393366666666666 -0.6142603333333333
2760773182 -0.17996766666666666 -0.6146053333333332
2762259061 -0.18690600000000002 -0.6162126666666667
2763744940 -0.19187966666666667 -0.6193426666666666
2765230819 -0.19034599999999996 -0.6194503333333333
2766716698 -0.19379033333333331 -0.6244016666666666
2768202577 -0.19042566666666666 -0.6246446666666667
2769688456 -0.19017566666666666 -0.6248573333333334
2771174335 -0.20253100000000002 -0.6289499999999999
2772660214 -0.1897623333333333 -0.6294506666666666
2774146093 -0.19276200000000002 -0.6303106666666666
2775631972 -0.18933399999999995 -0.6299056666666667
2777117851 -0.185742 -0.6279133333333333
2778603730 -0.18746999999999997 -0.6255046666666666
2780089609 -0.18838466666666664 -0.6218933333333334
2781575488 -0.18875133333333333 -0.6229366666666666
2783061367 -0.19082633333333332 -0.6233526666666667
2784547246 -0.18723633333333334 -0.6176003333333333
2786033125 -0.18839833333333333 -0.6184423333333333
2787519004 -0.19173699999999996 -0.6130893333333334
2789004883 -0.186437 -0.6108086666666666
2790490762 -0.19006666666666663 -0.6121186666666666
2791976641 -0.18912366666666663 -0.6110966666666666
2793462520 -0.192459 -0.6134376666666667
2794948399 -0.191486 -0.6181473333333334
2796434278 -0.190448 -0.617701
2797920157 -0.18711066666666668 -0.6215056666666666
2799406036 -0.18823633333333334 -0.6216536666666667
2800891915 -0.19002533333333332 -0.613551
2802377794 -0.1887323333333333 -0.6221099999999999
2803863673 -0.188347 -0.6181566666666667
2805349552 -0.18763066666666664 -0.6191679999999999
2806835431 -0.186988 -0.6223906666666666
2808321310 -0.18629133333333336 -0.6113553333333333
2809807189 -0.18584466666666666 -0.616873
2811293068 -0.18788166666666664 -0.6113253333333333
2812778947 -0.18702066666666664 -0.6034823333333332
2814264826 -0.1875093333333333 -0.6003539999999999
2815750705 -0.1875573333333333 -0.6020329999999999
2817236584 -0.189961 -0.5993776666666666
2818722463 -0.18951066666666666 -0.5987453333333332
2820208342 -0.19022033333333332 -0.5962436666666666
2821694221 -0.19102866666666665 -0.6020653333333333
2823180100 -0.18989466666666666 -0.6098873333333333
2824665979 -0.18834499999999998 -0.612667
2826151858 -0.18967133333333333 -0.610102
2827637737 -0.19620066666666663 -0.6124799999999999
2829123616 -0.19025533333333333 -0.6192383333333332
2830609495 -0.188813 -0.6206656666666666
2832095374 -0.186615 -0.619315
2833581253 -0.18915366666666666 -0.6179023333333333
2835067132 -0.18650133333333332 -0.6222486666666667
2836553011 -0.18810766666666667 -0.6181343333333333
2838038890 -0.18622466666666665 -0.6221956666666666
2839524769 -0.17678766666666662 -0.6252903333333333
2841010648 -0.18291833333333332 -0.6193
2842496527 -0.17883866666666665 -0.6186953333333333
2843982406 -0.18438566666666667 -0.6103226666666666
2845468285 -0.17509566666666668 -0.6112409999999999
2846954164 -0.18115499999999998 -0.6060856666666666
2848440043 -0.18413633333333335 -0.6024806666666666
2849925922 -0.18148633333333333 -0.6054673333333334
2851411801 -0.18323066666666668 -0.6047046666666667
2852897680 -0.1849243333333333 -0.6044373333333333
2854383559 -0.179541 -0.613359
2855869438 -0.18544833333333335 -0.6079983333333333
2857355317 -0.18893 -0.6131099999999999
2858841196 -0.18747766666666665 -0.616333
2860327075 -0.18542466666666663 -0.6134346666666667
2861812954 -0.18446433333333334 -0.6100209999999999
2863298833 -0.19236233333333333 -0.6104806666666667
2864784712 -0.19127933333333336 -0.6110213333333333
2866270591 -0.187861 -0.610601
2867756470 -0.2025683333333333 -0.6497673333333333
2869242349 -0.19058266666666668 -0.6021286666666666
2870728228 -0.18789166666666662 -0.6058399999999999
2872214107 -0.19814066666666666 -0.6021163333333333
2873699986 -0.1933483333333333 -0.6030923333333332
2875185865 -0.19047999999999998 -0.6016170000000001
2876671744 -0.19251733333333332 -0.596704
2878157623 -0.191997 -0.5913983333333332
2879643502 -0.19407933333333333 -0.5884543333333333
2881129381 -0.19684733333333332 -0.5905989999999999
2882615260 -0.194021 -0.5944856666666667
2884101139 -0.195819 -0.5962153333333333
2885587018 -0.201449 -0.5978013333333333
2887072897 -0.1979943333333333 -0.5987456666666666
2888558776 -0.20030333333333333 -0.6011943333333332
2890044655 -0.19961866666666664 -0.601228
2891530534 -0.20545866666666668 -0.6045316666666666
2893016413 -0.20133633333333334 -0.6095966666666667
2894502292 -0.20282566666666668 -0.610746
2895988171 -0.20155499999999998 -0.6116853333333333
2897474050 -0.20457999999999998 -0.6089089999999999
2898959929 -0.20200933333333332 -0.6092026666666667
2900445808 -0.20114533333333331 -0.607706
2901931687 -0.193827 -0.6101509999999999
2903417566 -0.20433300000000001 -0.607136
2904903445 -0.191939 -0.604868
2906389324 -0.19447966666666666 -0.6048886666666666
2907875203 -0.19910366666666662 -0.601196
2909361082 -0.19895366666666664 -0.5972493333333333
2910846961 -0.19707166666666667 -0.5984766666666667
2912332840 -0.20281166666666667 -0.601679
2913818719 -0.21006566666666665 -0.6017173333333332
2915304598 -0.201137 -0.6035386666666667
2916790477 -0.20864 -0.606144
2918276356 -0.20270166666666667 -0.6104993333333333
2919762235 -0.20327366666666669 -0.6134373333333333
2921248114 -0.2300513333333333 -0.5785176666666666
2922733993 -0.21035433333333334 -0.6138539999999999
2924219872 -0.20607066666666665 -0.6176696666666667
2925705751 -0.21230666666666667 -0.614959
2927191630 -0.204919 -0.6151386666666667
2928677509 -0.2126573333333333 -0.6164743333333333
2930163388 -0.20688866666666664 -0.6136843333333333
2931649267 -0.20822466666666664 -0.6125766666666667
2933135146 -0.20759399999999997 -0.6096893333333333
2934621025 -0.20807766666666666 -0.6094936666666666
2936106904 -0.20767633333333335 -0.6075956666666666
2937592783 -0.20495133333333332 -0.607154
2939078662 -0.2106 -0.604975
2940564541 -0.20485066666666665 -0.6034703333333333
2942050420 -0.20503233333333332 -0.6010733333333333
2943536299 -0.212981 -0.6054713333333333
2945022178 -0.21115733333333334 -0.6056263333333334
2946508057 -0.206764 -0.6078366666666667
2947993936 -0.204849 -0.608385
2949479815 -0.21518766666666667 -0.6058203333333333
2950965694 -0.21650399999999997 -0.6130406666666667
2952451573 -0.21204766666666666 -0.6095303333333333
2953937452 -0.212586 -0.6097713333333332
2955423331 -0.21356133333333333 -0.6095343333333332
2956909210 -0.212279 -0.6103190000000001
2958395089 -0.207015 -0.6069473333333333
2959880968 -0.210986 -0.6097033333333333
2961366847 -0.21201433333333333 -0.6030313333333333
2962852726 -0.20542600000000003 -0.598807
2964338605 -0.20525266666666667 -0.5981566666666667
2965824484 -0.20553366666666664 -0.5922013333333334
2967310363 -0.20393166666666665 -0.5876803333333332
2968796242 -0.2053263333333333 -0.5845033333333333
2970282121 -0.2056073333333333 -0.5834386666666667
2971768000 -0.19960066666666668 -0.5865163333333332
2973253879 -0.211876 -0.5946509999999999
2974739758 -0.2125523333333333 -0.5903109999999999
2976225637 -0.21310466666666666 -0.596908
2977711516 -0.22369799999999998 -0.5997629999999999
2979197395 -0.21819099999999997 -0.5989019999999999
2980683274 -0.22098399999999999 -0.6029059999999999
2982169153 -0.21526599999999999 -0.6016173333333333
2983655032 -0.2194573333333333 -0.602436
2985140911 -0.22144366666666665 -0.6061539999999999
2986626790 -0.20882499999999998 -0.604452
2988112669 -0.2149353333333333 -0.6044203333333333
2989598548 -0.21544566666666665 -0.6034689999999999
2991084427 -0.214899 -0.6077513333333333
2992570306 -0.21548799999999996 -0.599864
2994056185 -0.216729 -0.5990476666666666
2995542064 -0.21282766666666666 -0.6000606666666666
2997027943 -0.21176666666666666 -0.599197
2998513822 -0.20773066666666665 -0.5964686666666666
2999999701 -0.20967866666666668 -0.5955246666666666
