# HZ S RI R 50
10000 0.44708066666666657 0.014825333333333333
1495879 -0.688863 1.1874413333333331
2981758 -0.08569566666666667 0.5517093333333333
4467637 -0.0029213333333333335 0.308249
5953516 0.022038000000000002 0.20463333333333333
7439395 0.027645666666666666 0.15022999999999997
8925274 0.14754799999999996 -0.10991000000000001
10411153 0.11246033333333333 -0.09002166666666667
11897032 0.08837066666666667 -0.07712733333333333
13382911 0.071238 -0.06830933333333333
14868790 0.05805766666666666 -0.062089000000000005
16354669 0.048153333333333326 -0.05656666666666666
17840548 0.040541333333333325 -0.052565
19326427 0.03401766666666666 -0.049346
20812306 0.028777999999999998 -0.046540000000000005
22298185 0.024345333333333333 -0.04422566666666666
23784064 0.020749666666666666 -0.04215266666666666
25269943 0.017562666666666664 -0.04036533333333333
26755822 0.014788999999999998 -0.03884533333333333
28241701 0.012291999999999999 -0.037426999999999995
29727580 0.010179666666666667 -0.03619
31213459 0.009701 -0.037107333333333326
32699338 0.009491 -0.038629000000000004
34185217 0.009285666666666666 -0.040188666666666664
35671096 0.008707 -0.041905000000000005
37156975 0.007719666666666666 -0.044009
38642854 0.0065506666666666664 -0.04623633333333333
40128733 0.0048389999999999996 -0.04877933333333333
41614612 0.0026 -0.051477
43100491 -0.0014513333333333331 -0.054905999999999996
44586370 -0.006461 -0.05896033333333334
46072249 -0.014976 -0.06425866666666666
47558128 -0.02641833333333333 -0.071472
49044007 -0.045213666666666666 -0.08312899999999998
50529886 -0.077966 -0.105458
52015765 -0.1485773333333333 -0.154889
53501644 -0.281921 -0.3547396666666667
54987523 0.24678166666666668 -1.0241373333333332
56473402 0.607896 -0.28522733333333333
57959281 0.45934333333333327 -0.11521899999999999
59445160 0.40981066666666666 -0.05635533333333333
60931039 0.4050993333333333 -0.038979
62416918 0.40611633333333336 -0.042981
63902797 0.4071889999999999 -0.04684333333333333
65388676 0.40812633333333326 -0.050297666666666664
66874555 0.4100536666666666 -0.04884899999999999
68360434 0.3990626666666666 -0.08656466666666665
69846313 0.412502 -0.041273333333333335
71332192 0.4140946666666666 -0.03985166666666666
72818071 0.41137 -0.057157
74303950 0.41145799999999993 -0.05403933333333333
75789829 0.41708666666666666 -0.02965
77275708 0.416701 -0.032488666666666666
78761587 0.416747 -0.031319999999999994
80247466 0.4065006666666666 -0.07596466666666665
81733345 0.40959366666666663 -0.057790666666666664
83219224 0.408053 -0.06247799999999999
84705103 0.404652 -0.07261233333333333
86190982 0.4132126666666667 -0.026482666666666668
87676861 0.40162466666666663 -0.07132766666666665
89162740 0.4025976666666667 -0.061986333333333324
90648619 0.4013606666666667 -0.06909799999999999
92134498 0.402346 -0.06876933333333334
93620377 0.40696866666666665 -0.057804
95106256 0.405743 -0.06803066666666666
96592135 0.4077983333333333 -0.06884566666666667
98078014 0.4102273333333333 -0.06696166666666666
99563893 0.4105216666666667 -0.06663
101049772 0.411469 -0.072071
102535651 0.4108033333333333 -0.07298066666666667
104021530 0.411007 -0.07339433333333333
105507409 0.4093643333333333 -0.07487966666666665
106993288 0.41061766666666666 -0.07531666666666666
108479167 0.4102536666666666 -0.076346
109965046 0.4090113333333333 -0.077497
111450925 0.40845266666666663 -0.07811233333333331
112936804 0.40744566666666665 -0.07876166666666666
114422683 0.405203 -0.07809833333333333
115908562 0.40459533333333325 -0.07993833333333333
117394441 0.40263866666666664 -0.080019
118880320 0.40083233333333335 -0.08117966666666665
120366199 0.40011099999999994 -0.081923
121852078 0.4023 -0.08272566666666666
123337957 0.4034283333333333 -0.08493433333333333
124823836 0.40621766666666664 -0.08657233333333332
126309715 0.4066856666666666 -0.087287
127795594 0.4081156666666666 -0.08821399999999999
129281473 0.40915866666666667 -0.08972433333333332
130767352 0.4101946666666666 -0.09089899999999998
132253231 0.4112686666666666 -0.09158633333333333
133739110 0.411126 -0.09282666666666664
135224989 0.40512266666666663 -0.09497
136710868 0.4054846666666667 -0.095559
138196747 0.40507799999999994 -0.095979
139682626 0.4042473333333333 -0.09686766666666666
141168505 0.4034776666666667 -0.09752333333333332
142654384 0.40315966666666664 -0.09795899999999999
144140263 0.40235933333333335 -0.098728
145626142 0.400903 -0.09883966666666666
147112021 0.39952966666666667 -0.09926133333333334
148597900 0.3980056666666667 -0.10006233333333332
150083779 0.39589799999999997 -0.10069933333333334
151569658 0.3973953333333333 -0.10256766666666664
153055537 0.3995483333333333 -0.10409933333333332
154541416 0.4003253333333333 -0.105562
156027295 0.40136 -0.10674433333333333
157513174 0.4020303333333333 -0.10826033333333332
158999053 0.40328299999999995 -0.10914433333333332
160484932 0.40360633333333334 -0.10982166666666666
161970811 0.40407666666666664 -0.11079366666666668
163456690 0.40419866666666665 -0.11151266666666666
164942569 0.404248 -0.11273533333333333
166428448 0.404107 -0.11363266666666667
167914327 0.4034513333333333 -0.11418533333333332
169400206 0.4027476666666666 -0.11537
170886085 0.3996073333333333 -0.119887
172371964 0.39850699999999994 -0.12088299999999999
173857843 0.39953700000000003 -0.11634666666666667
175343722 0.39766999999999997 -0.11789233333333334
176829601 0.39672633333333335 -0.11837066666666665
178315480 0.394464 -0.11901066666666667
179801359 0.39227233333333333 -0.11972833333333333
181287238 0.39314566666666667 -0.121174
182773117 0.39468166666666665 -0.12294066666666666
184258996 0.3963616666666666 -0.12447533333333333
185744875 0.3978953333333333 -0.125191
187230754 0.3984723333333333 -0.12651799999999996
188716633 0.3995593333333334 -0.12751133333333334
190202512 0.3998803333333334 -0.12905499999999998
191688391 0.4007603333333333 -0.129645
193174270 0.40037866666666666 -0.13095066666666666
194660149 0.40088866666666667 -0.13086599999999998
196146028 0.40007766666666666 -0.131709
197631907 0.39971633333333334 -0.13285466666666668
199117786 0.3990633333333333 -0.13284400000000002
200603665 0.39841499999999996 -0.13425466666666666
202089544 0.39682966666666664 -0.13469899999999999
203575423 0.3953563333333333 -0.13529533333333332
205061302 0.394192 -0.13563833333333333
206547181 0.3921783333333333 -0.135895
208033060 0.390281 -0.13707133333333332
209518939 0.38811799999999996 -0.13824999999999998
211004818 0.38833999999999996 -0.13898133333333335
212490697 0.3903993333333333 -0.14110966666666666
213976576 0.39114933333333335 -0.14264499999999997
215462455 0.3927183333333333 -0.14357799999999998
216948334 0.393397 -0.14478799999999997
218434213 0.3944703333333333 -0.14641866666666664
219920092 0.39521799999999996 -0.14756633333333333
221405971 0.3951633333333333 -0.14804033333333333
222891850 0.3946143333333333 -0.1513193333333333
224377729 0.3950606666666666 -0.15274999999999997
225863608 0.395045 -0.15060366666666664
227349487 0.39475099999999996 -0.15191633333333332
228835366 0.3941646666666666 -0.151717
230321245 0.39396 -0.15334033333333333
231807124 0.39245633333333335 -0.1536163333333333
233293003 0.39077966666666664 -0.15444366666666665
234778882 0.38953399999999994 -0.15455833333333333
236264761 0.38759533333333335 -0.1552123333333333
237750640 0.38577533333333336 -0.15611133333333332
239236519 0.3834639999999999 -0.1566
240722398 0.3829956666666666 -0.1578463333333333
242208277 0.3848019999999999 -0.15955466666666665
243694156 0.38603 -0.1611043333333333
245180035 0.3877383333333333 -0.16259399999999996
246665914 0.3885533333333333 -0.16410399999999997
248151793 0.389384 -0.1656543333333333
249637672 0.38996400000000003 -0.16685966666666666
251123551 0.3911536666666666 -0.16811399999999999
252609430 0.3907126666666666 -0.169152
254095309 0.39066199999999995 -0.17007866666666666
255581188 0.39070099999999996 -0.17053966666666664
257067067 0.39086333333333334 -0.17143466666666668
258552946 0.3892943333333333 -0.17172466666666666
260038825 0.38859033333333326 -0.17247266666666664
261524704 0.3874853333333333 -0.17327133333333333
263010583 0.38614333333333334 -0.17343699999999998
264496462 0.3848306666666666 -0.17400966666666665
265982341 0.3828856666666667 -0.174974
267468220 0.3810673333333333 -0.17510366666666666
268954099 0.378999 -0.17553266666666667
270439978 0.37789966666666663 -0.17593266666666665
271925857 0.37906966666666664 -0.17807233333333333
273411736 0.380549 -0.17991933333333332
274897615 0.381745 -0.18205866666666665
276383494 0.38312833333333335 -0.18334433333333333
277869373 0.3836926666666667 -0.18441066666666664
279355252 0.3846426666666667 -0.18646200000000002
280841131 0.38475366666666666 -0.18695666666666666
282327010 0.38577833333333333 -0.188137
283812889 0.38521833333333333 -0.188688
285298768 0.38532599999999995 -0.18911199999999997
286784647 0.38491533333333333 -0.189673
288270526 0.3840233333333334 -0.1907186666666667
289756405 0.3832486666666666 -0.19114733333333334
291242284 0.382567 -0.19102
292728163 0.38099099999999997 -0.191958
294214042 0.3795773333333333 -0.19190966666666665
295699921 0.3777543333333333 -0.19239366666666669
297185800 0.3755726666666666 -0.191903
298671679 0.37352233333333335 -0.19268466666666667
300157558 0.37096399999999996 -0.19309899999999997
301643437 0.3726466666666666 -0.19551466666666667
303129316 0.37383333333333335 -0.196899
304615195 0.37541633333333335 -0.199028
306101074 0.37611533333333336 -0.20001333333333332
307586953 0.37683 -0.2016983333333333
309072832 0.37783066666666665 -0.20283566666666666
310558711 0.37886766666666666 -0.20468200000000003
312044590 0.3784523333333333 -0.204645
313530469 0.37906399999999996 -0.2059703333333333
315016348 0.378741 -0.20633766666666667
316502227 0.37836933333333334 -0.20659699999999998
317988106 0.3620663333333334 -0.197472
319473985 0.377619 -0.20783799999999997
320959864 0.37843766666666667 -0.2059953333333333
322445743 0.37642699999999996 -0.20596166666666665
323931622 0.37525433333333336 -0.20623099999999997
325417501 0.3738896666666667 -0.20568633333333333
326903380 0.37231 -0.20592266666666664
328389259 0.3696446666666667 -0.20588666666666666
329875138 0.36713566666666664 -0.20643666666666666
331361017 0.36839 -0.2075643333333333
332846896 0.36173700000000003 -0.21545799999999998
334332775 0.3710336666666667 -0.21266166666666667
335818654 0.37207466666666666 -0.2145423333333333
337304533 0.37246366666666664 -0.2153223333333333
338790412 0.37362199999999995 -0.21775499999999998
340276291 0.3734896666666666 -0.21882233333333334
341762170 0.373707 -0.22015766666666664
343248049 0.3742143333333333 -0.22078233333333333
344733928 0.37271499999999996 -0.22393733333333332
346219807 0.3721266666666666 -0.22442133333333336
347705686 0.37159733333333334 -0.224328
349191565 0.37112033333333333 -0.22539233333333333
350677444 0.369776 -0.22643766666666668
352163323 0.3680813333333333 -0.22659999999999997
353649202 0.3686103333333333 -0.226984
355135081 0.36622399999999994 -0.22682033333333332
356620960 0.36403366666666664 -0.227634
358106839 0.36278599999999994 -0.22679933333333335
359592718 0.36044566666666666 -0.227597
361078597 0.360323 -0.22824999999999998
362564476 0.36092099999999994 -0.231463
364050355 0.36206699999999997 -0.23293266666666668
365536234 0.36305066666666663 -0.235128
367022113 0.36396266666666666 -0.236536
368507992 0.3640623333333333 -0.237767
369993871 0.36466966666666667 -0.2390693333333333
371479750 0.385654 -0.24189266666666667
372965629 0.36484033333333327 -0.24124799999999996
374451508 0.36483933333333335 -0.24253833333333333
375937387 0.36447966666666665 -0.24299733333333334
377423266 0.36463199999999996 -0.24314933333333333
378909145 0.3633113333333333 -0.24405966666666667
380395024 0.36214766666666665 -0.24402233333333334
381880903 0.3607003333333333 -0.245116
383366782 0.35958999999999997 -0.24474366666666664
384852661 0.358387 -0.2446763333333333
386338540 0.3565223333333333 -0.245297
387824419 0.3544493333333333 -0.24500966666666663
389310298 0.3525396666666667 -0.24425166666666667
390796177 0.3518633333333333 -0.24549066666666666
392282056 0.353084 -0.24793099999999996
393767935 0.35381466666666667 -0.25045033333333333
395253814 0.3542636666666666 -0.2520266666666666
396739693 0.35552033333333327 -0.25307066666666667
398225572 0.35651433333333327 -0.25475666666666663
399711451 0.3567956666666666 -0.25647566666666666
401197330 0.356189 -0.258281
402683209 0.35725166666666663 -0.2588413333333333
404169088 0.35650866666666664 -0.259552
405654967 0.3571593333333333 -0.259723
407140846 0.3569793333333333 -0.26039866666666667
408626725 0.35646633333333333 -0.26060833333333333
410112604 0.3548816666666666 -0.2611186666666666
411598483 0.3545459999999999 -0.261601
413084362 0.353278 -0.26167066666666666
414570241 0.3509853333333333 -0.261712
416056120 0.34968399999999994 -0.26145399999999996
417541999 0.347516 -0.26175366666666666
419027878 0.346271 -0.26129800000000003
420513757 0.3447476666666667 -0.26205733333333325
421999636 0.34595 -0.26430833333333337
423485515 0.347349 -0.265648
424971394 0.3474003333333333 -0.26750166666666664
426457273 0.3484986666666666 -0.26943999999999996
427943152 0.3491066666666667 -0.27136466666666664
429429031 0.35007733333333335 -0.27208433333333326
430914910 0.349722 -0.27352566666666667
432400789 0.35017366666666666 -0.2736013333333333
433886668 0.34968466666666664 -0.2744536666666666
435372547 0.349127 -0.2751713333333333
436858426 0.34874633333333327 -0.27571199999999996
438344305 0.34826333333333326 -0.2761643333333333
439830184 0.3474933333333333 -0.2762616666666667
441316063 0.3457596666666667 -0.27606033333333335
442801942 0.345097 -0.275918
444287821 0.34391333333333335 -0.2763696666666667
445773700 0.34199199999999996 -0.27623333333333333
447259579 0.34029033333333325 -0.276149
448745458 0.33877766666666664 -0.2763683333333333
450231337 0.3360803333333333 -0.2752576666666667
451717216 0.3379563333333333 -0.2781126666666667
453203095 0.338147 -0.280514
454688974 0.3385 -0.2821193333333333
456174853 0.33921566666666664 -0.28396266666666664
457660732 0.33921633333333334 -0.285211
459146611 0.3394113333333333 -0.2870443333333333
460632490 0.34017566666666665 -0.2874286666666666
462118369 0.3401866666666667 -0.2897163333333333
463604248 0.34058900000000003 -0.2887633333333333
465090127 0.340153 -0.29048566666666664
466576006 0.339678 -0.2915756666666666
468061885 0.339191 -0.29178
469547764 0.3384116666666666 -0.29221199999999997
471033643 0.33726799999999996 -0.29241933333333325
472519522 0.3357443333333333 -0.292222
474005401 0.3340346666666667 -0.29259766666666664
475491280 0.33385899999999996 -0.291844
476977159 0.33192166666666667 -0.29170499999999994
478463038 0.3288353333333333 -0.29151466666666664
479948917 0.3265243333333333 -0.29140299999999997
481434796 0.32800066666666666 -0.293207
482920675 0.32907966666666666 -0.29528333333333334
484406554 0.33031866666666665 -0.29724966666666663
485892433 0.33070866666666665 -0.2997893333333333
487378312 0.33084166666666665 -0.30140633333333333
488864191 0.331651 -0.30233899999999997
490350070 0.33182333333333336 -0.3039763333333333
491835949 0.33152933333333334 -0.30510899999999996
493321828 0.33200299999999994 -0.30586266666666667
494807707 0.3315706666666667 -0.3064363333333333
496293586 0.33130299999999996 -0.306772
497779465 0.330905 -0.30793733333333334
499265344 0.3301533333333333 -0.3086486666666666
500751223 0.32896333333333333 -0.30830166666666664
502237102 0.32823566666666665 -0.3082753333333333
503722981 0.32613133333333333 -0.30790300000000004
505208860 0.32458299999999995 -0.30760766666666667
506694739 0.323651 -0.3077696666666666
508180618 0.3218933333333333 -0.3071983333333333
509666497 0.31957599999999997 -0.307016
511152376 0.31978166666666663 -0.30819299999999994
512638255 0.3199143333333333 -0.3107673333333333
514124134 0.32132499999999997 -0.31328566666666663
515610013 0.32196333333333327 -0.31399066666666664
517095892 0.32214266666666663 -0.316212
518581771 0.32295033333333334 -0.3173843333333333
520067650 0.32304199999999994 -0.3196366666666667
521553529 0.3229803333333333 -0.32054233333333326
523039408 0.323102 -0.3214733333333333
524525287 0.3223883333333333 -0.3224203333333333
526011166 0.32196733333333327 -0.32203466666666664
527497045 0.32216 -0.32193266666666664
528982924 0.32062366666666664 -0.32354
530468803 0.3202826666666666 -0.32353
531954682 0.3185633333333333 -0.32315533333333335
533440561 0.31731733333333334 -0.322812
534926440 0.31566233333333327 -0.3231653333333333
536412319 0.3143746666666667 -0.32224966666666666
537898198 0.31168999999999997 -0.3216576666666666
539384077 0.31059266666666663 -0.320102
540869956 0.3091676666666667 -0.32178399999999996
542355835 0.3098456666666667 -0.32467266666666666
543841714 0.31102266666666667 -0.3266606666666666
545327593 0.31195033333333333 -0.32895233333333335
546813472 0.31114699999999995 -0.3301373333333333
548299351 0.31224566666666664 -0.3315956666666666
549785230 0.3125633333333333 -0.3331106666666666
551271109 0.3125323333333333 -0.33369066666666664
552756988 0.31208033333333335 -0.3345686666666666
554242867 0.312052 -0.335191
555728746 0.311929 -0.336954
557214625 0.3113113333333333 -0.33680933333333335
558700504 0.3106093333333333 -0.33735566666666666
560186383 0.31021 -0.3374676666666666
561672262 0.3090153333333333 -0.33624366666666666
563158141 0.30757366666666663 -0.3358833333333333
564644020 0.3063746666666666 -0.3350963333333333
566129899 0.30432366666666666 -0.33541566666666667
567615778 0.30244366666666667 -0.33537833333333333
569101657 0.2998363333333333 -0.33404466666666666
570587536 0.2991146666666667 -0.3353946666666666
572073415 0.3002263333333333 -0.3372546666666666
573559294 0.3006243333333334 -0.339781
575045173 0.30086966666666665 -0.34152733333333335
576531052 0.3013583333333333 -0.343753
578016931 0.3021666666666667 -0.3456363333333333
579502810 0.3017713333333333 -0.3473123333333333
580988689 0.302075 -0.3496693333333334
582474568 0.3017683333333333 -0.35073833333333326
583960447 0.3015616666666666 -0.3513916666666666
585446326 0.30134299999999997 -0.351964
586932205 0.3013413333333333 -0.3526846666666666
588418084 0.30089600000000005 -0.35298366666666664
589903963 0.30004699999999995 -0.35344966666666666
591389842 0.29905099999999996 -0.35324099999999997
592875721 0.2979206666666666 -0.352906
594361600 0.2966066666666667 -0.352734
595847479 0.29482733333333333 -0.3531613333333333
597333358 0.29337233333333335 -0.35252266666666665
598819237 0.2911296666666667 -0.3512493333333333
600305116 0.28968700000000003 -0.351178
601790995 0.2902283333333333 -0.353839
603276874 0.2916513333333333 -0.3559076666666666
604762753 0.29192599999999996 -0.3582703333333333
606248632 0.2925116666666666 -0.35958566666666664
607734511 0.2919636666666666 -0.361384
609220390 0.2931233333333333 -0.364336
610706269 0.293241 -0.364109
612192148 0.2932046666666666 -0.36577533333333334
613678027 0.2938673333333333 -0.3662183333333333
615163906 0.29212266666666664 -0.36758699999999994
616649785 0.29149733333333333 -0.36812033333333327
618135664 0.2910423333333333 -0.366819
619621543 0.291861 -0.3664463333333333
621107422 0.29231366666666664 -0.3652743333333333
622593301 0.28772966666666666 -0.36662666666666666
624079180 0.29028566666666666 -0.364791
625565059 0.2863173333333333 -0.36541766666666664
627050938 0.28712499999999996 -0.36234799999999995
628536817 0.2822283333333333 -0.36307366666666663
630022696 0.2825066666666667 -0.36125666666666667
631508575 0.28193066666666666 -0.3646923333333333
632994454 0.2792816666666667 -0.3682606666666666
634480333 0.283615 -0.36758766666666665
635966212 0.2832066666666666 -0.36955199999999994
637452091 0.284582 -0.37071466666666664
638937970 0.284157 -0.37220499999999995
640423849 0.28449366666666664 -0.37354166666666666
641909728 0.28300966666666666 -0.3749393333333333
643395607 0.283328 -0.3746446666666666
644881486 0.282278 -0.3758226666666667
646367365 0.2823703333333333 -0.3749403333333333
647853244 0.281327 -0.3759853333333333
649339123 0.280144 -0.3761403333333333
650825002 0.2799293333333333 -0.37534
652310881 0.2780546666666666 -0.37634833333333334
653796760 0.2762433333333333 -0.37455166666666667
655282639 0.27447499999999997 -0.3740726666666666
656768518 0.2733726666666666 -0.37337800000000004
658254397 0.27007499999999995 -0.3718376666666666
659740276 0.26902566666666666 -0.370631
661226155 0.2663453333333333 -0.3739766666666667
662712034 0.269196 -0.3753666666666667
664197913 0.2669039999999999 -0.3792063333333333
665683792 0.26923733333333333 -0.38049
667169671 0.26621999999999996 -0.38395266666666666
668655550 0.25318999999999997 -0.3798166666666667
670141429 0.26702533333333334 -0.3875423333333333
671627308 0.267077 -0.3887286666666666
673113187 0.2671576666666666 -0.389584
674599066 0.26557 -0.3911453333333333
676084945 0.26571266666666665 -0.39133766666666664
677570824 0.264278 -0.3925276666666666
679056703 0.263698 -0.3933066666666667
680542582 0.26373333333333326 -0.39297066666666663
682028461 0.2629233333333333 -0.393333
683514340 0.26163766666666666 -0.39254833333333333
685000219 0.26001966666666665 -0.3923873333333333
686486098 0.2581986666666667 -0.3922353333333333
687971977 0.25699999999999995 -0.3903523333333333
689457856 0.2547216666666667 -0.3900043333333333
690943735 0.254826 -0.3910546666666666
692429614 0.2548586666666666 -0.39379733333333333
693915493 0.255571 -0.3961303333333333
695401372 0.2569976666666666 -0.3976263333333333
696887251 0.25692 -0.3994466666666666
698373130 0.2574453333333333 -0.402257
699859009 0.25931 -0.40314099999999997
701344888 0.258656 -0.4037
702830767 0.25873199999999996 -0.40571566666666664
704316646 0.2602036666666666 -0.4056496666666667
705802525 0.259775 -0.40657366666666667
707288404 0.258956 -0.40632366666666664
708774283 0.2596423333333333 -0.40523333333333333
710260162 0.25817766666666664 -0.40644966666666665
711746041 0.2578953333333333 -0.4053153333333333
713231920 0.257975 -0.40469999999999995
714717799 0.25538866666666665 -0.40389533333333333
716203678 0.25557433333333335 -0.4029046666666667
717689557 0.2536676666666666 -0.40122899999999995
719175436 0.25278766666666663 -0.399074
720661315 0.25236133333333327 -0.39930033333333326
722147194 0.252695 -0.4023746666666666
723633073 0.2521253333333333 -0.40516299999999994
725118952 0.25262199999999996 -0.4070293333333333
726604831 0.25351899999999994 -0.409018
728090710 0.2538566666666667 -0.41009066666666666
729576589 0.25321666666666665 -0.4117203333333333
731062468 0.254223 -0.4123916666666666
732548347 0.25314466666666663 -0.4136816666666666
734034226 0.252492 -0.41479399999999994
735520105 0.25288099999999997 -0.414161
737005984 0.25189533333333336 -0.41531299999999993
738491863 0.2526403333333333 -0.4153673333333333
739977742 0.25045366666666663 -0.415014
741463621 0.25007999999999997 -0.4143243333333333
742949500 0.24938233333333332 -0.4141123333333333
744435379 0.2471863333333333 -0.413678
745921258 0.246022 -0.412296
747407137 0.24506766666666668 -0.4105683333333333
748893016 0.24321566666666664 -0.41073866666666664
750378895 0.24177299999999996 -0.41010166666666664
751864774 0.24287099999999998 -0.41112899999999997
753350653 0.23904666666666666 -0.4160803333333334
754836532 0.24540333333333333 -0.4155526666666667
756322411 0.23872233333333331 -0.4202743333333333
757808290 0.244529 -0.41911699999999996
759294169 0.239576 -0.422135
760780048 0.2436856666666667 -0.42296266666666665
762265927 0.23887099999999997 -0.4259376666666666
763751806 0.24354266666666669 -0.4242823333333333
765237685 0.2382496666666667 -0.42644266666666664
766723564 0.242443 -0.42472166666666666
768209443 0.236521 -0.42754799999999993
769695322 0.254814 -0.44244966666666663
771181201 0.23737466666666665 -0.42626833333333336
772667080 0.23785 -0.42510266666666663
774152959 0.23544366666666666 -0.42486466666666667
775638838 0.23317766666666664 -0.42452999999999996
777124717 0.23222900000000002 -0.42327433333333336
778610596 0.2300243333333333 -0.4219646666666666
780096475 0.22865733333333332 -0.420751
781582354 0.228831 -0.4236606666666667
783068233 0.22836266666666666 -0.4257956666666667
784554112 0.228759 -0.428887
786039991 0.22875399999999996 -0.43127799999999994
787525870 0.23079233333333332 -0.43178199999999994
789011749 0.22937333333333335 -0.4350483333333333
790497628 0.2305563333333333 -0.43547633333333335
791983507 0.23101433333333332 -0.4370103333333333
793469386 0.22971466666666665 -0.4378743333333333
794955265 0.22877166666666665 -0.4380113333333333
796441144 0.22967666666666667 -0.43780766666666665
797927023 0.22838466666666668 -0.43882200000000005
799412902 0.22868033333333332 -0.4391413333333333
800898781 0.22816266666666665 -0.438038
802384660 0.22748799999999997 -0.437426
803870539 0.22671566666666668 -0.43582499999999996
805356418 0.22560866666666662 -0.4357413333333333
806842297 0.22488966666666665 -0.43429966666666664
808328176 0.22227266666666667 -0.43347766666666665
809814055 0.22183233333333333 -0.43125966666666665
811299934 0.2209653333333333 -0.4329126666666666
812785813 0.2210733333333333 -0.4356893333333334
814271692 0.22192133333333333 -0.438418
815757571 0.21976933333333332 -0.44103133333333333
817243450 0.22172933333333333 -0.4428143333333333
818729329 0.22154 -0.444148
820215208 0.221047 -0.44535499999999995
821701087 0.22202999999999998 -0.4467553333333333
823186966 0.22202066666666664 -0.44645333333333337
824672845 0.22009166666666663 -0.44768399999999997
826158724 0.220046 -0.44913533333333333
827644603 0.21920833333333334 -0.44806166666666664
829130482 0.21982566666666664 -0.4482196666666667
830616361 0.217404 -0.4471946666666667
832102240 0.21691166666666664 -0.44795799999999997
833588119 0.215367 -0.44679366666666664
835073998 0.21584666666666666 -0.4451593333333333
836559877 0.21405299999999997 -0.44357
838045756 0.21166 -0.44251466666666667
839531635 0.21145099999999997 -0.4400633333333333
841017514 0.21119366666666664 -0.44220233333333336
842503393 0.209131 -0.4449886666666667
843989272 0.20981933333333336 -0.4474083333333333
845475151 0.20991866666666664 -0.450352
846961030 0.21053466666666668 -0.45138466666666666
848446909 0.20968533333333333 -0.45311099999999993
849932788 0.21009033333333332 -0.45527433333333334
851418667 0.20834633333333333 -0.456507
852904546 0.20925666666666667 -0.45742666666666665
854390425 0.20923366666666668 -0.45875933333333335
855876304 0.20805333333333334 -0.45894833333333335
857362183 0.20819433333333331 -0.4592293333333333
858848062 0.2073303333333333 -0.459296
860333941 0.205824 -0.4590146666666667
861819820 0.20471799999999998 -0.45891466666666664
863305699 0.20474033333333333 -0.4589916666666666
864791578 0.2037513333333333 -0.4578966666666667
866277457 0.20314533333333332 -0.456947
867763336 0.20194533333333334 -0.455031
869249215 0.20019733333333334 -0.453275
870735094 0.199627 -0.454341
872220973 0.19960566666666663 -0.45697600000000005
873706852 0.19948366666666664 -0.4590916666666667
875192731 0.19904266666666665 -0.4617306666666666
876678610 0.19835566666666665 -0.46341299999999996
878164489 0.19797366666666666 -0.4648563333333333
879650368 0.19777866666666669 -0.46646299999999996
881136247 0.19848 -0.46755166666666664
882622126 0.19750466666666666 -0.4688123333333333
884108005 0.1971983333333333 -0.4698516666666666
885593884 0.19738933333333333 -0.47060166666666664
887079763 0.1957873333333333 -0.47030833333333333
888565642 0.19658866666666666 -0.4701263333333333
890051521 0.19544866666666666 -0.47068899999999997
891537400 0.19563599999999998 -0.46881833333333334
893023279 0.194873 -0.4680019999999999
894509158 0.1924786666666667 -0.4680846666666666
895995037 0.19181266666666666 -0.4666013333333333
897480916 0.19031199999999998 -0.46627966666666665
898966795 0.18990833333333335 -0.46349833333333335
900452674 0.18986166666666665 -0.46441033333333337
901938553 0.1876153333333333 -0.4655646666666667
903424432 0.18902333333333332 -0.46857333333333334
904910311 0.18846199999999996 -0.4696986666666666
906396190 0.18883799999999998 -0.4714623333333333
907882069 0.18837533333333334 -0.47307566666666667
909367948 0.18731566666666666 -0.474579
910853827 0.188305 -0.47595
912339706 0.18755099999999997 -0.4759786666666666
913825585 0.18736299999999997 -0.47677900000000006
915311464 0.18646733333333332 -0.47737566666666664
916797343 0.187203 -0.4773666666666666
918283222 0.18569999999999998 -0.4774623333333333
919769101 0.17147766666666667 -0.466958
921254980 0.18485466666666667 -0.4761943333333333
922740859 0.18555533333333332 -0.4749786666666667
924226738 0.183723 -0.473785
925712617 0.183041 -0.4733316666666667
927198496 0.18134266666666665 -0.470649
928684375 0.180232 -0.46917733333333334
930170254 0.18002600000000002 -0.4671996666666667
931656133 0.17888833333333332 -0.46972166666666665
933142012 0.17955366666666667 -0.4729573333333333
934627891 0.17857033333333333 -0.47398999999999997
936113770 0.1779113333333333 -0.476691
937599649 0.1785503333333333 -0.47848266666666667
939085528 0.17814233333333332 -0.47961366666666666
940571407 0.178176 -0.4816053333333333
942057286 0.1779633333333333 -0.4827423333333333
943543165 0.177307 -0.4832626666666667
945029044 0.17714166666666667 -0.48363066666666665
946514923 0.17629366666666663 -0.48373599999999994
948000802 0.177117 -0.4837376666666667
949486681 0.17612333333333333 -0.48330266666666666
950972560 0.17373666666666665 -0.4842646666666666
952458439 0.17431999999999997 -0.48233599999999993
953944318 0.175499 -0.4816623333333333
955430197 0.17284633333333332 -0.481066
956916076 0.17074999999999999 -0.4800866666666666
958401955 0.170024 -0.478859
959887834 0.16863766666666669 -0.47640299999999997
961373713 0.16937933333333333 -0.47887366666666664
962859592 0.16831 -0.482038
964345471 0.16927866666666663 -0.483907
965831350 0.168483 -0.48545266666666664
967317229 0.16944666666666666 -0.4877356666666667
968803108 0.16986133333333334 -0.4890629999999999
970288987 0.17664799999999997 -0.4893783333333333
971774866 0.16888399999999998 -0.49105899999999997
973260745 0.18560566666666667 -0.49690166666666663
974746624 0.16648933333333332 -0.49279266666666666
976232503 0.17161133333333334 -0.4920593333333333
977718382 0.16492733333333331 -0.4929686666666666
979204261 0.170758 -0.491747
980690140 0.16478299999999999 -0.4919793333333333
982176019 0.16911966666666667 -0.49060599999999993
983661898 0.16255966666666666 -0.49098033333333335
985147777 0.166528 -0.4884806666666666
986633656 0.16150566666666666 -0.4877753333333333
988119535 0.16460366666666665 -0.48572966666666667
989605414 0.15843266666666667 -0.48523233333333327
991091293 0.162894 -0.48533566666666667
992577172 0.15772666666666665 -0.4890116666666667
994063051 0.161513 -0.4901263333333333
995548930 0.15785966666666668 -0.4924523333333333
997034809 0.16196733333333332 -0.49371466666666664
998520688 0.15694033333333335 -0.49626533333333334
1000006567 0.16251699999999997 -0.49685633333333334
1001492446 0.15672466666666665 -0.49914233333333324
1002978325 0.16182666666666667 -0.4980563333333333
1004464204 0.15664366666666665 -0.49992366666666666
1005950083 0.16000899999999998 -0.498688
1007435962 0.15426666666666666 -0.4997353333333333
1008921841 0.15910666666666665 -0.4988603333333333
1010407720 0.15344533333333332 -0.498707
1011893599 0.15646066666666666 -0.4977216666666666
1013379478 0.15160333333333334 -0.4967123333333333
1014865357 0.15365233333333334 -0.494895
1016351236 0.14897633333333332 -0.494634
1017837115 0.15240233333333333 -0.4925043333333333
1019322994 0.14887 -0.4907743333333333
1020808873 0.14740999999999999 -0.49161433333333326
1022294752 0.14693433333333333 -0.49461999999999995
1023780631 0.147585 -0.49643
1025266510 0.14670566666666665 -0.4987713333333333
1026752389 0.14673899999999998 -0.5015856666666667
1028238268 0.14611833333333335 -0.502767
1029724147 0.14576999999999998 -0.50511
1031210026 0.1452483333333333 -0.5063673333333333
1032695905 0.14513666666666664 -0.5072890000000001
1034181784 0.14474499999999998 -0.506929
1035667663 0.14504766666666666 -0.5082549999999999
1037153542 0.14477099999999998 -0.5086736666666667
1038639421 0.14474366666666666 -0.5076936666666667
1040125300 0.14272733333333332 -0.5072796666666666
1041611179 0.14163366666666666 -0.50606
1043097058 0.14180866666666664 -0.5063920000000001
1044582937 0.14180866666666664 -0.5051023333333333
1046068816 0.1410283333333333 -0.5040563333333333
1047554695 0.13863266666666665 -0.502697
1049040574 0.13639366666666666 -0.500018
1050526453 0.13693899999999998 -0.5000923333333334
1052012332 0.13689633333333334 -0.5033383333333332
1053498211 0.136278 -0.5056433333333333
1054984090 0.13668999999999998 -0.5078933333333333
1056469969 0.13624266666666665 -0.5101213333333333
1057955848 0.13547466666666666 -0.5121553333333333
1059441727 0.13638333333333333 -0.514135
1060927606 0.13687333333333332 -0.5143143333333333
1062413485 0.13791966666666666 -0.515586
1063899364 0.13678400000000002 -0.5158663333333333
1065385243 0.137647 -0.5159716666666667
1066871122 0.13734466666666667 -0.5160123333333333
1068357001 0.13738766666666666 -0.5164869999999999
1069842880 0.13509166666666667 -0.5149866666666667
1071328759 0.143048 -0.513914
1072814638 0.14260799999999998 -0.512902
1074300517 0.13985966666666666 -0.5114616666666666
1075786396 0.13824 -0.509719
1077272275 0.13900833333333334 -0.5070549999999999
1078758154 0.13740066666666664 -0.5060823333333333
1080244033 0.13555966666666666 -0.504251
1081729912 0.13528433333333334 -0.5077923333333333
1083215791 0.13628599999999996 -0.509782
1084701670 0.13619366666666666 -0.5114696666666667
1086187549 0.136104 -0.51367
1087673428 0.13569566666666666 -0.515552
1089159307 0.134875 -0.5175046666666666
1090645186 0.135899 -0.518103
1092131065 0.13433833333333334 -0.5190086666666667
1093616944 0.13405333333333333 -0.519484
1095102823 0.13389433333333334 -0.5194873333333333
1096588702 0.12756766666666663 -0.5193463333333332
1098074581 0.12789766666666666 -0.519149
1099560460 0.126852 -0.5180386666666665
1101046339 0.126336 -0.517098
1102532218 0.12574966666666665 -0.5155026666666667
1104018097 0.12499766666666667 -0.514116
1105503976 0.12436433333333333 -0.512227
1106989855 0.12132 -0.5109776666666666
1108475734 0.121027 -0.5090073333333334
1109961613 0.12028433333333333 -0.506536
1111447492 0.12095066666666666 -0.508991
1112933371 0.11836466666666667 -0.5121786666666666
1114419250 0.11922933333333333 -0.5147213333333334
1115905129 0.11928866666666667 -0.517836
1117391008 0.11854499999999998 -0.5195473333333332
1118876887 0.11840266666666666 -0.5216863333333334
1120362766 0.11957133333333332 -0.5220693333333333
1121848645 0.11761466666666666 -0.5238863333333332
1123334524 0.12369166666666667 -0.5250793333333332
1124820403 0.11727133333333334 -0.5249833333333334
1126306282 0.11680299999999999 -0.5258603333333333
1127792161 0.11742766666666667 -0.5260546666666667
1129278040 0.11617366666666665 -0.5255519999999999
1130763919 0.11436766666666666 -0.524297
1132249798 0.11614433333333332 -0.5243593333333334
1133735677 0.11587833333333332 -0.5226103333333333
1135221556 0.11456466666666666 -0.5220666666666667
1136707435 0.114884 -0.5201966666666666
1138193314 0.11345566666666665 -0.5172526666666666
1139679193 0.11102533333333332 -0.515585
1141165072 0.11214233333333332 -0.5175409999999999
1142650951 0.11169399999999999 -0.5194909999999999
1144136830 0.10894133333333333 -0.523123
1145622709 0.10996633333333333 -0.5238756666666666
1147108588 0.10852566666666666 -0.5264516666666667
1148594467 0.108056 -0.5293933333333333
1150080346 0.10928 -0.5294316666666666
1151566225 0.10702099999999999 -0.5307776666666666
1153052104 0.10650799999999999 -0.5317733333333332
1154537983 0.10815733333333333 -0.5315300000000001
1156023862 0.10595266666666665 -0.5314869999999999
1157509741 0.10478566666666667 -0.5311933333333334
1158995620 0.103775 -0.5311336666666666
1160481499 0.10355500000000001 -0.5318953333333333
1161967378 0.10253533333333333 -0.5297933333333333
1163453257 0.10318833333333333 -0.5289413333333334
1164939136 0.10039699999999999 -0.5290053333333333
1166425015 0.100093 -0.5265483333333333
1167910894 0.09839933333333334 -0.5238909999999999
1169396773 0.09712966666666667 -0.522194
1170882652 0.09637233333333331 -0.5220963333333333
1172368531 0.09717833333333332 -0.5250303333333333
1173854410 0.098526 -0.5284976666666666
1175340289 0.09583266666666665 -0.530998
1176826168 0.09703633333333334 -0.5311776666666665
1178312047 0.09503033333333333 -0.532586
1179797926 0.09494466666666668 -0.5362653333333333
1181283805 0.09651 -0.5362153333333333
1182769684 0.09553533333333332 -0.5368393333333332
1184255563 0.093821 -0.5381333333333334
1185741442 0.09311633333333333 -0.5384059999999999
1187227321 0.09360033333333331 -0.53789
1188713200 0.09392466666666667 -0.5388256666666666
1190199079 0.09248433333333334 -0.5373326666666666
1191684958 0.09377633333333332 -0.5372756666666667
1193170837 0.09361399999999999 -0.5359493333333334
1194656716 0.09184299999999998 -0.5327426666666666
1196142595 0.09321166666666666 -0.5309503333333333
1197628474 0.09268166666666666 -0.529945
1199114353 0.08921566666666665 -0.5272056666666667
1200600232 0.08884366666666667 -0.5277623333333332
1202086111 0.08841833333333333 -0.530316
1203571990 0.08649266666666666 -0.5317986666666666
1205057869 0.08758533333333332 -0.5338663333333333
1206543748 0.08701266666666665 -0.5363273333333333
1208029627 0.084984 -0.5388259999999999
1209515506 0.08764499999999999 -0.539094
1211001385 0.086082 -0.5405026666666666
1212487264 0.08436433333333333 -0.5400219999999999
1213973143 0.08372466666666667 -0.540994
1215459022 0.08308533333333333 -0.5413973333333333
1216944901 0.08493999999999999 -0.5407139999999999
1218430780 0.068659 -0.5262986666666666
1219916659 0.08520833333333333 -0.5401846666666666
1221402538 0.08275566666666667 -0.5403633333333333
1222888417 0.08402166666666666 -0.5402886666666666
1224374296 0.08116133333333334 -0.5382469999999999
1225860175 0.080181 -0.535868
1227346054 0.08145066666666667 -0.5350956666666666
1228831933 0.0794 -0.5322429999999999
1230317812 0.07713599999999998 -0.5309653333333333
1231803691 0.077196 -0.534426
1233289570 0.07836066666666666 -0.537862
1234775449 0.07883233333333334 -0.539333
1236261328 0.07848833333333333 -0.5403316666666667
1237747207 0.07921366666666665 -0.5435196666666666
1239233086 0.07793666666666667 -0.544898
1240718965 0.08031333333333332 -0.5460659999999999
1242204844 0.079885 -0.5467193333333333
1243690723 0.08028266666666667 -0.5474063333333333
1245176602 0.081459 -0.5487263333333333
1246662481 0.08163766666666666 -0.5489836666666666
1248148360 0.080201 -0.547534
1249634239 0.08153099999999999 -0.546391
1251120118 0.081842 -0.5460576666666667
1252605997 0.08089666666666666 -0.5448553333333334
1254091876 0.08105 -0.5441039999999999
1255577755 0.08118700000000001 -0.542314
1257063634 0.08123899999999999 -0.5385179999999999
1258549513 0.08150099999999999 -0.5377946666666666
1260035392 0.08220033333333333 -0.5348409999999999
1261521271 0.08025333333333333 -0.538284
1263007150 0.07788066666666667 -0.541523
1264493029 0.07644533333333332 -0.5424076666666666
1265978908 0.07665233333333334 -0.5438449999999999
1267464787 0.07647566666666666 -0.5463439999999999
1268950666 0.07522033333333333 -0.5479216666666666
1270436545 0.07444633333333334 -0.5483936666666667
1271922424 0.07004633333333334 -0.5483693333333334
1273408303 0.07234066666666666 -0.5502706666666667
1274894182 0.07175266666666666 -0.5506803333333333
1276380061 0.070828 -0.5505193333333332
1277865940 0.068913 -0.5502833333333333
1279351819 0.06621466666666666 -0.550101
1280837698 0.066938 -0.5491249999999999
1282323577 0.06699166666666667 -0.5480753333333332
1283809456 0.06606399999999998 -0.5473803333333334
1285295335 0.063123 -0.546494
1286781214 0.06217966666666667 -0.5443606666666666
1288267093 0.06020199999999999 -0.54347
1289752972 0.05708 -0.540475
1291238851 0.058091666666666666 -0.541998
1292724730 0.05789133333333333 -0.5438336666666667
1294210609 0.058733999999999995 -0.546367
1295696488 0.058580999999999994 -0.5483323333333333
1297182367 0.05655166666666667 -0.5490916666666666
1298668246 0.05682333333333334 -0.5504506666666665
1300154125 0.05625466666666666 -0.5517956666666667
1301640004 0.054046 -0.5514169999999999
1303125883 0.055114333333333335 -0.5515176666666666
1304611762 0.05574866666666667 -0.5515276666666666
1306097641 0.05486833333333333 -0.5519946666666666
1307583520 0.050889666666666666 -0.5508813333333333
1309069399 0.053218 -0.5495056666666667
1310555278 0.05242566666666666 -0.5483906666666667
1312041157 0.050791666666666666 -0.5469556666666666
1313527036 0.05087799999999999 -0.5455506666666667
1315012915 0.04937233333333333 -0.5425293333333333
1316498794 0.047960666666666665 -0.5411356666666667
1317984673 0.04637933333333333 -0.538554
1319470552 0.045265 -0.5359293333333333
1320956431 0.04575099999999999 -0.5383253333333333
1322442310 0.04652333333333333 -0.541324
1323928189 0.043608999999999995 -0.5435713333333332
1325414068 0.04456766666666666 -0.5470226666666667
1326899947 0.042597333333333334 -0.550376
1328385826 0.044811 -0.552285
1329871705 0.043648 -0.5544603333333333
1331357584 0.04498533333333333 -0.555976
1332843463 0.042261 -0.5566503333333332
1334329342 0.048022666666666665 -0.5594646666666666
1335815221 0.04209233333333333 -0.5592666666666666
1337301100 0.048763666666666663 -0.5599509999999999
1338786979 0.044261999999999996 -0.5582456666666666
1340272858 0.049797999999999995 -0.5588486666666667
1341758737 0.042853666666666665 -0.557533
1343244616 0.04959533333333333 -0.556862
1344730495 0.04427966666666667 -0.5556313333333334
1346216374 0.050679666666666665 -0.5543186666666666
1347702253 0.042807333333333336 -0.5513843333333333
1349188132 0.047774333333333335 -0.549235
1350674011 0.04329966666666666 -0.5504856666666667
1352159890 0.042702 -0.5538236666666666
1353645769 0.04306366666666667 -0.5565579999999999
1355131648 0.04212166666666667 -0.5598166666666666
1356617527 0.04317533333333333 -0.561874
1358103406 0.04210466666666666 -0.5637839999999998
1359589285 0.041816 -0.5653096666666666
1361075164 0.042251333333333335 -0.5668443333333333
1362561043 0.04122066666666667 -0.5680160000000001
1364046922 0.04072166666666666 -0.5700823333333332
1365532801 0.04139466666666666 -0.5688266666666666
1367018680 0.04101133333333333 -0.5695503333333334
1368504559 0.040982 -0.5686896666666665
1369990438 0.029019999999999997 -0.561194
1371476317 0.03986166666666666 -0.5686713333333333
1372962196 0.041576666666666665 -0.5666106666666666
1374448075 0.03910466666666666 -0.564874
1375933954 0.03683033333333333 -0.5615816666666666
1377419833 0.034639666666666666 -0.558886
1378905712 0.04034833333333333 -0.5575253333333334
1380391591 0.03230833333333333 -0.556254
1381877470 0.032816 -0.5578116666666666
1383363349 0.031242 -0.5606976666666666
1384849228 0.031730666666666664 -0.564143
1386335107 0.036853000000000004 -0.5675613333333334
1387820986 0.039286333333333326 -0.5705793333333333
1389306865 0.028831000000000002 -0.5694173333333333
1390792744 0.031586333333333334 -0.570019
1392278623 0.037259 -0.573075
1393764502 0.029843333333333333 -0.573431
1395250381 0.029088666666666665 -0.5714646666666666
1396736260 0.030091666666666662 -0.5714706666666667
1398222139 0.029513666666666667 -0.5704743333333333
1399708018 0.03211866666666666 -0.5723756666666666
1401193897 0.031085 -0.5707256666666666
1402679776 0.033743999999999996 -0.5682036666666667
1404165655 0.03130066666666666 -0.5658460000000001
1405651534 0.029769999999999998 -0.564114
1407137413 0.032422999999999993 -0.562786
1408623292 0.029490333333333334 -0.558183
1410109171 0.028803000000000002 -0.5572823333333333
1411595050 0.027874666666666666 -0.5564916666666666
1413080929 0.025783666666666667 -0.5634253333333332
1414566808 0.025898999999999995 -0.565805
1416052687 0.02385333333333333 -0.5681353333333333
1417538566 0.024147666666666668 -0.5689813333333333
1419024445 0.024106666666666665 -0.5718246666666666
1420510324 0.02605933333333333 -0.5749643333333333
1421996203 0.025230999999999996 -0.5755693333333334
1423482082 0.021700666666666663 -0.5767979999999999
1424967961 0.023672666666666665 -0.5755193333333333
1426453840 0.025133999999999997 -0.577086
1427939719 0.023432666666666664 -0.5760876666666666
1429425598 0.022651999999999995 -0.5761473333333332
1430911477 0.025901999999999998 -0.5770653333333333
1432397356 0.021627999999999998 -0.575298
1433883235 0.022757666666666666 -0.5743033333333334
1435369114 0.023481666666666668 -0.5721843333333334
1436854993 0.020715333333333332 -0.5680063333333334
1438340872 0.021170666666666664 -0.5666643333333333
1439826751 0.022178666666666666 -0.5644229999999999
1441312630 0.01993033333333333 -0.5662153333333333
1442798509 0.019163666666666666 -0.5690729999999999
1444284388 0.019332666666666665 -0.5723923333333333
1445770267 0.017995333333333332 -0.573003
1447256146 0.016283 -0.5755139999999999
1448742025 0.019535666666666666 -0.5771156666666666
1450227904 0.01737133333333333 -0.578245
1451713783 0.017624 -0.5791909999999999
1453199662 0.017314666666666666 -0.5804793333333332
1454685541 0.01705733333333333 -0.580584
1456171420 0.017072666666666667 -0.5798566666666667
1457657299 0.018791 -0.5798983333333332
1459143178 0.019401666666666664 -0.5777029999999999
1460629057 0.019307333333333333 -0.5769139999999999
1462114936 0.018042666666666665 -0.5749153333333333
1463600815 0.019519333333333333 -0.5726399999999999
1465086694 0.018488333333333332 -0.5710946666666666
1466572573 0.01622833333333333 -0.5677886666666666
1468058452 0.017603999999999998 -0.5653273333333333
1469544331 0.018025666666666666 -0.561003
1471030210 0.014992666666666668 -0.5621023333333333
1472516089 0.015675666666666664 -0.5660239999999999
1474001968 0.011582333333333333 -0.5686006666666665
1475487847 0.012401666666666667 -0.5712736666666667
1476973726 0.011441 -0.5732443333333334
1478459605 0.011750333333333331 -0.5755633333333333
1479945484 0.009181333333333333 -0.576614
1481431363 0.011627333333333332 -0.579031
1482917242 0.010498333333333333 -0.578826
1484403121 0.010327666666666666 -0.5794713333333332
1485889000 0.008757333333333332 -0.5800926666666666
1487374879 0.007466666666666667 -0.5802856666666667
1488860758 0.012123666666666666 -0.579281
1490346637 0.008985333333333333 -0.5791406666666666
1491832516 0.009657333333333332 -0.5769216666666666
1493318395 0.008192333333333333 -0.576811
1494804274 0.009643333333333332 -0.5746456666666666
1496290153 0.009823333333333333 -0.5719896666666666
1497776032 0.007229333333333334 -0.5700446666666665
1499261911 0.008879999999999999 -0.5679013333333333
1500747790 0.006967666666666667 -0.5675413333333333
1502233669 0.007009 -0.5704056666666666
1503719548 0.0048776666666666664 -0.572475
1505205427 0.004625666666666667 -0.5756163333333333
1506691306 0.003479 -0.576241
1508177185 0.0019286666666666664 -0.5792716666666666
1509663064 0.004010333333333333 -0.5793633333333333
1511148943 0.004983333333333333 -0.5803673333333332
1512634822 0.004033333333333333 -0.5814876666666666
1514120701 0.0017286666666666665 -0.5822080000000001
1515606580 0.003652 -0.582237
1517092459 0.002927666666666667 -0.5809633333333333
1518578338 0.0033993333333333328 -0.581383
1520064217 0.008525333333333333 -0.579027
1521550096 0.003281333333333333 -0.5787393333333333
1523035975 0.0036619999999999995 -0.57705
1524521854 0.013856666666666666 -0.5805093333333333
1526007733 0.005173666666666667 -0.5742126666666666
1527493612 0.012291999999999999 -0.5761686666666666
1528979491 0.012004333333333334 -0.5707886666666666
1530465370 0.009727999999999999 -0.5694053333333332
1531951249 0.008203666666666666 -0.5731676666666666
1533437128 0.0028483333333333334 -0.5724536666666666
1534923007 0.007692666666666665 -0.577151
1536408886 0.006477333333333332 -0.5800033333333332
1537894765 0.006623333333333333 -0.5810930000000001
1539380644 0.005811 -0.5824636666666667
1540866523 0.006384666666666665 -0.5834999999999999
1542352402 -0.001423 -0.5809089999999999
1543838281 0.004705000000000001 -0.5857653333333332
1545324160 0.0010649999999999993 -0.5843293333333333
1546810039 0.0023359999999999995 -0.5856349999999999
1548295918 -0.006246333333333333 -0.581606
1549781797 -0.007309333333333334 -0.5777276666666666
1551267676 -0.009387666666666666 -0.5796776666666665
1552753555 -0.007218666666666667 -0.5768593333333333
1554239434 -0.008144666666666665 -0.5752783333333333
1555725313 -0.011650666666666665 -0.5734413333333332
1557211192 -0.012519666666666667 -0.57131
1558697071 -0.008563999999999999 -0.56928
1560182950 -0.013084333333333333 -0.5671166666666667
1561668829 -0.011878666666666666 -0.569641
1563154708 -0.012547999999999998 -0.5723983333333333
1564640587 -0.013295000000000001 -0.5744956666666666
1566126466 -0.015230333333333335 -0.5771406666666667
1567612345 -0.013567 -0.5792579999999999
1569098224 -0.014990333333333331 -0.5801589999999999
1570584103 -0.012443333333333334 -0.582402
1572069982 -0.013895333333333332 -0.582413
1573555861 -0.013600666666666665 -0.580839
1575041740 -0.014161333333333331 -0.5834473333333334
1576527619 -0.015479999999999997 -0.5838273333333333
1578013498 -0.014171333333333331 -0.5827073333333332
1579499377 -0.010818999999999999 -0.5826576666666666
1580985256 -0.011641333333333332 -0.5806196666666665
1582471135 -0.014535333333333332 -0.5797236666666665
1583957014 -0.013576 -0.5769163333333334
1585442893 -0.014572000000000002 -0.5762876666666666
1586928772 -0.014420666666666667 -0.5745169999999999
1588414651 -0.014451 -0.5709876666666667
1589900530 -0.015688333333333332 -0.5687059999999999
1591386409 -0.016988 -0.5714753333333333
1592872288 -0.017757666666666665 -0.5741333333333333
1594358167 -0.019343 -0.5756003333333333
1595844046 -0.018397333333333335 -0.580113
1597329925 -0.017826333333333333 -0.5830876666666667
1598815804 -0.01864033333333333 -0.5833476666666667
1600301683 -0.020564666666666665 -0.583602
1601787562 -0.01964933333333333 -0.5862813333333334
1603273441 -0.020626666666666668 -0.5879713333333334
1604759320 -0.01844833333333333 -0.5874343333333333
1606245199 -0.01835166666666667 -0.5894616666666666
1607731078 -0.018952666666666666 -0.5879593333333333
1609216957 -0.019190666666666665 -0.5861283333333333
1610702836 -0.021036 -0.5854296666666666
1612188715 -0.020826 -0.5835603333333333
1613674594 -0.020940999999999994 -0.5827563333333333
1615160473 -0.01998233333333333 -0.5804199999999999
1616646352 -0.02210833333333333 -0.5792306666666667
1618132231 -0.01996766666666667 -0.5766899999999999
1619618110 -0.021496999999999995 -0.574144
1621103989 -0.022747999999999997 -0.5745586666666667
1622589868 -0.022507666666666665 -0.5785480000000001
1624075747 -0.024802333333333332 -0.5807136666666666
1625561626 -0.022264333333333334 -0.583069
1627047505 -0.023905666666666665 -0.5857763333333332
1628533384 -0.026242666666666664 -0.5869666666666666
1630019263 -0.02444833333333333 -0.5885419999999999
1631505142 -0.024855666666666665 -0.5895356666666667
1632991021 -0.021622000000000002 -0.5908779999999999
1634476900 -0.02581566666666666 -0.5918253333333333
1635962779 -0.02441166666666667 -0.589654
1637448658 -0.025705333333333334 -0.5883423333333333
1638934537 -0.02636866666666667 -0.5888136666666666
1640420416 -0.027221999999999996 -0.5867876666666666
1641906295 -0.026056999999999997 -0.585926
1643392174 -0.024586333333333335 -0.5829563333333333
1644878053 -0.026077666666666666 -0.5810546666666665
1646363932 -0.026210333333333335 -0.5777816666666666
1647849811 -0.030996 -0.5748256666666666
1649335690 -0.028335666666666665 -0.5715806666666667
1650821569 -0.030181666666666666 -0.5708
1652307448 -0.03198733333333333 -0.5745946666666667
1653793327 -0.030871333333333334 -0.5783
1655279206 -0.033688333333333334 -0.5796799999999999
1656765085 -0.03279133333333333 -0.583523
1658250964 -0.033472 -0.5860893333333332
1659736843 -0.03383166666666666 -0.5863726666666667
1661222722 -0.032984 -0.5878153333333334
1662708601 -0.032938 -0.5890956666666667
1664194480 -0.03356633333333334 -0.5897466666666666
1665680359 -0.03188566666666666 -0.5893183333333334
1667166238 -0.03553233333333333 -0.588656
1668652117 -0.03448933333333333 -0.588536
1670137996 -0.03240199999999999 -0.5870169999999999
1671623875 -0.035583666666666666 -0.5843183333333333
1673109754 -0.03346466666666666 -0.5837583333333333
1674595633 -0.032792666666666664 -0.5816693333333333
1676081512 -0.034719 -0.5791959999999999
1677567391 -0.033896666666666665 -0.5774736666666667
1679053270 -0.038755 -0.5730566666666665
1680539149 -0.03974366666666666 -0.5712413333333333
1682025028 -0.03780733333333333 -0.5740983333333333
1683510907 -0.03863833333333334 -0.5792379999999999
1684996786 -0.03714066666666666 -0.5818983333333333
1686482665 -0.039479 -0.582319
1687968544 -0.03976133333333333 -0.5860176666666665
1689454423 -0.039224666666666665 -0.5881303333333333
1690940302 -0.043670999999999995 -0.5877423333333333
1692426181 -0.04105166666666667 -0.5893606666666666
1693912060 -0.040266333333333335 -0.589294
1695397939 -0.038032333333333335 -0.5906279999999999
1696883818 -0.04031533333333333 -0.5903423333333333
1698369697 -0.03999033333333333 -0.5907946666666666
1699855576 -0.040139999999999995 -0.58864
1701341455 -0.039870666666666665 -0.5869893333333334
1702827334 -0.039773333333333334 -0.5847376666666666
1704313213 -0.0401 -0.5839463333333332
1705799092 -0.03925599999999999 -0.5804993333333333
1707284971 -0.04184233333333333 -0.5776806666666665
1708770850 -0.041555999999999996 -0.5742816666666666
1710256729 -0.04056233333333333 -0.5731333333333333
1711742608 -0.04127533333333333 -0.5774963333333333
1713228487 -0.04324733333333333 -0.5785719999999999
1714714366 -0.04312166666666667 -0.5832993333333333
1716200245 -0.04542833333333333 -0.5848903333333333
1717686124 -0.04776933333333333 -0.587328
1719172003 -0.044085333333333324 -0.5901506666666665
1720657882 -0.04818600000000001 -0.5914896666666666
1722143761 -0.045496999999999996 -0.5925053333333332
1723629640 -0.04637533333333333 -0.5939349999999999
1725115519 -0.044657 -0.5945133333333332
1726601398 -0.046042 -0.5960153333333333
1728087277 -0.045988666666666664 -0.592403
1729573156 -0.045748 -0.5926273333333333
1731059035 -0.04712466666666666 -0.591882
1732544914 -0.046139 -0.5925973333333332
1734030793 -0.045854000000000006 -0.5895056666666667
1735516672 -0.04815699999999999 -0.5855119999999999
1737002551 -0.04455566666666667 -0.5836793333333332
1738488430 -0.045530666666666664 -0.5808843333333332
1739974309 -0.043043 -0.5769690000000001
1741460188 -0.04680033333333333 -0.5809396666666666
1742946067 -0.04968566666666666 -0.5846093333333333
1744431946 -0.049525999999999994 -0.5862533333333333
1745917825 -0.050393 -0.5891076666666667
1747403704 -0.05123966666666666 -0.5915593333333333
1748889583 -0.052964 -0.5928329999999999
1750375462 -0.05213933333333333 -0.5951966666666666
1751861341 -0.05084433333333333 -0.5992973333333333
1753347220 -0.05488166666666666 -0.595637
1754833099 -0.054118 -0.5966676666666667
1756318978 -0.051301 -0.5964619999999999
1757804857 -0.052065 -0.5976083333333333
1759290736 -0.052157666666666665 -0.5965296666666666
1760776615 -0.05335433333333334 -0.5971223333333333
1762262494 -0.051630666666666665 -0.5951026666666666
1763748373 -0.053353 -0.5901096666666668
1765234252 -0.04989566666666667 -0.5880373333333333
1766720131 -0.05284166666666666 -0.5877506666666666
1768206010 -0.055584999999999996 -0.5836253333333332
1769691889 -0.05395066666666666 -0.5805783333333332
1771177768 -0.055501 -0.5811603333333333
1772663647 -0.05632833333333333 -0.5839466666666666
1774149526 -0.05856 -0.5857539999999999
1775635405 -0.05906166666666666 -0.5892923333333333
1777121284 -0.05894066666666667 -0.5889146666666667
1778607163 -0.06041633333333333 -0.5939483333333333
1780093042 -0.06030766666666666 -0.5923576666666667
1781578921 -0.06258966666666667 -0.594646
1783064800 -0.062334 -0.5945656666666665
1784550679 -0.060709333333333323 -0.5949153333333334
1786036558 -0.06254066666666666 -0.5941413333333333
1787522437 -0.06535966666666666 -0.591634
1789008316 -0.061677666666666665 -0.5904193333333334
1790494195 -0.06136866666666666 -0.5907973333333333
1791980074 -0.065251 -0.588119
1793465953 -0.06461633333333333 -0.5867233333333333
1794951832 -0.06327166666666666 -0.5830433333333334
1796437711 -0.06426533333333331 -0.5824753333333333
1797923590 -0.06179366666666666 -0.5785466666666667
1799409469 -0.06582133333333332 -0.5755316666666667
1800895348 -0.06738533333333332 -0.5759376666666666
1802381227 -0.06707533333333333 -0.5790116666666666
1803867106 -0.06891766666666665 -0.5820833333333333
1805352985 -0.069359 -0.5850036666666666
1806838864 -0.06869099999999999 -0.5872219999999999
1808324743 -0.06688833333333333 -0.588548
1809810622 -0.06808533333333333 -0.591069
1811296501 -0.07072666666666666 -0.592243
1812782380 -0.07602733333333334 -0.5926509999999999
1814268259 -0.07467166666666666 -0.5949686666666666
1815754138 -0.06885366666666666 -0.5930603333333333
1817240017 -0.07094566666666667 -0.5939579999999999
1818725896 -0.069682 -0.593734
1820211775 -0.07221866666666665 -0.593088
1821697654 -0.071725 -0.5899683333333333
1823183533 -0.06975466666666666 -0.5890023333333333
1824669412 -0.07058266666666667 -0.586492
1826155291 -0.07120133333333334 -0.583828
1827641170 -0.07134466666666667 -0.5835793333333333
1829127049 -0.06989333333333332 -0.5792286666666666
1830612928 -0.06966533333333333 -0.5800756666666667
1832098807 -0.07388066666666666 -0.5830516666666665
1833584686 -0.075797 -0.5861543333333334
1835070565 -0.07524733333333333 -0.5880036666666666
1836556444 -0.07728099999999999 -0.5882229999999999
1838042323 -0.07665366666666665 -0.591355
1839528202 -0.07836966666666664 -0.5925903333333333
1841014081 -0.07614433333333333 -0.5923006666666667
1842499960 -0.07583433333333332 -0.5941003333333332
1843985839 -0.076457 -0.5956459999999999
1845471718 -0.07710833333333333 -0.594526
1846957597 -0.07831333333333332 -0.5954333333333333
1848443476 -0.07988466666666666 -0.5920796666666666
1849929355 -0.07732366666666665 -0.5940543333333332
1851415234 -0.07782499999999999 -0.5906806666666666
1852901113 -0.07902100000000001 -0.5860623333333332
1854386992 -0.07757633333333333 -0.5872296666666666
1855872871 -0.077731 -0.5860273333333333
1857358750 -0.07996266666666667 -0.5825996666666666
1858844629 -0.081469 -0.5807610000000001
1860330508 -0.07870666666666666 -0.5788983333333333
1861816387 -0.07992099999999999 -0.581113
1863302266 -0.08016533333333332 -0.5852653333333333
1864788145 -0.08472166666666667 -0.5878106666666666
1866274024 -0.08282966666666666 -0.5890243333333333
1867759903 -0.08260566666666666 -0.5911876666666667
1869245782 -0.08179299999999999 -0.5924116666666667
1870731661 -0.08252999999999999 -0.5931970000000001
1872217540 -0.08225433333333333 -0.594791
1873703419 -0.07596766666666666 -0.5921129999999999
1875189298 -0.08062366666666666 -0.5959489999999998
1876675177 -0.08013199999999998 -0.5965163333333333
1878161056 -0.07553133333333334 -0.5955883333333333
1879646935 -0.08116566666666665 -0.593502
1881132814 -0.07598666666666666 -0.5936443333333333
1882618693 -0.08235366666666667 -0.5899066666666666
1884104572 -0.079519 -0.5896266666666667
1885590451 -0.080719 -0.5863510000000001
1887076330 -0.07473366666666667 -0.5836539999999999
1888562209 -0.08102266666666666 -0.581245
1890048088 -0.07837833333333333 -0.57744
1891533967 -0.08272466666666667 -0.5805246666666666
1893019846 -0.07716666666666666 -0.5860926666666666
1894505725 -0.08377399999999999 -0.5859723333333333
1895991604 -0.08173333333333332 -0.5908766666666666
1897477483 -0.08286 -0.5896003333333333
1898963362 -0.08031566666666667 -0.592803
1900449241 -0.08194333333333333 -0.5962756666666666
1901935120 -0.07884833333333333 -0.5971983333333333
1903420999 -0.08408199999999999 -0.5962303333333333
1904906878 -0.08135733333333334 -0.5976043333333333
1906392757 -0.08529866666666666 -0.5969926666666667
1907878636 -0.078652 -0.5968773333333334
1909364515 -0.08427033333333334 -0.5964893333333332
1910850394 -0.07824433333333333 -0.594448
1912336273 -0.08476666666666666 -0.594038
1913822152 -0.07956433333333332 -0.5939396666666666
1915308031 -0.07988966666666666 -0.589562
1916793910 -0.08099666666666666 -0.5870966666666666
1918279789 -0.08540533333333333 -0.584077
1919765668 -0.07791899999999999 -0.5802733333333334
1921251547 -0.08618099999999998 -0.5823466666666666
1922737426 -0.08618033333333333 -0.5841666666666666
1924223305 -0.08512633333333333 -0.5881916666666667
1925709184 -0.085587 -0.592028
1927195063 -0.087478 -0.5922383333333332
1928680942 -0.08692133333333332 -0.594919
1930166821 -0.09016833333333332 -0.597267
1931652700 -0.08947499999999999 -0.598391
1933138579 -0.087282 -0.5981696666666666
1934624458 -0.08644266666666667 -0.5999149999999999
1936110337 -0.088195 -0.5989906666666667
1937596216 -0.08757899999999999 -0.598471
1939082095 -0.08690633333333332 -0.5996413333333332
1940567974 -0.08681133333333332 -0.5964976666666667
1942053853 -0.08588433333333334 -0.593606
1943539732 -0.08788566666666667 -0.5927093333333333
1945025611 -0.08473599999999999 -0.5931016666666666
1946511490 -0.08841766666666667 -0.5878123333333333
1947997369 -0.087555 -0.5855053333333333
1949483248 -0.08696966666666667 -0.5817093333333333
1950969127 -0.08965999999999999 -0.5813820000000001
1952455006 -0.089503 -0.5870966666666666
1953940885 -0.09018499999999999 -0.5896106666666666
1955426764 -0.09189166666666666 -0.5922013333333332
1956912643 -0.09387166666666664 -0.594583
1958398522 -0.09376733333333334 -0.59396
1959884401 -0.096228 -0.597984
1961370280 -0.09587599999999999 -0.5997979999999999
1962856159 -0.095288 -0.5994476666666666
1964342038 -0.09715266666666666 -0.5973009999999999
1965827917 -0.09524 -0.59992
1967313796 -0.09607266666666665 -0.6003793333333333
1968799675 -0.08695666666666665 -0.6325919999999999
1970285554 -0.094248 -0.5989199999999999
1971771433 -0.09392666666666667 -0.596602
1973257312 -0.09532500000000001 -0.596684
1974743191 -0.09514733333333332 -0.592227
1976229070 -0.09489266666666665 -0.591107
1977714949 -0.09396866666666666 -0.5887543333333333
1979200828 -0.09469633333333334 -0.5859489999999999
1980686707 -0.09752299999999998 -0.586285
1982172586 -0.09673433333333332 -0.5884506666666667
1983658465 -0.098031 -0.5931673333333333
1985144344 -0.09846200000000001 -0.5945313333333333
1986630223 -0.10260766666666665 -0.5972413333333333
1988116102 -0.10129833333333334 -0.5973123333333332
1989601981 -0.09675533333333333 -0.6055223333333333
1991087860 -0.105436 -0.6003843333333332
1992573739 -0.10074333333333332 -0.6021539999999999
1994059618 -0.10192766666666667 -0.6037313333333333
1995545497 -0.10322933333333334 -0.6031203333333333
1997031376 -0.09472033333333332 -0.6093199999999999
1998517255 -0.10176233333333332 -0.6015729999999999
2000003134 -0.10325566666666666 -0.6000113333333333
2001489013 -0.10279266666666666 -0.600098
2002974892 -0.09953333333333332 -0.598481
2004460771 -0.09967699999999999 -0.5954066666666666
2005946650 -0.09998533333333333 -0.591131
2007432529 -0.10043366666666667 -0.5900799999999999
2008918408 -0.10329933333333333 -0.5859933333333334
2010404287 -0.10277333333333333 -0.5842136666666666
2011890166 -0.10170033333333334 -0.5866596666666666
2013376045 -0.10341066666666666 -0.5913356666666667
2014861924 -0.10503200000000001 -0.5956866666666666
2016347803 -0.10793333333333333 -0.5967149999999999
2017833682 -0.10697633333333334 -0.5984616666666667
2019319561 -0.10682133333333332 -0.6010899999999999
2020805440 -0.10708999999999999 -0.603395
2022291319 -0.116374 -0.6000466666666666
2023777198 -0.10683766666666666 -0.6039016666666666
2025263077 -0.11101333333333332 -0.604568
2026748956 -0.10777499999999998 -0.60438
2028234835 -0.10882566666666667 -0.603216
2029720714 -0.106064 -0.6048313333333334
2031206593 -0.10754133333333334 -0.600565
2032692472 -0.10769266666666666 -0.599127
2034178351 -0.107292 -0.5998373333333333
2035664230 -0.10956066666666665 -0.5928523333333333
2037150109 -0.105643 -0.593861
2038635988 -0.10621 -0.5914143333333333
2040121867 -0.11147766666666667 -0.5864149999999999
2041607746 -0.10723533333333332 -0.591374
2043093625 -0.10720566666666666 -0.5938696666666666
2044579504 -0.109643 -0.5970369999999999
2046065383 -0.10991133333333333 -0.599972
2047551262 -0.10962666666666666 -0.599887
2049037141 -0.113265 -0.600834
2050523020 -0.11118633333333333 -0.6033273333333332
2052008899 -0.11508366666666665 -0.6014186666666665
2053494778 -0.107821 -0.6062386666666666
2054980657 -0.11435799999999999 -0.6026116666666665
2056466536 -0.11042133333333333 -0.6045189999999999
2057952415 -0.11511 -0.6010813333333332
2059438294 -0.11165833333333333 -0.6030403333333334
2060924173 -0.11560133333333333 -0.5991506666666666
2062410052 -0.11158266666666666 -0.598776
2063895931 -0.10778133333333331 -0.598222
2065381810 -0.11214966666666666 -0.5917656666666666
2066867689 -0.10885933333333332 -0.59073
2068353568 -0.107682 -0.587922
2069839447 -0.10848933333333334 -0.5846233333333333
2071325326 -0.10893766666666667 -0.5856429999999999
2072811205 -0.10940633333333333 -0.5903113333333333
2074297084 -0.11002899999999999 -0.5912866666666666
2075782963 -0.11246233333333333 -0.593003
2077268842 -0.11302966666666667 -0.5960133333333333
2078754721 -0.11127499999999999 -0.5975016666666666
2080240600 -0.11364566666666666 -0.597128
2081726479 -0.11216533333333334 -0.5988789999999999
2083212358 -0.11147733333333332 -0.5999026666666666
2084698237 -0.11486633333333332 -0.5982976666666666
2086184116 -0.11136833333333332 -0.5998976666666667
2087669995 -0.11322166666666666 -0.5955936666666666
2089155874 -0.11073866666666667 -0.5972656666666666
2090641753 -0.11429366666666665 -0.5938936666666667
2092127632 -0.111506 -0.592947
2093613511 -0.11218499999999999 -0.5912069999999999
2095099390 -0.11268733333333332 -0.58936
2096585269 -0.11403366666666666 -0.5839726666666666
2098071148 -0.10885633333333333 -0.5842523333333333
2099557027 -0.11180633333333334 -0.577858
2101042906 -0.11187633333333333 -0.5817086666666667
2102528785 -0.11102233333333333 -0.5843919999999999
2104014664 -0.11557466666666666 -0.586163
2105500543 -0.11512099999999999 -0.588406
2106986422 -0.11463066666666667 -0.5920053333333333
2108472301 -0.11840833333333334 -0.592657
2109958180 -0.11337166666666666 -0.5952523333333334
2111444059 -0.11482866666666665 -0.5955656666666667
2112929938 -0.116564 -0.5960466666666666
2114415817 -0.11991766666666666 -0.5991
2115901696 -0.11331766666666666 -0.6006146666666666
2117387575 -0.11743766666666666 -0.5980333333333333
2118873454 -0.108315 -0.5516243333333333
2120359333 -0.11208866666666664 -0.5972316666666666
2121845212 -0.11340833333333333 -0.599653
2123331091 -0.115732 -0.593322
2124816970 -0.115886 -0.5937943333333333
2126302849 -0.11167166666666664 -0.5929326666666667
2127788728 -0.11549833333333333 -0.588418
2129274607 -0.11244433333333333 -0.5861873333333333
2130760486 -0.11414666666666665 -0.585374
2132246365 -0.122133 -0.5809623333333332
2133732244 -0.11351166666666668 -0.591092
2135218123 -0.111869 -0.5933186666666665
2136704002 -0.11392233333333332 -0.5961253333333333
2138189881 -0.11398166666666666 -0.5974226666666667
2139675760 -0.11352899999999999 -0.5981976666666666
2141161639 -0.10902966666666666 -0.6003173333333334
2142647518 -0.11765133333333333 -0.5980456666666666
2144133397 -0.10935099999999999 -0.5988563333333334
2145619276 -0.11334666666666667 -0.5960746666666666
2147105155 -0.10940899999999999 -0.5985236666666666
2148591034 -0.11323266666666666 -0.594891
2150076913 -0.10652666666666666 -0.5956116666666667
2151562792 -0.109249 -0.592707
2153048671 -0.107126 -0.5922346666666667
2154534550 -0.10371066666666665 -0.5887873333333333
2156020429 -0.10731966666666666 -0.5871003333333333
2157506308 -0.10759133333333333 -0.5798733333333332
2158992187 -0.10534199999999999 -0.5812893333333333
2160478066 -0.10598999999999999 -0.5779906666666667
2161963945 -0.11257133333333333 -0.581146
2163449824 -0.11100899999999998 -0.5860486666666667
2164935703 -0.11324666666666668 -0.5848393333333333
2166421582 -0.11610866666666667 -0.587151
2167907461 -0.11038999999999999 -0.5902573333333333
2169393340 -0.115035 -0.5917403333333333
2170879219 -0.12085399999999999 -0.5904496666666667
2172365098 -0.09466066666666667 -0.6169313333333333
2173850977 -0.12123333333333333 -0.5947279999999999
2175336856 -0.11833833333333334 -0.5916676666666667
2176822735 -0.12051466666666666 -0.5919596666666667
2178308614 -0.11859199999999999 -0.593559
2179794493 -0.11718633333333334 -0.5892943333333334
2181280372 -0.11937966666666666 -0.5896856666666666
2182766251 -0.11862933333333332 -0.5861006666666666
2184252130 -0.12103333333333333 -0.5839923333333332
2185738009 -0.12296666666666667 -0.58536
2187223888 -0.12431366666666666 -0.5823123333333333
2188709767 -0.121125 -0.5800726666666667
2190195646 -0.12514899999999998 -0.5792403333333334
2191681525 -0.12229966666666665 -0.582533
2193167404 -0.12473166666666669 -0.5848183333333333
2194653283 -0.12286233333333332 -0.5881136666666666
2196139162 -0.122515 -0.5895796666666666
2197625041 -0.127294 -0.5909209999999999
2199110920 -0.12000666666666666 -0.594509
2200596799 -0.12180466666666667 -0.5959749999999999
2202082678 -0.12047033333333332 -0.5961443333333334
2203568557 -0.11892266666666665 -0.597772
2205054436 -0.12531166666666665 -0.6006076666666667
2206540315 -0.12528866666666666 -0.5998083333333333
2208026194 -0.16362066666666666 -0.6065116666666666
2209512073 -0.12354566666666666 -0.598876
2210997952 -0.12600866666666666 -0.5973403333333334
2212483831 -0.12105566666666667 -0.594535
2213969710 -0.12076033333333333 -0.59224
2215455589 -0.11972899999999999 -0.5904856666666666
2216941468 -0.124065 -0.5850123333333334
2218427347 -0.120608 -0.5841576666666666
2219913226 -0.12136266666666665 -0.5782719999999999
2221399105 -0.12259166666666665 -0.581566
2222884984 -0.12415933333333332 -0.5846593333333333
2224370863 -0.12584666666666666 -0.5890546666666667
2225856742 -0.1268293333333333 -0.591891
2227342621 -0.1259303333333333 -0.5952413333333333
2228828500 -0.131953 -0.5950366666666667
2230314379 -0.129735 -0.5956433333333333
2231800258 -0.1315703333333333 -0.599246
2233286137 -0.125147 -0.5969406666666666
2234772016 -0.12876766666666667 -0.5982243333333332
2236257895 -0.12926566666666667 -0.5970013333333333
2237743774 -0.12608199999999997 -0.5978166666666667
2239229653 -0.129485 -0.597698
2240715532 -0.13094666666666666 -0.5969943333333333
2242201411 -0.129326 -0.5954693333333332
2243687290 -0.13020933333333332 -0.594913
2245173169 -0.12763733333333332 -0.5898616666666667
2246659048 -0.12846266666666664 -0.5889986666666667
2248144927 -0.12621933333333335 -0.5844676666666666
2249630806 -0.128793 -0.5809006666666666
2251116685 -0.13039299999999998 -0.583306
2252602564 -0.1311693333333333 -0.5895803333333334
2254088443 -0.13284033333333334 -0.5899359999999999
2255574322 -0.13585666666666665 -0.5906596666666666
2257060201 -0.1373873333333333 -0.5966279999999999
2258546080 -0.13361033333333333 -0.595271
2260031959 -0.13611600000000001 -0.5973893333333333
2261517838 -0.138392 -0.6001966666666667
2263003717 -0.13788133333333333 -0.6016556666666667
2264489596 -0.14107899999999998 -0.600611
2265975475 -0.14194999999999997 -0.6030956666666667
2267461354 -0.13338033333333332 -0.6120616666666667
2268947233 -0.12706066666666666 -0.625891
2270433112 -0.14015 -0.600011
2271918991 -0.13802233333333333 -0.6003556666666666
2273404870 -0.142424 -0.5990983333333333
2274890749 -0.14004766666666665 -0.5950736666666666
2276376628 -0.13887266666666667 -0.5923590000000001
2277862507 -0.13989166666666666 -0.5917383333333333
2279348386 -0.14129433333333333 -0.5860716666666667
2280834265 -0.14041533333333334 -0.588006
2282320144 -0.1447593333333333 -0.5934636666666667
2283806023 -0.14558966666666665 -0.5935276666666667
2285291902 -0.14475133333333334 -0.596942
2286777781 -0.14256033333333332 -0.5990753333333334
2288263660 -0.146055 -0.601174
2289749539 -0.14283066666666666 -0.6029176666666666
2291235418 -0.14193433333333333 -0.604411
2292721297 -0.14213299999999998 -0.6042093333333334
2294207176 -0.1424083333333333 -0.6043706666666666
2295693055 -0.14329166666666665 -0.6037946666666667
2297178934 -0.14031466666666664 -0.6031230000000001
2298664813 -0.14317499999999997 -0.6044123333333333
2300150692 -0.13826666666666665 -0.6020063333333333
2301636571 -0.1408343333333333 -0.5989553333333333
2303122450 -0.13748633333333332 -0.5994926666666666
2304608329 -0.13396033333333335 -0.5975576666666667
2306094208 -0.13614300000000001 -0.5910193333333332
2307580087 -0.13441499999999998 -0.5892583333333332
2309065966 -0.13834433333333332 -0.5871066666666667
2310551845 -0.13184166666666666 -0.5860583333333333
2312037724 -0.14203766666666665 -0.5849506666666666
2313523603 -0.13663799999999998 -0.5910206666666666
2315009482 -0.1415253333333333 -0.5925096666666666
2316495361 -0.13899933333333334 -0.5947586666666667
2317981240 -0.145092 -0.5945553333333332
2319467119 -0.13905199999999998 -0.5992123333333332
2320952998 -0.14369499999999996 -0.5983853333333333
2322438877 -0.14171199999999998 -0.602125
2323924756 -0.14731766666666665 -0.598031
2325410635 -0.13996266666666668 -0.5975123333333332
2326896514 -0.14529833333333333 -0.596867
2328382393 -0.14009533333333332 -0.5983216666666666
2329868272 -0.14653333333333332 -0.5953583333333333
2331354151 -0.14116566666666666 -0.5926883333333333
2332840030 -0.14759033333333332 -0.59048
2334325909 -0.13951533333333332 -0.590297
2335811788 -0.14604266666666665 -0.5860556666666666
2337297667 -0.140819 -0.5862636666666666
2338783546 -0.14719466666666667 -0.5785106666666666
2340269425 -0.14258833333333332 -0.5772733333333333
2341755304 -0.15071633333333334 -0.5774710000000001
2343241183 -0.14322999999999997 -0.5849653333333332
2344727062 -0.15105433333333332 -0.5849633333333333
2346212941 -0.14248566666666665 -0.5912486666666666
2347698820 -0.15351099999999998 -0.5889066666666667
2349184699 -0.1476513333333333 -0.5950276666666667
2350670578 -0.15259899999999998 -0.5914613333333333
2352156457 -0.15217466666666665 -0.597193
2353642336 -0.1542906666666667 -0.5942806666666667
2355128215 -0.153963 -0.596528
2356614094 -0.15338966666666667 -0.595795
2358099973 -0.15176666666666666 -0.5948056666666666
2359585852 -0.147802 -0.5982736666666666
2361071731 -0.14859266666666665 -0.592652
2362557610 -0.15202666666666667 -0.5965273333333334
2364043489 -0.15053966666666668 -0.5912080000000001
2365529368 -0.15010533333333334 -0.5901316666666667
2367015247 -0.15048833333333334 -0.5886696666666666
2368501126 -0.151929 -0.5823683333333333
2369987005 -0.150758 -0.5815733333333333
2371472884 -0.14988566666666664 -0.5834916666666665
2372958763 -0.14895166666666665 -0.5874503333333334
2374444642 -0.15356766666666666 -0.5877166666666667
2375930521 -0.15008933333333332 -0.5924479999999999
2377416400 -0.15322199999999997 -0.5890463333333333
2378902279 -0.155508 -0.5947923333333333
2380388158 -0.15688033333333332 -0.5955063333333334
2381874037 -0.15763266666666667 -0.59778
2383359916 -0.15703866666666666 -0.5977066666666666
2384845795 -0.15707899999999997 -0.599183
2386331674 -0.159833 -0.5976443333333332
2387817553 -0.16051033333333334 -0.6005683333333333
2389303432 -0.15934866666666664 -0.599204
2390789311 -0.16357866666666665 -0.5984506666666667
2392275190 -0.15660199999999996 -0.59264
2393761069 -0.16203299999999998 -0.5953573333333333
2395246948 -0.16579899999999997 -0.5913903333333332
2396732827 -0.16262533333333332 -0.5885376666666666
2398218706 -0.16160333333333332 -0.586448
2399704585 -0.16359733333333332 -0.5825996666666666
2401190464 -0.16379 -0.5841099999999999
2402676343 -0.16135633333333335 -0.5855396666666666
2404162222 -0.16720333333333331 -0.5890676666666665
2405648101 -0.1646913333333333 -0.596402
2407133980 -0.167694 -0.5937616666666666
2408619859 -0.16261666666666666 -0.5970966666666666
2410105738 -0.166147 -0.5987089999999999
2411591617 -0.16696366666666665 -0.597873
2413077496 -0.16469933333333334 -0.6001063333333333
2414563375 -0.16838 -0.5981133333333333
2416049254 -0.16454833333333332 -0.6000736666666666
2417535133 -0.14849133333333334 -0.5705663333333333
2419021012 -0.16271133333333332 -0.5931343333333332
2420506891 -0.1664473333333333 -0.5958303333333332
2421992770 -0.161688 -0.5950356666666666
2423478649 -0.16112133333333334 -0.5906506666666667
2424964528 -0.162991 -0.5873483333333334
2426450407 -0.16103599999999998 -0.5913863333333333
2427936286 -0.15909299999999998 -0.5864886666666667
2429422165 -0.161631 -0.5819526666666666
2430908044 -0.15976133333333334 -0.5836633333333332
2432393923 -0.160543 -0.5847456666666666
2433879802 -0.16050066666666665 -0.586636
2435365681 -0.15964333333333333 -0.5905956666666666
2436851560 -0.16513233333333333 -0.5907359999999999
2438337439 -0.165015 -0.5937203333333333
2439823318 -0.16453966666666664 -0.5922753333333333
2441309197 -0.161025 -0.594732
2442795076 -0.16523933333333332 -0.5943016666666666
2444280955 -0.16408566666666663 -0.593664
2445766834 -0.16532666666666665 -0.5947213333333333
2447252713 -0.16764466666666666 -0.5926069999999999
2448738592 -0.16588199999999997 -0.5907216666666666
2450224471 -0.16083866666666666 -0.5922853333333333
2451710350 -0.15848566666666666 -0.59414
2453196229 -0.16438 -0.5882136666666666
2454682108 -0.16306 -0.5854136666666667
2456167987 -0.16374599999999997 -0.5840043333333333
2457653866 -0.163164 -0.58429
2459139745 -0.16341766666666666 -0.578054
2460625624 -0.16793733333333333 -0.5755646666666667
2462111503 -0.16576233333333332 -0.582973
2463597382 -0.16400766666666666 -0.5851646666666667
2465083261 -0.16105499999999998 -0.590827
2466569140 -0.16421133333333332 -0.5903780000000001
2468055019 -0.1627553333333333 -0.5925236666666666
2469540898 -0.15972999999999998 -0.5911926666666667
2471026777 -0.14670433333333333 -0.618676
2472512656 -0.15760366666666667 -0.5974243333333333
2473998535 -0.16075499999999998 -0.594592
2475484414 -0.16086233333333333 -0.5973856666666666
2476970293 -0.15346066666666666 -0.6001586666666665
2478456172 -0.16127933333333333 -0.5936676666666667
2479942051 -0.16135133333333332 -0.5934073333333334
2481427930 -0.16148099999999999 -0.5923219999999999
2482913809 -0.157392 -0.5923383333333333
2484399688 -0.16452366666666665 -0.5921446666666667
2485885567 -0.16297199999999998 -0.5861463333333333
2487371446 -0.151862 -0.5885909999999999
2488857325 -0.152889 -0.5832493333333333
2490343204 -0.158396 -0.579869
2491829083 -0.15502666666666665 -0.5816656666666666
2493314962 -0.15086666666666665 -0.5863289999999999
2494800841 -0.1544913333333333 -0.5930116666666667
2496286720 -0.15409499999999998 -0.5899996666666666
2497772599 -0.15200833333333333 -0.5946146666666666
2499258478 -0.150167 -0.596555
2500744357 -0.15317666666666668 -0.5944849999999999
2502230236 -0.14663166666666663 -0.5965303333333334
2503716115 -0.14718099999999998 -0.5991166666666666
2505201994 -0.14660833333333334 -0.5952609999999999
2506687873 -0.148825 -0.5943036666666666
2508173752 -0.14898999999999998 -0.594186
2509659631 -0.14316166666666666 -0.5962076666666666
2511145510 -0.145432 -0.5892666666666666
2512631389 -0.14332433333333333 -0.5871926666666666
2514117268 -0.14091966666666667 -0.5851686666666667
2515603147 -0.142828 -0.5806406666666667
2517089026 -0.138756 -0.5790606666666667
2518574905 -0.14199799999999999 -0.5746203333333334
2520060784 -0.14149366666666666 -0.5703306666666667
2521546663 -0.14076333333333335 -0.5768656666666667
2523032542 -0.14529599999999998 -0.5814269999999999
2524518421 -0.14971066666666666 -0.5780283333333333
2526004300 -0.15057933333333332 -0.5804493333333333
2527490179 -0.1521373333333333 -0.585852
2528976058 -0.14631933333333336 -0.5857116666666666
2530461937 -0.14811233333333332 -0.5846133333333332
2531947816 -0.15167199999999997 -0.5877203333333332
2533433695 -0.144642 -0.589912
2534919574 -0.15428199999999997 -0.5883866666666666
2536405453 -0.15045 -0.5876143333333333
2537891332 -0.158013 -0.5878769999999999
2539377211 -0.15100533333333332 -0.587564
2540863090 -0.15764599999999998 -0.5875303333333333
2542348969 -0.15810566666666664 -0.5847913333333332
2543834848 -0.15636 -0.5851496666666667
2545320727 -0.154684 -0.5800773333333333
2546806606 -0.15454333333333334 -0.5804316666666667
2548292485 -0.15762199999999998 -0.5753883333333333
2549778364 -0.159778 -0.574635
2551264243 -0.15596966666666667 -0.5799749999999999
2552750122 -0.16536833333333334 -0.5798243333333333
2554236001 -0.15936299999999998 -0.5855440000000001
2555721880 -0.16297599999999995 -0.5813583333333333
2557207759 -0.1638073333333333 -0.5877113333333333
2558693638 -0.15959133333333334 -0.5890196666666666
2560179517 -0.16642833333333332 -0.5936986666666666
2561665396 -0.16838599999999998 -0.5914626666666667
2563151275 -0.16232666666666665 -0.5942593333333333
2564637154 -0.17470466666666665 -0.5935233333333333
2566123033 -0.16925666666666667 -0.5932813333333333
2567608912 -0.171479 -0.5937896666666665
2569094791 -0.165128 -0.5913866666666666
2570580670 -0.17238233333333333 -0.5904433333333333
2572066549 -0.172423 -0.590359
2573552428 -0.16944366666666666 -0.5876569999999999
2575038307 -0.17173166666666664 -0.5856433333333333
2576524186 -0.17088033333333333 -0.5864683333333334
2578010065 -0.17346866666666663 -0.581654
2579495944 -0.16961066666666663 -0.5776613333333334
2580981823 -0.1784383333333333 -0.579855
2582467702 -0.17207333333333333 -0.5844596666666667
2583953581 -0.181537 -0.587993
2585439460 -0.177809 -0.5893583333333333
2586925339 -0.178415 -0.5928006666666666
2588411218 -0.175398 -0.5961686666666666
2589897097 -0.178188 -0.5925813333333333
2591382976 -0.17725466666666667 -0.595996
2592868855 -0.174299 -0.5941223333333332
2594354734 -0.17377166666666666 -0.5946633333333332
2595840613 -0.17308899999999997 -0.5977889999999999
2597326492 -0.1781573333333333 -0.597471
2598812371 -0.17487299999999997 -0.5939919999999999
2600298250 -0.178071 -0.597343
2601784129 -0.179394 -0.5951523333333333
2603270008 -0.17663266666666666 -0.593093
2604755887 -0.17742466666666667 -0.5913223333333333
2606241766 -0.17836466666666664 -0.5853323333333333
2607727645 -0.17082133333333333 -0.5826273333333333
2609213524 -0.17762466666666668 -0.5820156666666667
2610699403 -0.17288833333333334 -0.5781769999999999
2612185282 -0.17984533333333333 -0.5803126666666666
2613671161 -0.17663299999999998 -0.588117
2615157040 -0.18239899999999998 -0.5891139999999999
2616642919 -0.17699466666666666 -0.5906456666666666
2618128798 -0.179037 -0.5884856666666667
2619614677 -0.176786 -0.5906476666666667
2621100556 -0.195239 -0.5922489999999999
2622586435 -0.17633866666666667 -0.5928136666666666
2624072314 -0.17789333333333335 -0.589143
2625558193 -0.1768983333333333 -0.5938836666666667
2627044072 -0.17564233333333334 -0.5907973333333333
2628529951 -0.17510766666666666 -0.589921
2630015830 -0.18142799999999998 -0.5892616666666667
2631501709 -0.17697533333333332 -0.5849016666666667
2632987588 -0.178809 -0.5843456666666667
2634473467 -0.17817466666666665 -0.5811553333333332
2635959346 -0.1745783333333333 -0.576147
2637445225 -0.178634 -0.574948
2638931104 -0.179472 -0.5688133333333334
2640416983 -0.180032 -0.5674429999999999
2641902862 -0.18634666666666666 -0.5718179999999999
2643388741 -0.18302599999999997 -0.5754793333333332
2644874620 -0.185731 -0.57577
2646360499 -0.18704333333333334 -0.5797046666666665
2647846378 -0.19033899999999998 -0.5850219999999999
2649332257 -0.18719333333333332 -0.5895946666666666
2650818136 -0.18657166666666664 -0.5857193333333333
2652304015 -0.19361666666666666 -0.5913646666666665
2653789894 -0.18625033333333332 -0.5929533333333332
2655275773 -0.18971433333333332 -0.5906879999999999
2656761652 -0.19036366666666665 -0.5904243333333332
2658247531 -0.18919133333333332 -0.5902806666666667
2659733410 -0.18919599999999998 -0.5918703333333333
2661219289 -0.1834543333333333 -0.5881053333333333
2662705168 -0.18726966666666667 -0.5859896666666666
2664191047 -0.18621733333333335 -0.5873833333333334
2665676926 -0.185495 -0.5854836666666667
2667162805 -0.186025 -0.5847813333333333
2668648684 -0.18868999999999997 -0.5798263333333332
2670134563 -0.183781 -0.5771926666666666
2671620442 -0.18802266666666667 -0.5819473333333334
2673106321 -0.19121466666666667 -0.5833200000000001
2674592200 -0.18894833333333333 -0.5873953333333334
2676078079 -0.18633666666666665 -0.5889726666666666
2677563958 -0.18936666666666668 -0.5936513333333333
2679049837 -0.19035433333333332 -0.593654
2680535716 -0.18704266666666663 -0.5953296666666668
2682021595 -0.18494100000000002 -0.5977196666666665
2683507474 -0.18759066666666668 -0.5995699999999999
2684993353 -0.18599000000000002 -0.5994543333333332
2686479232 -0.18370666666666668 -0.598397
2687965111 -0.18374566666666664 -0.599842
2689450990 -0.18344666666666667 -0.59764
2690936869 -0.179966 -0.5959416666666667
2692422748 -0.18034299999999998 -0.5932486666666665
2693908627 -0.17984433333333333 -0.592301
2695394506 -0.17721 -0.588224
2696880385 -0.17568 -0.5853683333333333
2698366264 -0.17705566666666664 -0.5839343333333333
2699852143 -0.178898 -0.5766259999999999
2701338022 -0.1738053333333333 -0.584864
2702823901 -0.17607999999999996 -0.5854056666666667
2704309780 -0.17715766666666666 -0.5874550000000001
2705795659 -0.17781766666666668 -0.5908613333333332
2707281538 -0.17782399999999998 -0.588854
2708767417 -0.17712399999999998 -0.5936953333333334
2710253296 -0.180232 -0.592487
2711739175 -0.178145 -0.5917006666666667
2713225054 -0.1770763333333333 -0.5948659999999999
2714710933 -0.17577366666666663 -0.5949976666666666
2716196812 -0.178843 -0.5948773333333333
2717682691 -0.17915266666666665 -0.5945753333333332
2719168570 -0.174724 -0.5866633333333333
2720654449 -0.1791856666666667 -0.5907079999999999
2722140328 -0.18048799999999998 -0.5912763333333333
2723626207 -0.18004599999999998 -0.5896406666666667
2725112086 -0.17590299999999998 -0.5884389999999999
2726597965 -0.1769983333333333 -0.5819723333333333
2728083844 -0.17578966666666665 -0.5802043333333333
2729569723 -0.18022433333333332 -0.579612
2731055602 -0.17784033333333332 -0.5792773333333333
2732541481 -0.1772293333333333 -0.5847233333333333
2734027360 -0.18553866666666666 -0.5858663333333333
2735513239 -0.18042399999999997 -0.587278
2736999118 -0.18321633333333334 -0.5866773333333333
2738484997 -0.183461 -0.591874
2739970876 -0.180585 -0.589378
2741456755 -0.18233233333333332 -0.5931746666666666
2742942634 -0.18624166666666664 -0.5938063333333333
2744428513 -0.18630533333333332 -0.5916399999999999
2745914392 -0.18283033333333332 -0.5910986666666667
2747400271 -0.18677899999999997 -0.5934536666666665
2748886150 -0.18942966666666666 -0.589269
2750372029 -0.18609 -0.592474
2751857908 -0.18563366666666664 -0.5945646666666666
2753343787 -0.18823099999999998 -0.5879873333333332
2754829666 -0.185566 -0.5873406666666666
2756315545 -0.18704966666666667 -0.584367
2757801424 -0.18905733333333333 -0.5849929999999999
2759287303 -0.19132633333333332 -0.580012
2760773182 -0.18959199999999998 -0.5825103333333332
2762259061 -0.19169399999999998 -0.5850703333333334
2763744940 -0.19141033333333335 -0.5839803333333333
2765230819 -0.19421933333333333 -0.5861669999999999
2766716698 -0.19199833333333333 -0.587914
2768202577 -0.19023199999999998 -0.5906996666666666
2769688456 -0.19151633333333332 -0.5913266666666666
2771174335 -0.19031866666666666 -0.595359
2772660214 -0.201065 -0.6008553333333333
2774146093 -0.19242399999999998 -0.5965713333333333
2775631972 -0.19033133333333332 -0.5933556666666666
2777117851 -0.18804499999999996 -0.5930856666666666
2778603730 -0.19770199999999996 -0.5973943333333334
2780089609 -0.19091733333333333 -0.5945533333333333
2781575488 -0.19054433333333334 -0.5926096666666667
2783061367 -0.18833433333333333 -0.5906386666666666
2784547246 -0.19031033333333336 -0.5883076666666667
2786033125 -0.188904 -0.5852953333333333
2787519004 -0.19172233333333333 -0.5817083333333333
2789004883 -0.19148866666666667 -0.5802373333333333
2790490762 -0.19207200000000002 -0.5783263333333333
2791976641 -0.192117 -0.5786203333333333
2793462520 -0.19342399999999998 -0.5827856666666666
2794948399 -0.191023 -0.5836123333333332
2796434278 -0.18897733333333333 -0.5831369999999999
2797920157 -0.1896743333333333 -0.5866823333333333
2799406036 -0.19134066666666666 -0.5839606666666667
2800891915 -0.191984 -0.5836613333333333
2802377794 -0.187492 -0.5874903333333333
2803863673 -0.19023266666666666 -0.588225
2805349552 -0.189898 -0.585664
2806835431 -0.1919973333333333 -0.5843133333333332
2808321310 -0.192541 -0.5815876666666666
2809807189 -0.1902183333333333 -0.5838326666666666
2811293068 -0.18896233333333334 -0.579132
2812778947 -0.19130866666666663 -0.5794239999999999
2814264826 -0.18849433333333332 -0.5723309999999999
2815750705 -0.18751933333333332 -0.5707906666666667
2817236584 -0.18803666666666666 -0.5694046666666666
2818722463 -0.1904103333333333 -0.5614559999999998
2820208342 -0.196928 -0.565769
2821694221 -0.191816 -0.574942
2823180100 -0.19310466666666665 -0.5735906666666667
2824665979 -0.19367099999999998 -0.5776303333333332
2826151858 -0.19728799999999996 -0.577127
2827637737 -0.19335066666666667 -0.5865506666666667
2829123616 -0.19432833333333335 -0.5789343333333332
2830609495 -0.19041866666666665 -0.5914476666666666
2832095374 -0.19092266666666668 -0.589189
2833581253 -0.192854 -0.592414
2835067132 -0.18941299999999997 -0.5843456666666667
2836553011 -0.18650099999999997 -0.5948783333333334
2838038890 -0.186441 -0.5885126666666667
2839524769 -0.18852566666666665 -0.5900456666666667
2841010648 -0.19201533333333332 -0.5845019999999999
2842496527 -0.18449133333333334 -0.5867249999999999
2843982406 -0.18703433333333333 -0.5861413333333334
2845468285 -0.1873963333333333 -0.5790176666666667
2846954164 -0.188936 -0.5737156666666666
2848440043 -0.18766566666666665 -0.5739843333333333
2849925922 -0.18611099999999997 -0.5733186666666665
2851411801 -0.18412833333333334 -0.5855496666666666
2852897680 -0.18184833333333333 -0.5815453333333332
2854383559 -0.18450666666666665 -0.5759519999999999
2855869438 -0.1850603333333333 -0.580378
2857355317 -0.18593133333333334 -0.5833963333333333
2858841196 -0.188351 -0.5829453333333332
2860327075 -0.19693666666666665 -0.5808709999999999
2861812954 -0.18772033333333332 -0.584611
2863298833 -0.1939226666666667 -0.5816463333333333
2864784712 -0.19203433333333333 -0.584377
2866270591 -0.1864853333333333 -0.576602
2867756470 -0.19707999999999998 -0.5767993333333332
2869242349 -0.19269266666666668 -0.6140243333333333
2870728228 -0.19450933333333334 -0.57626
2872214107 -0.19152000000000002 -0.5800383333333334
2873699986 -0.18994933333333333 -0.57565
2875185865 -0.19864533333333334 -0.5711736666666667
2876671744 -0.20170666666666665 -0.56602
2878157623 -0.197059 -0.5648313333333334
2879643502 -0.2004763333333333 -0.5576283333333333
2881129381 -0.1994166666666667 -0.5608026666666667
2882615260 -0.19913133333333333 -0.564255
2884101139 -0.20062966666666665 -0.5673693333333333
2885587018 -0.21049666666666667 -0.5668433333333334
2887072897 -0.20158566666666666 -0.5779369999999999
2888558776 -0.20485199999999998 -0.5756816666666666
2890044655 -0.20222600000000002 -0.5777306666666666
2891530534 -0.20726033333333332 -0.5775996666666666
2893016413 -0.20725466666666664 -0.577548
2894502292 -0.206673 -0.5803159999999999
2895988171 -0.20977233333333334 -0.5795813333333333
2897474050 -0.20451266666666662 -0.5816296666666667
2898959929 -0.20334399999999997 -0.5784213333333332
2900445808 -0.208075 -0.5794336666666666
2901931687 -0.20518066666666668 -0.5775816666666667
2903417566 -0.20404533333333333 -0.577725
2904903445 -0.194648 -0.5777713333333333
2906389324 -0.20130933333333334 -0.572261
2907875203 -0.2041683333333333 -0.5718366666666667
2909361082 -0.20075733333333334 -0.5664929999999999
2910846961 -0.19935566666666665 -0.5669496666666667
2912332840 -0.1953413333333333 -0.5723253333333332
2913818719 -0.20684833333333333 -0.57517
2915304598 -0.200751 -0.5781706666666666
2916790477 -0.21035066666666663 -0.5775093333333332
2918276356 -0.21017366666666665 -0.582174
2919762235 -0.20675366666666664 -0.5839216666666667
2921248114 -0.20716566666666664 -0.5842476666666666
2922733993 -0.19479933333333332 -0.5944283333333333
2924219872 -0.20718166666666665 -0.5854903333333333
2925705751 -0.20694366666666666 -0.5887026666666666
2927191630 -0.211918 -0.5870653333333333
2928677509 -0.20513033333333333 -0.5867833333333332
2930163388 -0.20787899999999998 -0.5851866666666666
2931649267 -0.20688266666666666 -0.58508
2933135146 -0.21246233333333334 -0.5816086666666666
2934621025 -0.20413066666666668 -0.5807576666666666
2936106904 -0.206814 -0.5800286666666666
2937592783 -0.20607199999999998 -0.5774603333333334
2939078662 -0.20896733333333334 -0.5752826666666666
2940564541 -0.20479166666666665 -0.5703636666666667
2942050420 -0.214463 -0.5730486666666665
2943536299 -0.21053933333333333 -0.5766093333333333
2945022178 -0.21249933333333332 -0.5776213333333332
2946508057 -0.21152700000000002 -0.5803833333333334
2947993936 -0.212476 -0.5812763333333333
2949479815 -0.21588433333333334 -0.581843
2950965694 -0.21751933333333331 -0.582077
2952451573 -0.21694099999999997 -0.5823716666666666
2953937452 -0.2136803333333333 -0.5817546666666666
2955423331 -0.21624466666666664 -0.5800116666666666
2956909210 -0.21241499999999996 -0.5805996666666666
2958395089 -0.213298 -0.579662
2959880968 -0.21320499999999998 -0.5757753333333332
2961366847 -0.20966466666666667 -0.5749083333333332
2962852726 -0.212229 -0.5737153333333334
2964338605 -0.20865333333333336 -0.5711876666666665
2965824484 -0.21009733333333336 -0.568349
2967310363 -0.20685599999999998 -0.5655333333333333
2968796242 -0.209032 -0.5605373333333333
2970282121 -0.20522633333333332 -0.5545626666666666
2971768000 -0.2075913333333333 -0.556523
2973253879 -0.21575533333333333 -0.561387
2974739758 -0.20966166666666666 -0.5633253333333333
2976225637 -0.21289800000000003 -0.5670706666666666
2977711516 -0.21644666666666668 -0.5631959999999999
2979197395 -0.21771333333333334 -0.5742926666666667
2980683274 -0.21682866666666667 -0.5740643333333333
2982169153 -0.21962766666666667 -0.5749463333333333
2983655032 -0.21805 -0.5739716666666665
2985140911 -0.2172383333333333 -0.5765179999999999
2986626790 -0.22121466666666667 -0.5765483333333333
2988112669 -0.22024266666666664 -0.577457
2989598548 -0.22012666666666664 -0.5748056666666667
2991084427 -0.21924166666666667 -0.5773666666666666
2992570306 -0.21716466666666667 -0.5729336666666667
2994056185 -0.22060033333333331 -0.5786223333333333
2995542064 -0.221208 -0.5707206666666665
2997027943 -0.21874966666666668 -0.570302
2998513822 -0.2083443333333333 -0.5672159999999999
2999999701 -0.2132873333333333 -0.569284
