# HZ S RI R 50
10000 0.48423099999999997 -0.11870899999999998
1495879 -0.6253633333333333 0.8330956666666666
2981758 -0.004188666666666667 0.36595066666666665
4467637 0.009271999999999999 0.17872033333333331
5953516 0.013482666666666665 0.10908666666666667
7439395 0.013172 0.07540066666666667
8925274 0.047753 -0.06487733333333331
10411153 0.035422666666666665 -0.054795333333333335
11897032 0.027500333333333335 -0.046791
13382911 0.020840666666666664 -0.04232233333333333
14868790 0.014876 -0.038271
16354669 0.012885666666666665 -0.03479866666666667
17840548 0.009686 -0.03288666666666666
19326427 0.007096333333333333 -0.031042000000000004
20812306 0.005128666666666667 -0.029302
22298185 0.003274333333333333 -0.028215999999999998
23784064 0.0019886666666666664 -0.026888333333333334
25269943 0.000633 -0.025896000000000002
26755822 -0.0005686666666666666 -0.02502566666666667
28241701 -0.001366 -0.02413466666666667
29727580 -0.00224 -0.023481666666666665
31213459 -0.002547666666666667 -0.023848666666666664
32699338 -0.0024986666666666664 -0.024295666666666667
34185217 -0.0026769999999999997 -0.024697666666666666
35671096 -0.0029003333333333333 -0.025277333333333332
37156975 -0.0034556666666666668 -0.025937666666666664
38642854 -0.004166333333333333 -0.026650666666666663
40128733 -0.0050606666666666664 -0.027326666666666666
41614612 -0.0063423333333333335 -0.028154
43100491 -0.008081 -0.029101999999999996
44586370 -0.010948666666666666 -0.030052
46072249 -0.014567333333333335 -0.031358333333333335
47558128 -0.020941 -0.033159666666666664
49044007 -0.030228333333333333 -0.03643066666666667
50529886 -0.046783 -0.04240366666666667
52015765 -0.07930599999999999 -0.05630133333333333
53501644 -0.15014033333333332 -0.11058366666666666
54987523 -0.19140366666666667 -0.4469433333333333
56473402 0.3394526666666667 -0.28296066666666664
57959281 0.2574793333333333 -0.09354799999999999
59445160 0.2161 -0.04337466666666667
60931039 0.2107423333333333 -0.031867999999999994
62416918 0.2114833333333333 -0.033745
63902797 0.21159599999999995 -0.03526
65388676 0.21188866666666667 -0.037367
66874555 0.21283999999999997 -0.03765966666666666
68360434 0.20735266666666666 -0.05147466666666667
69846313 0.21581033333333333 -0.03434366666666667
71332192 0.21580966666666668 -0.03464033333333333
72818071 0.21383533333333332 -0.042001666666666666
74303950 0.2137613333333333 -0.040949
75789829 0.21872566666666665 -0.030076333333333333
77275708 0.21859933333333337 -0.03243733333333333
78761587 0.21839599999999998 -0.031120666666666665
80247466 0.20958900000000003 -0.051986000000000004
81733345 0.21252966666666664 -0.043675
83219224 0.21169466666666664 -0.04596166666666666
84705103 0.20906166666666665 -0.051369
86190982 0.21798566666666666 -0.029813666666666662
87676861 0.20845066666666667 -0.05076866666666666
89162740 0.208874 -0.04688633333333332
90648619 0.20759666666666665 -0.05038733333333334
92134498 0.20831666666666665 -0.05097966666666666
93620377 0.21227366666666664 -0.046312
95106256 0.211183 -0.05200466666666666
96592135 0.21236933333333333 -0.050939
98078014 0.213366 -0.051512
99563893 0.214151 -0.051309666666666656
101049772 0.21342266666666668 -0.05319566666666667
102535651 0.21326233333333333 -0.05452933333333333
104021530 0.2134023333333333 -0.05479066666666667
105507409 0.2133133333333333 -0.05580266666666667
106993288 0.21291766666666662 -0.05599333333333334
108479167 0.21339966666666665 -0.057306
109965046 0.212367 -0.057126666666666666
111450925 0.2131173333333333 -0.058158333333333326
112936804 0.21180366666666667 -0.058411000000000005
114422683 0.2107113333333333 -0.05935866666666667
115908562 0.20998966666666666 -0.05895433333333333
117394441 0.20854733333333333 -0.06012033333333333
118880320 0.20915666666666666 -0.060511333333333334
120366199 0.20754966666666666 -0.06184099999999999
121852078 0.20858266666666664 -0.06209866666666666
123337957 0.20909966666666668 -0.06373666666666666
124823836 0.21013566666666667 -0.065076
126309715 0.21131933333333333 -0.06531433333333332
127795594 0.211524 -0.066146
129281473 0.21199266666666666 -0.06645466666666666
130767352 0.21300133333333332 -0.068042
132253231 0.21234599999999998 -0.06852866666666665
133739110 0.21312266666666663 -0.06880333333333334
135224989 0.20985666666666664 -0.06931099999999998
136710868 0.21028799999999997 -0.07037233333333333
138196747 0.20990099999999995 -0.07075733333333334
139682626 0.2097153333333333 -0.07200866666666667
141168505 0.20932699999999999 -0.07217266666666666
142654384 0.20915266666666668 -0.07233233333333333
144140263 0.20837366666666668 -0.07286833333333333
145626142 0.207681 -0.07284633333333332
147112021 0.20689466666666667 -0.074513
148597900 0.20567066666666667 -0.07477266666666665
150083779 0.20493233333333333 -0.07486
151569658 0.20528633333333335 -0.07590666666666666
153055537 0.20661033333333334 -0.07720833333333332
154541416 0.20700533333333332 -0.07846466666666665
156027295 0.20779066666666668 -0.07922799999999999
157513174 0.20761466666666664 -0.08062466666666666
158999053 0.20846699999999999 -0.081061
160484932 0.20915433333333333 -0.081654
161970811 0.20890866666666663 -0.08244333333333333
163456690 0.20905366666666664 -0.08308466666666665
164942569 0.20930066666666663 -0.08409833333333333
166428448 0.2086583333333333 -0.08502100000000001
167914327 0.20858733333333335 -0.08513966666666667
169400206 0.19427766666666668 -0.09134500000000001
170886085 0.20818099999999998 -0.08641599999999999
172371964 0.20743133333333333 -0.086457
173857843 0.20646266666666668 -0.08736899999999999
175343722 0.2056533333333333 -0.08818733333333334
176829601 0.20471866666666666 -0.08808666666666666
178315480 0.20366566666666666 -0.08859166666666665
179801359 0.20271566666666666 -0.089423
181287238 0.202785 -0.09022766666666666
182773117 0.20406766666666667 -0.09136933333333333
184258996 0.20451266666666668 -0.09266233333333332
185744875 0.20518033333333333 -0.09356533333333333
187230754 0.20560199999999998 -0.09435666666666667
188716633 0.20635166666666666 -0.094449
190202512 0.206523 -0.09575566666666666
191688391 0.2064913333333333 -0.096342
193174270 0.20679233333333336 -0.09733766666666666
194660149 0.20568766666666666 -0.09915966666666666
196146028 0.20653266666666664 -0.09839133333333333
197631907 0.20638166666666669 -0.098448
199117786 0.20574599999999998 -0.09925666666666666
200603665 0.20562033333333332 -0.099968
202089544 0.20474333333333333 -0.10021733333333334
203575423 0.2043893333333333 -0.10078033333333333
205061302 0.20312466666666665 -0.10115566666666667
206547181 0.20216800000000001 -0.10148566666666665
208033060 0.20136233333333334 -0.102083
209518939 0.19977066666666668 -0.10232333333333332
211004818 0.199765 -0.10303366666666665
212490697 0.2007503333333333 -0.10453366666666666
213976576 0.20099 -0.10491799999999998
215462455 0.202363 -0.10652433333333333
216948334 0.203058 -0.10760533333333333
218434213 0.20305033333333333 -0.10807566666666665
219920092 0.20344999999999996 -0.10925866666666667
221405971 0.20360266666666665 -0.109958
222891850 0.203806 -0.11007566666666666
224377729 0.20352433333333333 -0.11173733333333333
225863608 0.2029723333333333 -0.11177133333333333
227349487 0.20305566666666666 -0.112616
228835366 0.203089 -0.11326266666666665
230321245 0.20232333333333333 -0.11339166666666667
231807124 0.201753 -0.11440799999999998
233293003 0.20087966666666662 -0.11463566666666666
234778882 0.1999403333333333 -0.11477299999999999
236264761 0.19895933333333332 -0.11567766666666665
237750640 0.19775666666666664 -0.11628566666666665
239236519 0.19690233333333332 -0.11631599999999999
240722398 0.19643100000000002 -0.116992
242208277 0.19737266666666667 -0.11883466666666666
243694156 0.19765366666666664 -0.11919533333333333
245180035 0.19860999999999998 -0.12084400000000001
246665914 0.198935 -0.12173266666666667
248151793 0.19915233333333332 -0.12240899999999999
249637672 0.19992466666666667 -0.12330166666666666
251123551 0.19992966666666667 -0.12472466666666666
252609430 0.19980366666666666 -0.12508166666666665
254095309 0.19994466666666666 -0.12612166666666666
255581188 0.19992166666666666 -0.12675733333333333
257067067 0.19992333333333334 -0.127319
258552946 0.19932466666666665 -0.128137
260038825 0.19907399999999997 -0.12833333333333333
261524704 0.19872700000000001 -0.12911799999999998
263010583 0.197845 -0.129129
264496462 0.19694666666666666 -0.12975299999999998
265982341 0.19540933333333332 -0.13001266666666667
267468220 0.19488266666666668 -0.12994666666666665
268954099 0.19372633333333333 -0.13039099999999998
270439978 0.19342033333333333 -0.13119033333333333
271925857 0.19395766666666664 -0.1323973333333333
273411736 0.19474400000000003 -0.133471
274897615 0.1955033333333333 -0.13488866666666666
276383494 0.196002 -0.13569900000000001
277869373 0.19654033333333332 -0.13680766666666666
279355252 0.196711 -0.13798433333333332
280841131 0.19689233333333334 -0.138564
282327010 0.1971673333333333 -0.13887733333333332
283812889 0.19679799999999997 -0.139555
285298768 0.19668466666666665 -0.14038199999999998
286784647 0.19646 -0.1413623333333333
288270526 0.19656099999999999 -0.14159466666666665
289756405 0.19586333333333333 -0.14156066666666667
291242284 0.195263 -0.14225
292728163 0.194356 -0.1424123333333333
294214042 0.19368 -0.14232266666666665
295699921 0.192963 -0.14255833333333334
297185800 0.19135133333333335 -0.14298133333333335
298671679 0.19077066666666667 -0.14344366666666666
300157558 0.18902766666666665 -0.14238966666666664
301643437 0.1896256666666667 -0.14438566666666666
303129316 0.19083333333333333 -0.14600933333333332
304615195 0.19167499999999998 -0.147284
306101074 0.19229999999999997 -0.14833
307586953 0.19256766666666664 -0.14970566666666665
309072832 0.1923703333333333 -0.15022033333333332
310558711 0.19353299999999998 -0.15149533333333334
312044590 0.19343666666666665 -0.15215499999999998
313530469 0.19372033333333333 -0.15320099999999998
315016348 0.19368433333333335 -0.15278066666666668
316502227 0.193428 -0.15397833333333333
317988106 0.20414533333333332 -0.15939833333333334
319473985 0.19083733333333333 -0.1562583333333333
320959864 0.191818 -0.15486366666666665
322445743 0.1915176666666667 -0.155972
323931622 0.19084399999999996 -0.154554
325417501 0.18982466666666667 -0.15470499999999998
326903380 0.18868466666666667 -0.15525
328389259 0.18813666666666665 -0.15525099999999997
329875138 0.18642799999999998 -0.15551533333333334
331361017 0.1869863333333333 -0.15712166666666666
332846896 0.187074 -0.158355
334332775 0.18818666666666667 -0.16014866666666666
335818654 0.18823866666666667 -0.16145366666666666
337304533 0.18911133333333333 -0.16226333333333334
338790412 0.188691 -0.16349000000000002
340276291 0.18928499999999998 -0.16417133333333334
341762170 0.19009766666666666 -0.16504633333333332
343248049 0.190037 -0.16535266666666665
344733928 0.18943266666666664 -0.16685266666666668
346219807 0.18980266666666668 -0.16685399999999997
347705686 0.18994933333333333 -0.16742766666666667
349191565 0.18914133333333333 -0.16825833333333332
350677444 0.18855099999999997 -0.16845066666666667
352163323 0.1884016666666667 -0.16909966666666668
353649202 0.18623366666666666 -0.16978966666666664
355135081 0.18848866666666667 -0.16758666666666666
356620960 0.18408166666666664 -0.170149
358106839 0.18583700000000003 -0.16789333333333334
359592718 0.18227666666666664 -0.169649
361078597 0.18388466666666664 -0.16923566666666667
362564476 0.18227533333333334 -0.17279433333333333
364050355 0.1852293333333333 -0.17215733333333333
365536234 0.18356833333333333 -0.17483933333333335
367022113 0.18537466666666663 -0.17462499999999997
368507992 0.18390166666666666 -0.17800033333333332
369993871 0.1853683333333333 -0.17684133333333332
371479750 0.18300066666666664 -0.18005333333333332
372965629 0.18582066666666666 -0.178255
374451508 0.18379666666666666 -0.1810403333333333
375937387 0.18561233333333332 -0.18000233333333332
377423266 0.18352433333333332 -0.18207900000000002
378909145 0.18524333333333332 -0.180476
380395024 0.18207833333333334 -0.18268833333333334
381880903 0.1840903333333333 -0.18124166666666666
383366782 0.18070599999999998 -0.18336566666666668
384852661 0.18214733333333333 -0.18150533333333332
386338540 0.17947366666666667 -0.18316133333333334
387824419 0.18012999999999996 -0.181975
389310298 0.17651633333333333 -0.18342666666666665
390796177 0.1789683333333333 -0.18254933333333334
392282056 0.17706666666666665 -0.18596166666666664
393767935 0.179552 -0.1857683333333333
395253814 0.17762999999999998 -0.18868799999999997
396739693 0.17977966666666667 -0.18792366666666666
398225572 0.17930066666666666 -0.19003899999999999
399711451 0.17992633333333333 -0.19106033333333333
401197330 0.17998399999999998 -0.192059
402683209 0.18015333333333333 -0.192691
404169088 0.1798513333333333 -0.19366733333333333
405654967 0.1802793333333333 -0.19398566666666664
407140846 0.1791133333333333 -0.19443133333333332
408626725 0.17917799999999998 -0.19543766666666668
410112604 0.179622 -0.19465500000000002
411598483 0.17864300000000002 -0.19544133333333336
413084362 0.17891666666666664 -0.19522699999999998
414570241 0.176862 -0.19530899999999998
416056120 0.176421 -0.1958703333333333
417541999 0.17548 -0.19546
419027878 0.17450166666666667 -0.195206
420513757 0.1739833333333333 -0.19513066666666667
421999636 0.17413966666666664 -0.19702166666666665
423485515 0.17461733333333332 -0.19884466666666667
424971394 0.175141 -0.199954
426457273 0.17592966666666665 -0.20116099999999998
427943152 0.17561266666666667 -0.20254366666666668
429429031 0.175503 -0.20283466666666666
430914910 0.17659799999999998 -0.20412733333333333
432400789 0.17654833333333333 -0.20554066666666665
433886668 0.17620533333333332 -0.20496899999999998
435372547 0.17605666666666667 -0.20606933333333333
436858426 0.17549066666666663 -0.20595999999999998
438344305 0.17518599999999998 -0.20591366666666666
439830184 0.17437933333333336 -0.20682566666666663
441316063 0.174504 -0.20661866666666664
442801942 0.173959 -0.20693466666666666
444287821 0.17276533333333333 -0.20636566666666667
445773700 0.17196866666666666 -0.20680400000000002
447259579 0.17098633333333335 -0.207109
448745458 0.16924833333333333 -0.2064163333333333
450231337 0.16815499999999997 -0.20554666666666666
451717216 0.16882633333333333 -0.20770999999999998
453203095 0.16949033333333333 -0.20926599999999998
454688974 0.169364 -0.21055533333333334
456174853 0.1699013333333333 -0.21180466666666664
457660732 0.17011500000000002 -0.21305166666666667
459146611 0.17025666666666664 -0.21422433333333335
460632490 0.17047 -0.21555799999999997
462118369 0.17056466666666664 -0.21670966666666663
463604248 0.17061533333333334 -0.21694266666666664
465090127 0.170182 -0.217768
466576006 0.16948 -0.21772066666666667
468061885 0.17068166666666665 -0.21735299999999996
469547764 0.16872466666666666 -0.21873766666666664
471033643 0.16833333333333333 -0.21919066666666664
472519522 0.167655 -0.2187343333333333
474005401 0.16638666666666665 -0.218831
475491280 0.16572766666666666 -0.21874399999999997
476977159 0.1648383333333333 -0.218466
478463038 0.16404033333333332 -0.21879166666666663
479948917 0.16285033333333332 -0.21811899999999998
481434796 0.16293066666666667 -0.22037766666666664
482920675 0.16339966666666667 -0.22127366666666665
484406554 0.16366933333333333 -0.22273
485892433 0.163591 -0.2247053333333333
487378312 0.1635933333333333 -0.22568866666666665
488864191 0.16425066666666666 -0.226342
490350070 0.16742233333333334 -0.22622
491835949 0.16424533333333335 -0.22869299999999998
493321828 0.16447799999999999 -0.22921533333333333
494807707 0.164852 -0.22959566666666667
496293586 0.16410133333333332 -0.230767
497779465 0.1640563333333333 -0.23097266666666666
499265344 0.16304999999999997 -0.23121499999999998
500751223 0.163052 -0.232124
502237102 0.16271466666666667 -0.23174966666666666
503722981 0.16137866666666667 -0.231968
505208860 0.161299 -0.23203433333333334
506694739 0.16019899999999998 -0.23189700000000002
508180618 0.15978499999999998 -0.23085966666666669
509666497 0.15806866666666666 -0.23039566666666667
511152376 0.15844233333333335 -0.23207566666666668
512638255 0.15784499999999999 -0.23375366666666664
514124134 0.158546 -0.23602599999999999
515610013 0.15852666666666665 -0.23671699999999998
517095892 0.15908233333333333 -0.23764166666666667
518581771 0.15899866666666665 -0.23893333333333336
520067650 0.15908033333333332 -0.2398843333333333
521553529 0.16165233333333334 -0.23873033333333332
523039408 0.15911033333333333 -0.24137866666666666
524525287 0.159172 -0.24210933333333332
526011166 0.15831433333333333 -0.24314233333333335
527497045 0.1578443333333333 -0.2432983333333333
528982924 0.15727099999999997 -0.24242066666666667
530468803 0.15752100000000002 -0.24359066666666665
531954682 0.15676133333333334 -0.243286
533440561 0.1561773333333333 -0.24291600000000002
534926440 0.154003 -0.24348133333333333
536412319 0.15433633333333333 -0.2424683333333333
537898198 0.153605 -0.24214399999999997
539384077 0.15199633333333332 -0.24216966666666667
540869956 0.15107666666666666 -0.24299733333333334
542355835 0.15192666666666665 -0.244859
543841714 0.15248866666666663 -0.245429
545327593 0.15189466666666665 -0.247614
546813472 0.15256433333333333 -0.248772
548299351 0.15286066666666667 -0.2500146666666666
549785230 0.15250066666666667 -0.25158166666666665
551271109 0.15288266666666667 -0.25205266666666665
552756988 0.15216933333333332 -0.252761
554242867 0.1519333333333333 -0.2536506666666667
555728746 0.15146099999999998 -0.2538183333333333
557214625 0.15165466666666666 -0.2542766666666667
558700504 0.1517673333333333 -0.2545383333333333
560186383 0.151231 -0.25447833333333336
561672262 0.15022633333333332 -0.25475499999999995
563158141 0.1494653333333333 -0.25439033333333333
564644020 0.14872066666666667 -0.254631
566129899 0.148142 -0.25422233333333333
567615778 0.14727066666666666 -0.2542413333333333
569101657 0.14672366666666667 -0.253407
570587536 0.14559999999999998 -0.253482
572073415 0.14614733333333332 -0.2554183333333333
573559294 0.146571 -0.2573203333333333
575045173 0.14630733333333332 -0.25913899999999995
576531052 0.146339 -0.2601023333333333
578016931 0.14616933333333332 -0.26223966666666665
579502810 0.146382 -0.2630883333333333
580988689 0.14586433333333332 -0.26457166666666665
582474568 0.14580566666666667 -0.26534366666666664
583960447 0.145565 -0.265872
585446326 0.14565033333333333 -0.2668526666666667
586932205 0.14495499999999997 -0.26688366666666663
588418084 0.145017 -0.2671013333333333
589903963 0.14466 -0.2680163333333333
591389842 0.14454466666666665 -0.267837
592875721 0.142924 -0.267791
594361600 0.14302266666666666 -0.2678963333333333
595847479 0.14169166666666666 -0.2665673333333333
597333358 0.14074599999999998 -0.266576
598819237 0.14006366666666664 -0.2662023333333333
600305116 0.138156 -0.26592399999999994
601790995 0.1374663333333333 -0.26838300000000004
603276874 0.13998633333333332 -0.26885266666666663
604762753 0.13816633333333334 -0.2712446666666667
606248632 0.14067866666666665 -0.271928
607734511 0.13766233333333333 -0.27442999999999995
609220390 0.14149766666666666 -0.27388999999999997
610706269 0.138417 -0.2765883333333333
612192148 0.14140966666666666 -0.27604966666666664
613678027 0.13792366666666667 -0.2775806666666667
615163906 0.140733 -0.2767786666666667
616649785 0.137619 -0.2786823333333333
618135664 0.14082833333333333 -0.277853
619621543 0.14305833333333332 -0.282771
621107422 0.1399413333333333 -0.2777056666666667
622593301 0.13956933333333332 -0.278027
624079180 0.14023566666666668 -0.2764956666666667
625565059 0.13796666666666668 -0.2764793333333333
627050938 0.13706066666666666 -0.27576233333333333
628536817 0.13613499999999998 -0.27470466666666665
630022696 0.136155 -0.2738093333333333
631508575 0.13305166666666668 -0.276691
632994454 0.13353566666666664 -0.278145
634480333 0.13390733333333332 -0.28001333333333334
635966212 0.13342466666666666 -0.2812403333333333
637452091 0.13343366666666667 -0.2825373333333333
638937970 0.13251033333333334 -0.2835793333333333
640423849 0.133194 -0.28463499999999997
641909728 0.132619 -0.285064
643395607 0.132695 -0.286045
644881486 0.13260266666666665 -0.2855793333333333
646367365 0.13166233333333333 -0.28582466666666667
647853244 0.13102466666666665 -0.2857766666666666
649339123 0.131009 -0.28691866666666666
650825002 0.13026133333333334 -0.2856813333333333
652310881 0.12949999999999998 -0.2857036666666667
653796760 0.12952999999999998 -0.28508866666666666
655282639 0.128502 -0.28463399999999994
656768518 0.12737133333333334 -0.28445
658254397 0.126717 -0.284029
659740276 0.12499866666666666 -0.282478
661226155 0.124789 -0.2841969999999999
662712034 0.12419233333333332 -0.2862903333333333
664197913 0.12425266666666665 -0.2884793333333333
665683792 0.12457066666666666 -0.289232
667169671 0.12350299999999999 -0.2911513333333333
668655550 0.123849 -0.292898
670141429 0.12342366666666667 -0.29304766666666665
671627308 0.12276 -0.29547033333333333
673113187 0.12315899999999999 -0.29574466666666666
674599066 0.123277 -0.29644566666666666
676084945 0.122999 -0.2973093333333333
677570824 0.121499 -0.29759599999999997
679056703 0.12115266666666666 -0.29786466666666667
680542582 0.12072333333333332 -0.29739133333333334
682028461 0.12070066666666665 -0.297591
683514340 0.11959466666666665 -0.29764799999999997
685000219 0.11937833333333332 -0.29790066666666665
686486098 0.118668 -0.29695633333333327
687971977 0.11768266666666667 -0.296085
689457856 0.11632433333333332 -0.295623
690943735 0.11517033333333333 -0.296465
692429614 0.11657000000000001 -0.29915499999999995
693915493 0.11678 -0.30079866666666666
695401372 0.11705666666666666 -0.30314433333333335
696887251 0.11674799999999999 -0.3039273333333333
698373130 0.11751933333333332 -0.3059546666666666
699859009 0.11790133333333333 -0.30689533333333335
701344888 0.11732266666666666 -0.3078046666666666
702830767 0.117122 -0.3089803333333333
704316646 0.11733666666666667 -0.30873399999999995
705802525 0.117893 -0.30917466666666665
707288404 0.11759166666666665 -0.3105293333333333
708774283 0.117335 -0.31023233333333333
710260162 0.11824766666666665 -0.31058399999999997
711746041 0.11709399999999999 -0.310228
713231920 0.11643466666666666 -0.308627
714717799 0.117141 -0.3081953333333334
716203678 0.11590999999999999 -0.307461
717689557 0.11544433333333333 -0.3072793333333333
719175436 0.11483266666666665 -0.30719799999999997
720661315 0.113868 -0.30578066666666665
722147194 0.114718 -0.3087183333333333
723633073 0.11471499999999998 -0.3104243333333333
725118952 0.11428666666666666 -0.3119953333333333
726604831 0.11435866666666666 -0.3142546666666666
728090710 0.11381533333333332 -0.3146156666666666
729576589 0.114236 -0.3154633333333333
731062468 0.11377233333333334 -0.31752333333333327
732548347 0.11448266666666665 -0.3172043333333333
734034226 0.114846 -0.3179993333333333
735520105 0.11394466666666665 -0.31821066666666664
737005984 0.11401433333333333 -0.319368
738491863 0.11415766666666667 -0.31933399999999995
739977742 0.11336233333333331 -0.3191033333333333
741463621 0.11384133333333332 -0.3190276666666667
742949500 0.11333366666666667 -0.31833633333333333
744435379 0.11223299999999999 -0.31731699999999996
745921258 0.11257600000000001 -0.316667
747407137 0.110695 -0.31712799999999997
748893016 0.10992566666666666 -0.3156096666666667
750378895 0.108904 -0.3156623333333333
751864774 0.10856099999999999 -0.31699066666666664
753350653 0.10805733333333334 -0.318554
754836532 0.10891966666666666 -0.3207723333333333
756322411 0.10767566666666667 -0.322159
757808290 0.10670266666666667 -0.323231
759294169 0.10767666666666667 -0.32443133333333335
760780048 0.10756833333333334 -0.3261623333333333
762265927 0.10789766666666667 -0.326101
763751806 0.10649866666666666 -0.32715999999999995
765237685 0.106545 -0.32812966666666665
766723564 0.10625866666666667 -0.32860633333333333
768209443 0.10184 -0.32839999999999997
769695322 0.10089733333333331 -0.3285686666666666
771181201 0.10527266666666665 -0.328489
772667080 0.10411 -0.32769566666666666
774152959 0.10777266666666666 -0.3281339999999999
775638838 0.10303766666666667 -0.32713966666666666
777124717 0.10248133333333333 -0.3263586666666667
778610596 0.100981 -0.32566766666666663
780096475 0.100693 -0.32419166666666666
781582354 0.100284 -0.3265343333333333
783068233 0.09966166666666665 -0.328473
784554112 0.099952 -0.33081466666666665
786039991 0.09989933333333334 -0.331667
787525870 0.09936233333333333 -0.3334303333333333
789011749 0.09935533333333332 -0.334657
790497628 0.099684 -0.336043
791983507 0.09981666666666666 -0.3361533333333333
793469386 0.09995433333333333 -0.33781633333333333
794955265 0.09874033333333333 -0.3384809999999999
796441144 0.09905066666666665 -0.3392633333333333
797927023 0.096649 -0.3394973333333333
799412902 0.09893999999999999 -0.3392583333333333
800898781 0.09670333333333332 -0.338205
802384660 0.09854066666666667 -0.33799999999999997
803870539 0.09540066666666666 -0.33794199999999996
805356418 0.09738133333333333 -0.33707866666666664
806842297 0.09495366666666666 -0.3359726666666667
808328176 0.096216 -0.335039
809814055 0.09303799999999998 -0.3343386666666667
811299934 0.09550399999999999 -0.33570666666666665
812785813 0.09284366666666666 -0.33744833333333335
814271692 0.09482833333333332 -0.33937433333333333
815757571 0.09180133333333332 -0.34204633333333334
817243450 0.09356633333333332 -0.34214
818729329 0.09282533333333333 -0.34351
820215208 0.09470799999999999 -0.345095
821701087 0.08220766666666665 -0.34043599999999996
823186966 0.09352433333333333 -0.3470226666666667
824672845 0.09119433333333334 -0.3469466666666666
826158724 0.09468233333333333 -0.347244
827644603 0.09120799999999998 -0.3478406666666667
829130482 0.09263733333333332 -0.34740533333333334
830616361 0.090008 -0.3475896666666667
832102240 0.09065333333333334 -0.3468423333333333
833588119 0.09011433333333332 -0.3465836666666666
835073998 0.09309833333333334 -0.3454283333333333
836559877 0.08854199999999998 -0.3453333333333333
838045756 0.092078 -0.34254799999999996
839531635 0.08703233333333334 -0.342862
841017514 0.09164566666666665 -0.34305499999999994
842503393 0.08731999999999998 -0.3454986666666667
843989272 0.08897899999999999 -0.3476193333333333
845475151 0.08443566666666666 -0.34949433333333335
846961030 0.090191 -0.35085333333333335
848446909 0.084979 -0.35258033333333333
849932788 0.08872066666666667 -0.35325966666666664
851418667 0.08484033333333332 -0.35463500000000003
852904546 0.088489 -0.355241
854390425 0.08320866666666667 -0.355743
855876304 0.08790366666666666 -0.35654366666666665
857362183 0.08308466666666665 -0.356965
858848062 0.08727666666666667 -0.35623133333333334
860333941 0.08271300000000001 -0.3567083333333333
861819820 0.08531266666666666 -0.355608
863305699 0.08117466666666666 -0.3564243333333333
864791578 0.084983 -0.354155
866277457 0.08058333333333333 -0.3545539999999999
867763336 0.08473399999999999 -0.3522976666666667
869249215 0.080049 -0.35262333333333334
870735094 0.082979 -0.35230966666666663
872220973 0.07864466666666667 -0.3549689999999999
873706852 0.08156933333333333 -0.3566643333333333
875192731 0.07865266666666666 -0.35859399999999997
876678610 0.08134799999999999 -0.35935866666666666
878164489 0.07693166666666666 -0.36091566666666663
879650368 0.08038066666666667 -0.36249200000000004
881136247 0.07614333333333334 -0.36334099999999997
882622126 0.079843 -0.36408166666666664
884108005 0.07754333333333333 -0.365231
885593884 0.07706333333333333 -0.36505333333333334
887079763 0.07725233333333334 -0.3646653333333333
888565642 0.07683633333333333 -0.3659246666666667
890051521 0.07588 -0.36535933333333337
891537400 0.07664833333333333 -0.36626699999999995
893023279 0.07600533333333333 -0.36558766666666664
894509158 0.07536766666666667 -0.36443733333333334
895995037 0.075567 -0.3632483333333334
897480916 0.07330433333333332 -0.3626776666666667
898966795 0.073709 -0.361703
900452674 0.07287233333333333 -0.36191
901938553 0.072141 -0.36345099999999997
903424432 0.07292799999999999 -0.36493333333333333
904910311 0.07227566666666665 -0.36619199999999996
906396190 0.07177866666666666 -0.3680163333333333
907882069 0.07172833333333332 -0.36947033333333335
909367948 0.072235 -0.370584
910853827 0.07195433333333333 -0.3709606666666666
912339706 0.07114166666666666 -0.37157966666666664
913825585 0.07220333333333333 -0.37261799999999995
915311464 0.07192033333333332 -0.3722536666666667
916797343 0.07158066666666665 -0.37246999999999997
918283222 0.07109299999999999 -0.37279033333333333
919769101 0.06279833333333332 -0.371106
921254980 0.07109066666666666 -0.37206866666666666
922740859 0.07043266666666666 -0.3715233333333333
924226738 0.07006066666666666 -0.3698493333333333
925712617 0.07085266666666665 -0.36879966666666664
927198496 0.06924733333333333 -0.3678846666666667
928684375 0.068989 -0.366385
930170254 0.06889066666666667 -0.36578133333333335
931656133 0.06809833333333333 -0.36822033333333337
933142012 0.06786166666666667 -0.369457
934627891 0.06710466666666667 -0.37115466666666663
936113770 0.067334 -0.37303
937599649 0.06622733333333333 -0.3748313333333333
939085528 0.06637066666666666 -0.37582899999999997
940571407 0.06572799999999998 -0.37630499999999995
942057286 0.064953 -0.37844533333333336
943543165 0.061332333333333336 -0.3780036666666666
945029044 0.06291666666666666 -0.3792046666666667
946514923 0.06550733333333333 -0.37853499999999995
948000802 0.06493099999999999 -0.3796533333333333
949486681 0.06439766666666666 -0.3800296666666667
950972560 0.064025 -0.3796116666666667
952458439 0.06427366666666667 -0.37915866666666664
953944318 0.06371566666666667 -0.37891199999999997
955430197 0.06389133333333333 -0.3776453333333333
956916076 0.06244233333333333 -0.3769803333333333
958401955 0.061103 -0.37535133333333326
959887834 0.060545666666666664 -0.374002
961373713 0.05977433333333333 -0.3759436666666667
962859592 0.060227 -0.37856433333333334
964345471 0.060272 -0.37989066666666665
965831350 0.059617666666666666 -0.38150633333333334
967317229 0.06072333333333333 -0.382906
968803108 0.060129666666666665 -0.3845236666666667
970288987 0.058829 -0.38606299999999993
971774866 0.05972433333333333 -0.38648133333333334
973260745 0.06756233333333334 -0.3886126666666666
974746624 0.06085966666666666 -0.38809533333333335
976232503 0.05992533333333333 -0.38819066666666663
977718382 0.058634 -0.3878693333333333
979204261 0.05891966666666666 -0.38739466666666666
980690140 0.059329 -0.3872516666666666
982176019 0.056988 -0.3860916666666666
983661898 0.057196 -0.38659066666666664
985147777 0.057535 -0.38460666666666665
986633656 0.05734399999999999 -0.384212
988119535 0.057460333333333335 -0.38268199999999997
989605414 0.05599066666666667 -0.381681
991091293 0.05567999999999999 -0.3823813333333333
992577172 0.056014666666666664 -0.3846596666666667
994063051 0.055413000000000004 -0.3861206666666666
995548930 0.054641 -0.3874803333333333
997034809 0.054273666666666665 -0.389719
998520688 0.05401366666666667 -0.39036366666666666
1000006567 0.054150333333333335 -0.391854
1001492446 0.05329766666666667 -0.3930093333333333
1002978325 0.052662999999999995 -0.39360399999999995
1004464204 0.05218433333333333 -0.393845
1005950083 0.05209966666666666 -0.393649
1007435962 0.05234766666666666 -0.39340766666666666
1008921841 0.051483 -0.3932446666666667
1010407720 0.051105333333333336 -0.39309499999999997
1011893599 0.050582999999999996 -0.3931733333333334
1013379478 0.04911833333333333 -0.3914686666666667
1014865357 0.049953 -0.39094999999999996
1016351236 0.04917766666666666 -0.39002566666666666
1017837115 0.04797066666666666 -0.38886899999999996
1019322994 0.048214999999999994 -0.3862
1020808873 0.04753133333333333 -0.38771466666666665
1022294752 0.04660533333333333 -0.39035
1023780631 0.047322666666666666 -0.392067
1025266510 0.04484866666666666 -0.394868
1026752389 0.04444499999999999 -0.3959816666666667
1028238268 0.04400233333333334 -0.3973526666666667
1029724147 0.044777333333333336 -0.398346
1031210026 0.044463333333333334 -0.3991863333333333
1032695905 0.04327 -0.40023733333333333
1034181784 0.042931 -0.40091866666666665
1035667663 0.043035 -0.401763
1037153542 0.04299833333333333 -0.40185666666666664
1038639421 0.042179333333333326 -0.4018676666666666
1040125300 0.04254566666666666 -0.4021063333333333
1041611179 0.042179 -0.401446
1043097058 0.04224699999999999 -0.40048399999999995
1044582937 0.04148266666666666 -0.40015199999999995
1046068816 0.04135933333333333 -0.39938266666666666
1047554695 0.04026366666666667 -0.39804533333333325
1049040574 0.03979 -0.39518333333333333
1050526453 0.039870666666666665 -0.39568933333333334
1052012332 0.03871433333333333 -0.3989023333333333
1053498211 0.03983233333333333 -0.40079166666666666
1054984090 0.037526333333333335 -0.401583
1056469969 0.037218999999999995 -0.4046759999999999
1057955848 0.03682933333333333 -0.4057013333333333
1059441727 0.037527 -0.4068513333333333
1060927606 0.037814999999999994 -0.4078873333333333
1062413485 0.03734533333333333 -0.40900666666666663
1063899364 0.03823466666666667 -0.40872899999999995
1065385243 0.038147 -0.40960266666666667
1066871122 0.037718 -0.4087073333333333
1068357001 0.034691333333333324 -0.4081436666666667
1069842880 0.028984333333333334 -0.398292
1071328759 0.03890166666666667 -0.4084346666666666
1072814638 0.03906 -0.40726633333333334
1074300517 0.03800933333333333 -0.40591099999999997
1075786396 0.03594733333333333 -0.4050936666666667
1077272275 0.036990999999999996 -0.40279266666666663
1078758154 0.03752266666666666 -0.401529
1080244033 0.03541966666666666 -0.4010986666666666
1081729912 0.03520333333333333 -0.4027133333333333
1083215791 0.03516766666666666 -0.4049269999999999
1084701670 0.035232999999999993 -0.4064663333333334
1086187549 0.03448266666666666 -0.4087253333333333
1087673428 0.033676333333333336 -0.40935900000000003
1089159307 0.033216 -0.41045833333333326
1090645186 0.033721666666666664 -0.4119993333333333
1092131065 0.03278 -0.41245166666666666
1093616944 0.034036666666666666 -0.4124456666666667
1095102823 0.033584666666666665 -0.41345666666666664
1096588702 0.033555666666666664 -0.4130986666666666
1098074581 0.03257333333333333 -0.41296866666666665
1099560460 0.032964999999999994 -0.41266566666666665
1101046339 0.03173566666666667 -0.412747
1102532218 0.031287333333333334 -0.4110303333333333
1104018097 0.032164 -0.40970433333333334
1105503976 0.031108999999999998 -0.40860233333333335
1106989855 0.03022966666666667 -0.40764466666666666
1108475734 0.030469000000000003 -0.40631700000000004
1109961613 0.029510333333333333 -0.4034506666666666
1111447492 0.029067666666666665 -0.4058266666666666
1112933371 0.027398999999999996 -0.40840799999999994
1114419250 0.028080333333333332 -0.4105396666666666
1115905129 0.027664333333333332 -0.41248633333333334
1117391008 0.028069333333333335 -0.4140243333333333
1118876887 0.026558666666666664 -0.41604633333333335
1120362766 0.027301 -0.41638699999999995
1121848645 0.02596633333333333 -0.4187526666666666
1123334524 0.028132333333333332 -0.41908666666666666
1124820403 0.026025333333333334 -0.41836199999999996
1126306282 0.025502 -0.42021033333333335
1127792161 0.025664333333333334 -0.4197723333333333
1129278040 0.026056333333333334 -0.4200503333333333
1130763919 0.025771666666666665 -0.4197013333333333
1132249798 0.025354666666666664 -0.4182243333333333
1133735677 0.02547633333333333 -0.4177033333333333
1135221556 0.025008999999999997 -0.417185
1136707435 0.025172 -0.4154773333333333
1138193314 0.024257666666666667 -0.41410733333333327
1139679193 0.025086 -0.41121066666666667
1141165072 0.023040333333333333 -0.4141243333333333
1142650951 0.022749 -0.41566400000000003
1144136830 0.019374666666666665 -0.41813600000000006
1145622709 0.020541333333333335 -0.41820766666666664
1147108588 0.020820666666666668 -0.42149833333333336
1148594467 0.020118 -0.422628
1150080346 0.019386666666666667 -0.42282899999999995
1151566225 0.019631999999999997 -0.42502633333333334
1153052104 0.017588 -0.4260326666666666
1154537983 0.016821666666666665 -0.42654766666666666
1156023862 0.018796666666666663 -0.4273613333333333
1157509741 0.01687666666666667 -0.42533099999999996
1158995620 0.016774666666666667 -0.4261506666666666
1160481499 0.01785933333333333 -0.4253553333333333
1161967378 0.015215666666666666 -0.4247163333333333
1163453257 0.015688 -0.4237396666666667
1164939136 0.016272 -0.42280433333333334
1166425015 0.014937666666666665 -0.42249000000000003
1167910894 0.013119333333333334 -0.4203726666666666
1169396773 0.012591333333333333 -0.41914866666666667
1170882652 0.014445333333333333 -0.41900433333333337
1172368531 0.011928666666666666 -0.42184699999999997
1173854410 0.012963666666666665 -0.42284066666666664
1175340289 0.010248 -0.4260166666666666
1176826168 0.010200666666666665 -0.4264823333333333
1178312047 0.008809666666666667 -0.427674
1179797926 0.009552 -0.42972600000000005
1181283805 0.010667333333333334 -0.4302233333333333
1182769684 0.010100666666666666 -0.4314893333333333
1184255563 0.009455666666666664 -0.4319116666666667
1185741442 0.010235333333333332 -0.43128466666666665
1187227321 0.010774333333333332 -0.4315513333333333
1188713200 0.010059666666666665 -0.4317306666666667
1190199079 0.010772666666666667 -0.43160166666666666
1191684958 0.008750333333333332 -0.4296236666666667
1193170837 0.008217333333333333 -0.4299976666666666
1194656716 0.009736999999999999 -0.42804333333333333
1196142595 0.009126 -0.42730433333333334
1197628474 0.010292666666666667 -0.42481966666666665
1199114353 0.007403666666666667 -0.4234753333333333
1200600232 0.008357999999999999 -0.42287166666666665
1202086111 0.007344000000000001 -0.42599366666666666
1203571990 0.006140666666666667 -0.4283223333333333
1205057869 0.004367666666666666 -0.4304286666666666
1206543748 0.006398666666666665 -0.43129833333333334
1208029627 0.005383 -0.4332936666666667
1209515506 0.005163666666666666 -0.4332396666666667
1211001385 0.002879 -0.4353543333333333
1212487264 0.0031799999999999997 -0.43560766666666667
1213973143 0.005019666666666666 -0.435974
1215459022 0.004092333333333333 -0.43623600000000007
1216944901 0.0034006666666666664 -0.43672300000000003
1218430780 0.002247333333333333 -0.4369126666666666
1219916659 0.0004783333333333333 -0.43604033333333336
1221402538 -0.000560666666666667 -0.46193833333333334
1222888417 0.002084333333333333 -0.4341153333333333
1224374296 0.0013080000000000001 -0.43501233333333333
1225860175 0.0011516666666666665 -0.43198800000000004
1227346054 0.00117 -0.43087733333333333
1228831933 0.00047 -0.42916133333333334
1230317812 0.00012133333333333335 -0.4285383333333333
1231803691 -0.0001956666666666667 -0.4313163333333333
1233289570 0.00022733333333333335 -0.433954
1234775449 0.0008776666666666666 -0.4354246666666666
1236261328 -0.00047200000000000003 -0.4378253333333333
1237747207 -0.0007406666666666666 -0.4398633333333333
1239233086 -0.0010249999999999999 -0.4400273333333333
1240718965 -7.666666666666672e-06 -0.4421743333333333
1242204844 0.00034666666666666667 -0.4431153333333333
1243690723 -0.00024066666666666673 -0.44398066666666663
1245176602 0.000976 -0.4436073333333333
1246662481 0.0016223333333333333 -0.4445396666666666
1248148360 0.001637 -0.4434446666666667
1249634239 0.0035386666666666665 -0.44449633333333327
1251120118 0.0027856666666666663 -0.442427
1252605997 0.0026383333333333332 -0.4425413333333333
1254091876 0.0038766666666666663 -0.442333
1255577755 0.004589666666666666 -0.440512
1257063634 0.004554666666666667 -0.4398216666666666
1258549513 0.004320666666666667 -0.43720699999999996
1260035392 0.004271333333333333 -0.435449
1261521271 0.0025706666666666664 -0.4377496666666666
1263007150 0.002229 -0.43959266666666663
1264493029 0.0016963333333333331 -0.44180766666666665
1265978908 -0.0001383333333333333 -0.442233
1267464787 -0.00027066666666666667 -0.4440693333333333
1268950666 -0.0014923333333333334 -0.44483033333333327
1270436545 -0.002731666666666667 -0.445607
1271922424 -0.0022983333333333332 -0.446431
1273408303 -0.004366999999999999 -0.44721799999999995
1274894182 -0.0057146666666666665 -0.4477263333333333
1276380061 -0.005111666666666666 -0.4480726666666666
1277865940 -0.007004 -0.44663733333333333
1279351819 -0.006798333333333333 -0.44739666666666666
1280837698 -0.007189999999999999 -0.447023
1282323577 -0.008491666666666665 -0.44536899999999996
1283809456 -0.009178666666666665 -0.44508466666666663
1285295335 -0.009657666666666665 -0.44398633333333337
1286781214 -0.010298999999999999 -0.4422253333333333
1288267093 -0.0023749999999999995 -0.45195166666666664
1289752972 -0.013227999999999998 -0.43966700000000003
1291238851 -0.012958666666666667 -0.441114
1292724730 -0.014233333333333334 -0.44257233333333335
1294210609 -0.015011 -0.44436299999999995
1295696488 -0.015632999999999998 -0.44578999999999996
1297182367 -0.016018666666666667 -0.4470223333333333
1298668246 -0.015509666666666666 -0.44778233333333334
1300154125 -0.016528333333333332 -0.44843299999999997
1301640004 -0.017811 -0.4493463333333333
1303125883 -0.017246333333333332 -0.449042
1304611762 -0.016892666666666663 -0.4487523333333333
1306097641 -0.018494 -0.44912899999999994
1307583520 -0.017357 -0.44824
1309069399 -0.018207666666666667 -0.44772866666666666
1310555278 -0.019289666666666667 -0.4467623333333333
1312041157 -0.018455 -0.4458233333333333
1313527036 -0.020079 -0.4435433333333333
1315012915 -0.021168666666666662 -0.44201500000000005
1316498794 -0.02145233333333333 -0.4400343333333333
1317984673 -0.02208133333333333 -0.4378573333333333
1319470552 -0.022162333333333332 -0.43660799999999994
1320956431 -0.023511999999999998 -0.43769233333333335
1322442310 -0.024441333333333332 -0.44036533333333333
1323928189 -0.022835333333333336 -0.443311
1325414068 -0.025395333333333332 -0.44584499999999994
1326899947 -0.024938666666666665 -0.4481263333333333
1328385826 -0.025700333333333332 -0.44961166666666663
1329871705 -0.02531333333333333 -0.4516353333333334
1331357584 -0.02546 -0.4513973333333333
1332843463 -0.025010666666666667 -0.45492900000000003
1334329342 -0.024719666666666668 -0.45641
1335815221 -0.025271666666666665 -0.4559099999999999
1337301100 -0.02514733333333333 -0.4576246666666666
1338786979 -0.023750999999999998 -0.45662333333333327
1340272858 -0.02438233333333333 -0.4569696666666666
1341758737 -0.022528 -0.45658866666666664
1343244616 -0.023171 -0.454372
1344730495 -0.02314633333333333 -0.4552126666666667
1346216374 -0.023708666666666663 -0.45277166666666663
1347702253 -0.022685999999999998 -0.4517926666666666
1349188132 -0.02273266666666667 -0.4494283333333333
1350674011 -0.023007 -0.4503976666666667
1352159890 -0.023510333333333334 -0.4525746666666667
1353645769 -0.024627 -0.4552293333333333
1355131648 -0.025842666666666667 -0.45828066666666667
1356617527 -0.025590666666666668 -0.4605123333333333
1358103406 -0.02681566666666666 -0.46200633333333335
1359589285 -0.027299666666666667 -0.4637213333333333
1361075164 -0.028085 -0.463646
1362561043 -0.026460666666666664 -0.466254
1364046922 -0.028066999999999998 -0.46562966666666666
1365532801 -0.028093999999999997 -0.46725666666666665
1367018680 -0.02766933333333333 -0.467112
1368504559 -0.027807666666666665 -0.4664726666666666
1369990438 -0.031089999999999996 -0.463771
1371476317 -0.027728666666666665 -0.4665433333333333
1372962196 -0.02764233333333333 -0.46514
1374448075 -0.029082666666666666 -0.4634223333333334
1375933954 -0.027393 -0.462569
1377419833 -0.028438333333333333 -0.4606933333333333
1378905712 -0.029214999999999998 -0.4586646666666666
1380391591 -0.029156999999999995 -0.4576543333333333
1381877470 -0.030497333333333335 -0.4591733333333333
1383363349 -0.03142333333333333 -0.46271566666666664
1384849228 -0.032045 -0.46371366666666664
1386335107 -0.03254699999999999 -0.46621999999999997
1387820986 -0.033409999999999995 -0.4671456666666667
1389306865 -0.032250666666666664 -0.4693733333333333
1390792744 -0.03207599999999999 -0.470149
1392278623 -0.03155933333333333 -0.4715483333333333
1393764502 -0.030368666666666662 -0.47268066666666664
1395250381 -0.03341566666666666 -0.47181166666666663
1396736260 -0.030630666666666667 -0.4725353333333333
1398222139 -0.032787666666666666 -0.47125466666666666
1399708018 -0.033791333333333326 -0.46873033333333336
1401193897 -0.03294766666666667 -0.46919466666666665
1402679776 -0.032814333333333334 -0.4677536666666667
1404165655 -0.03259366666666667 -0.465805
1405651534 -0.033943 -0.46402499999999997
1407137413 -0.032399 -0.4619
1408623292 -0.033805999999999996 -0.4598346666666666
1410109171 -0.030735666666666665 -0.45797266666666664
1411595050 -0.03503233333333333 -0.4604896666666667
1413080929 -0.03662666666666666 -0.4636883333333333
1414566808 -0.03640233333333333 -0.4658513333333333
1416052687 -0.038371666666666665 -0.46731100000000003
1417538566 -0.03852966666666666 -0.4682963333333333
1419024445 -0.040495666666666666 -0.47187433333333334
1420510324 -0.039274 -0.4744356666666667
1421996203 -0.038349666666666664 -0.47436599999999995
1423482082 -0.06132333333333333 -0.45973833333333336
1424967961 -0.03865199999999999 -0.47588733333333333
1426453840 -0.03912666666666667 -0.4768566666666666
1427939719 -0.03965566666666667 -0.47584800000000005
1429425598 -0.03847066666666667 -0.47664166666666663
1430911477 -0.040881 -0.4768116666666667
1432397356 -0.04156433333333333 -0.47515899999999994
1433883235 -0.038550666666666664 -0.4747113333333333
1435369114 -0.040680333333333325 -0.471493
1436854993 -0.039140666666666664 -0.47007033333333326
1438340872 -0.038559666666666666 -0.468419
1439826751 -0.04053166666666667 -0.46728666666666663
1441312630 -0.041039 -0.46920799999999996
1442798509 -0.04188733333333333 -0.47071033333333334
1444284388 -0.042777333333333334 -0.47261566666666666
1445770267 -0.041164 -0.47603466666666666
1447256146 -0.04243999999999999 -0.4772496666666666
1448742025 -0.044805333333333336 -0.477733
1450227904 -0.04354333333333333 -0.47884299999999996
1451713783 -0.04339266666666667 -0.48032966666666665
1453199662 -0.043788 -0.4793496666666666
1454685541 -0.042011 -0.4804803333333333
1456171420 -0.04368999999999999 -0.480013
1457657299 -0.04129533333333333 -0.48023533333333335
1459143178 -0.04237833333333333 -0.47952433333333333
1460629057 -0.042044 -0.47872800000000004
1462114936 -0.040598 -0.4772239999999999
1463600815 -0.04148266666666667 -0.4756473333333333
1465086694 -0.04118366666666666 -0.4738183333333333
1466572573 -0.04283466666666667 -0.4710046666666666
1468058452 -0.042569333333333334 -0.4685143333333333
1469544331 -0.041134000000000004 -0.46595466666666663
1471030210 -0.039433 -0.46729133333333334
1472516089 -0.043349 -0.4697693333333333
1474001968 -0.043594999999999995 -0.47203799999999996
1475487847 -0.04526566666666666 -0.47367633333333325
1476973726 -0.046218666666666665 -0.47581733333333337
1478459605 -0.045322 -0.47754499999999994
1479945484 -0.048390999999999997 -0.4789966666666666
1481431363 -0.051206666666666664 -0.4793299999999999
1482917242 -0.04658466666666666 -0.48202799999999996
1484403121 -0.05118466666666667 -0.4810096666666666
1485889000 -0.04919166666666666 -0.48238733333333333
1487374879 -0.051706 -0.4803723333333333
1488860758 -0.045731 -0.481982
1490346637 -0.04988733333333334 -0.48107799999999995
1491832516 -0.04541166666666666 -0.4809336666666666
1493318395 -0.04987933333333333 -0.47936500000000004
1494804274 -0.04412466666666666 -0.478324
1496290153 -0.05046666666666667 -0.476301
1497776032 -0.04519599999999999 -0.4755003333333333
1499261911 -0.05012299999999999 -0.47114233333333333
1500747790 -0.047106999999999996 -0.47322999999999993
1502233669 -0.04914033333333333 -0.47436100000000003
1503719548 -0.04891933333333333 -0.47715533333333326
1505205427 -0.051440999999999994 -0.4793786666666667
1506691306 -0.05112133333333333 -0.4805516666666666
1508177185 -0.05173899999999999 -0.4821816666666666
1509663064 -0.05095466666666666 -0.48275266666666666
1511148943 -0.051805 -0.4844246666666666
1512634822 -0.053245333333333325 -0.48652233333333333
1514120701 -0.053872333333333335 -0.4851156666666666
1515606580 -0.05300533333333333 -0.4856506666666667
1517092459 -0.05252066666666667 -0.4848813333333333
1518578338 -0.06215033333333332 -0.5119823333333333
1520064217 -0.06593766666666666 -0.46882266666666667
1521550096 -0.051046999999999995 -0.48334466666666664
1523035975 -0.04795266666666666 -0.48320433333333335
1524521854 -0.04798966666666667 -0.48062099999999996
1526007733 -0.04794266666666666 -0.4780143333333333
1527493612 -0.04929666666666666 -0.47762400000000005
1528979491 -0.05129966666666667 -0.475474
1530465370 -0.05012899999999999 -0.47311299999999995
1531951249 -0.052025999999999996 -0.47599433333333324
1533437128 -0.052659 -0.4768313333333333
1534923007 -0.05385033333333333 -0.478545
1536408886 -0.055788000000000004 -0.479288
1537894765 -0.05352 -0.48238499999999995
1539380644 -0.059510999999999994 -0.4830593333333333
1540866523 -0.055564666666666665 -0.4845383333333333
1542352402 -0.054079333333333326 -0.48622066666666663
1543838281 -0.05588733333333333 -0.486114
1545324160 -0.060378333333333326 -0.48534666666666665
1546810039 -0.06000066666666666 -0.48479133333333335
1548295918 -0.059068333333333334 -0.4857633333333333
1549781797 -0.059409666666666666 -0.48466799999999993
1551267676 -0.06015433333333334 -0.48312199999999994
1552753555 -0.06187033333333333 -0.4821553333333333
1554239434 -0.06022066666666666 -0.4824529999999999
1555725313 -0.06081633333333333 -0.4794506666666667
1557211192 -0.06246733333333333 -0.47839299999999996
1558697071 -0.060287999999999994 -0.47623166666666666
1560182950 -0.06581433333333334 -0.47445533333333334
1561668829 -0.06196833333333333 -0.477062
1563154708 -0.06615933333333332 -0.47996266666666665
1564640587 -0.06361433333333333 -0.4819796666666667
1566126466 -0.06566933333333333 -0.48409599999999997
1567612345 -0.06390466666666667 -0.48579
1569098224 -0.06674666666666668 -0.48744366666666666
1570584103 -0.065274 -0.4876366666666667
1572069982 -0.061249 -0.48458566666666664
1573555861 -0.06475566666666667 -0.49129366666666663
1575041740 -0.06624066666666666 -0.49025133333333326
1576527619 -0.06541266666666665 -0.4901443333333333
1578013498 -0.06435933333333332 -0.48938766666666667
1579499377 -0.06426833333333333 -0.48917866666666665
1580985256 -0.06376699999999999 -0.4877103333333333
1582471135 -0.06289466666666665 -0.48780866666666667
1583957014 -0.06354966666666667 -0.4865063333333333
1585442893 -0.06530966666666667 -0.48441633333333334
1586928772 -0.06548299999999999 -0.482248
1588414651 -0.063437 -0.479827
1589900530 -0.064603 -0.4776846666666666
1591386409 -0.06586 -0.4807106666666666
1592872288 -0.06610566666666665 -0.482704
1594358167 -0.065833 -0.48543566666666665
1595844046 -0.06743766666666667 -0.4882156666666666
1597329925 -0.06839933333333334 -0.4900363333333333
1598815804 -0.06806666666666666 -0.4908199999999999
1600301683 -0.06883133333333333 -0.49248499999999995
1601787562 -0.06833966666666666 -0.49347300000000005
1603273441 -0.06808633333333333 -0.494216
1604759320 -0.06875433333333333 -0.49549133333333334
1606245199 -0.07026 -0.494868
1607731078 -0.06737166666666666 -0.49507900000000005
1609216957 -0.06945299999999999 -0.49451399999999995
1610702836 -0.06838866666666667 -0.494327
1612188715 -0.06771566666666667 -0.4940603333333333
1613674594 -0.06957233333333332 -0.4915126666666666
1615160473 -0.070258 -0.49001966666666663
1616646352 -0.06710266666666666 -0.4883643333333333
1618132231 -0.06782466666666667 -0.48619199999999996
1619618110 -0.070129 -0.4839876666666667
1621103989 -0.06983433333333333 -0.4842033333333333
1622589868 -0.069634 -0.4878973333333333
1624075747 -0.071764 -0.48966833333333337
1625561626 -0.07305099999999999 -0.4911216666666667
1627047505 -0.07264299999999999 -0.4942
1628533384 -0.07244833333333334 -0.49478999999999995
1630019263 -0.07196999999999999 -0.4979206666666667
1631505142 -0.07404366666666666 -0.49812766666666664
1632991021 -0.07220433333333333 -0.4984226666666667
1634476900 -0.07182566666666666 -0.4988593333333333
1635962779 -0.07440166666666666 -0.4983989999999999
1637448658 -0.07371033333333334 -0.49743999999999994
1638934537 -0.07450266666666666 -0.49749866666666664
1640420416 -0.07433566666666666 -0.49559299999999995
1641906295 -0.07288633333333333 -0.4946283333333333
1643392174 -0.07405166666666665 -0.4931736666666667
1644878053 -0.07239133333333332 -0.49063066666666666
1646363932 -0.07360866666666666 -0.4878969999999999
1647849811 -0.07407866666666665 -0.4863493333333333
1649335690 -0.07612033333333332 -0.4834056666666667
1650821569 -0.07585599999999999 -0.48406666666666665
1652307448 -0.07655899999999999 -0.48629
1653793327 -0.07852099999999998 -0.4878583333333333
1655279206 -0.07792933333333332 -0.492329
1656765085 -0.07782999999999998 -0.493838
1658250964 -0.07887233333333334 -0.49461233333333327
1659736843 -0.07916266666666666 -0.4968633333333333
1661222722 -0.08016533333333332 -0.4979606666666666
1662708601 -0.08083633333333332 -0.49843233333333337
1664194480 -0.07839733333333333 -0.49916799999999995
1665680359 -0.079428 -0.4993546666666666
1667166238 -0.08020666666666666 -0.4985026666666666
1668652117 -0.086348 -0.47187
1670137996 -0.07993933333333333 -0.49717733333333336
1671623875 -0.079007 -0.4966006666666667
1673109754 -0.07970833333333334 -0.49476733333333334
1674595633 -0.07915066666666666 -0.4929843333333333
1676081512 -0.07850966666666667 -0.4907773333333333
1677567391 -0.07987933333333333 -0.4873146666666666
1679053270 -0.078537 -0.4858543333333333
1680539149 -0.07910433333333333 -0.48489699999999997
1682025028 -0.07975333333333334 -0.488498
1683510907 -0.08084066666666666 -0.49049866666666664
1684996786 -0.08138066666666666 -0.4939319999999999
1686482665 -0.08372433333333332 -0.49461133333333335
1687968544 -0.08281666666666666 -0.49722133333333335
1689454423 -0.08355666666666667 -0.49871299999999996
1690940302 -0.08641666666666666 -0.49931833333333336
1692426181 -0.08530833333333332 -0.5002363333333333
1693912060 -0.08636666666666666 -0.5025839999999999
1695397939 -0.08418733333333331 -0.5017433333333332
1696883818 -0.08913133333333334 -0.4995483333333333
1698369697 -0.08171233333333333 -0.5021206666666667
1699855576 -0.08560266666666666 -0.500034
1701341455 -0.08402166666666666 -0.4986183333333333
1702827334 -0.08536166666666667 -0.496103
1704313213 -0.08638766666666667 -0.4946703333333333
1705799092 -0.08361933333333332 -0.49474666666666667
1707284971 -0.08343333333333332 -0.49179399999999995
1708770850 -0.08403866666666666 -0.48835933333333337
1710256729 -0.08372333333333333 -0.4850196666666666
1711742608 -0.08454066666666667 -0.48961
1713228487 -0.08648966666666666 -0.4929916666666666
1714714366 -0.08677566666666665 -0.49533533333333335
1716200245 -0.08724499999999999 -0.4997163333333333
1717686124 -0.08957766666666667 -0.5001
1719172003 -0.08932199999999998 -0.5005976666666667
1720657882 -0.088962 -0.5032953333333332
1722143761 -0.07960533333333333 -0.5115303333333332
1723629640 -0.08875833333333333 -0.5058136666666666
1725115519 -0.08331066666666666 -0.506756
1726601398 -0.09107533333333331 -0.507532
1728087277 -0.09015999999999999 -0.5058193333333333
1729573156 -0.088975 -0.5073323333333333
1731059035 -0.087201 -0.5047336666666666
1732544914 -0.08890333333333333 -0.5038356666666666
1734030793 -0.08816333333333333 -0.5045203333333333
1735516672 -0.08520233333333332 -0.5013549999999999
1737002551 -0.08614366666666665 -0.49952599999999997
1738488430 -0.08838499999999999 -0.4936313333333333
1739974309 -0.086939 -0.49499533333333334
1741460188 -0.08685766666666667 -0.4973833333333333
1742946067 -0.08850366666666666 -0.49882133333333334
1744431946 -0.09116133333333333 -0.5013543333333332
1745917825 -0.09148166666666666 -0.5041033333333333
1747403704 -0.091888 -0.5049933333333333
1748889583 -0.093684 -0.5080696666666666
1750375462 -0.09418499999999999 -0.5078503333333334
1751861341 -0.09356533333333333 -0.5091926666666666
1753347220 -0.09625166666666665 -0.5096326666666666
1754833099 -0.09532533333333333 -0.5102533333333332
1756318978 -0.09294566666666666 -0.5118006666666666
1757804857 -0.09548133333333333 -0.5111533333333333
1759290736 -0.09479166666666668 -0.5086439999999999
1760776615 -0.09148266666666667 -0.5103696666666666
1762262494 -0.09325466666666667 -0.5076353333333333
1763748373 -0.09490633333333333 -0.506609
1765234252 -0.093366 -0.5046123333333333
1766720131 -0.092707 -0.5002183333333332
1768206010 -0.09567899999999999 -0.49820933333333334
1769691889 -0.093644 -0.4953759999999999
1771177768 -0.09317966666666666 -0.4968306666666667
1772663647 -0.09675166666666665 -0.5008666666666666
1774149526 -0.09642066666666667 -0.501843
1775635405 -0.10082433333333332 -0.5033546666666666
1777121284 -0.10041333333333333 -0.5051716666666667
1778607163 -0.10168166666666667 -0.50759
1780093042 -0.09965566666666666 -0.5063696666666666
1781578921 -0.10100533333333334 -0.5091743333333333
1783064800 -0.10321366666666666 -0.5080383333333334
1784550679 -0.104442 -0.508583
1786036558 -0.10336233333333333 -0.5075306666666666
1787522437 -0.105126 -0.5046923333333333
1789008316 -0.10099999999999999 -0.5052936666666666
1790494195 -0.10257933333333333 -0.5069216666666666
1791980074 -0.100571 -0.504498
1793465953 -0.10251633333333333 -0.5009779999999999
1794951832 -0.10310466666666665 -0.4993776666666666
1796437711 -0.10199866666666665 -0.4990266666666666
1797923590 -0.10325733333333334 -0.495942
1799409469 -0.10312333333333334 -0.4935046666666666
1800895348 -0.10382833333333333 -0.49271133333333333
1802381227 -0.10457533333333333 -0.4955336666666666
1803867106 -0.10771566666666665 -0.49801499999999993
1805352985 -0.10795533333333332 -0.5003953333333333
1806838864 -0.10569599999999998 -0.5036826666666667
1808324743 -0.10783299999999998 -0.5052126666666665
1809810622 -0.109785 -0.5080486666666666
1811296501 -0.11266899999999999 -0.5096436666666666
1812782380 -0.10887533333333332 -0.509579
1814268259 -0.11021766666666666 -0.5102966666666666
1815754138 -0.11041400000000001 -0.5101403333333333
1817240017 -0.10908233333333331 -0.5118209999999999
1818725896 -0.12440966666666665 -0.48753233333333335
1820211775 -0.10420499999999999 -0.5093793333333332
1821697654 -0.10695499999999998 -0.506858
1823183533 -0.10723933333333333 -0.5053933333333333
1824669412 -0.10955099999999998 -0.5062933333333334
1826155291 -0.11157866666666666 -0.505164
1827641170 -0.10958000000000001 -0.5000253333333333
1829127049 -0.106796 -0.49963500000000005
1830612928 -0.10768066666666666 -0.497147
1832098807 -0.11013399999999998 -0.5023519999999999
1833584686 -0.11407933333333332 -0.504502
1835070565 -0.11338433333333334 -0.5048703333333333
1836556444 -0.11220133333333333 -0.5056833333333333
1838042323 -0.11444333333333334 -0.5080006666666665
1839528202 -0.11478 -0.5110859999999999
1841014081 -0.11009333333333333 -0.511612
1842499960 -0.11368299999999999 -0.5134166666666666
1843985839 -0.11651266666666667 -0.5118273333333333
1845471718 -0.11638799999999999 -0.5123659999999999
1846957597 -0.11506633333333334 -0.5107409999999999
1848443476 -0.11427233333333332 -0.5117223333333333
1849929355 -0.115025 -0.5122036666666665
1851415234 -0.11426933333333333 -0.50745
1852901113 -0.11537199999999999 -0.5089336666666666
1854386992 -0.11123833333333333 -0.5077823333333333
1855872871 -0.11269666666666667 -0.5065583333333333
1857358750 -0.11669299999999999 -0.501967
1858844629 -0.11601733333333332 -0.501084
1860330508 -0.11479833333333334 -0.4984986666666667
1861816387 -0.11755433333333333 -0.5009376666666666
1863302266 -0.11716866666666666 -0.5039083333333333
1864788145 -0.11599866666666665 -0.5061333333333332
1866274024 -0.118535 -0.5082973333333334
1867759903 -0.11472699999999998 -0.509544
1869245782 -0.117988 -0.5114576666666666
1870731661 -0.11895966666666666 -0.5125996666666667
1872217540 -0.11533666666666667 -0.5119926666666667
1873703419 -0.11965166666666667 -0.5134326666666666
1875189298 -0.119129 -0.5142416666666667
1876675177 -0.118438 -0.5164726666666666
1878161056 -0.116254 -0.5136653333333332
1879646935 -0.11682433333333332 -0.5121899999999999
1881132814 -0.11569033333333334 -0.5130429999999999
1882618693 -0.115476 -0.5112936666666666
1884104572 -0.11534666666666667 -0.5091873333333332
1885590451 -0.11574866666666667 -0.5054216666666665
1887076330 -0.11548566666666667 -0.5046066666666666
1888562209 -0.113978 -0.5019143333333332
1890048088 -0.11543566666666667 -0.49889433333333333
1891533967 -0.11355466666666666 -0.5015553333333334
1893019846 -0.116674 -0.5042076666666666
1894505725 -0.11799566666666667 -0.5064233333333333
1895991604 -0.11919900000000001 -0.5102706666666665
1897477483 -0.11570466666666665 -0.5106526666666666
1898963362 -0.11909066666666665 -0.5131523333333333
1900449241 -0.11881833333333333 -0.5145376666666667
1901935120 -0.11968666666666666 -0.5168719999999999
1903420999 -0.118873 -0.5161503333333333
1904906878 -0.118506 -0.5171036666666666
1906392757 -0.119141 -0.5157989999999999
1907878636 -0.11632233333333332 -0.5176483333333334
1909364515 -0.11925366666666666 -0.5166536666666666
1910850394 -0.115953 -0.515012
1912336273 -0.11671500000000001 -0.5159309999999999
1913822152 -0.11727499999999999 -0.5117663333333333
1915308031 -0.117207 -0.509894
1916793910 -0.11604099999999998 -0.5076136666666666
1918279789 -0.11609966666666667 -0.5050429999999999
1919765668 -0.11497833333333332 -0.5011646666666666
1921251547 -0.11900366666666665 -0.503586
1922737426 -0.119403 -0.506817
1924223305 -0.11788866666666666 -0.5102666666666665
1925709184 -0.119046 -0.5125293333333333
1927195063 -0.11908433333333332 -0.5130473333333333
1928680942 -0.12295133333333333 -0.5163446666666667
1930166821 -0.12243099999999998 -0.5162439999999999
1931652700 -0.12071766666666667 -0.5197763333333333
1933138579 -0.12024866666666667 -0.5184826666666666
1934624458 -0.12279100000000001 -0.5198113333333333
1936110337 -0.12144966666666665 -0.5213183333333333
1937596216 -0.12294233333333333 -0.5194176666666666
1939082095 -0.11924033333333334 -0.5190506666666667
1940567974 -0.12014333333333332 -0.5183899999999999
1942053853 -0.12151166666666666 -0.516488
1943539732 -0.11815366666666667 -0.5145636666666666
1945025611 -0.12065466666666666 -0.5142543333333333
1946511490 -0.12066600000000001 -0.5104213333333333
1947997369 -0.12062966666666666 -0.5088849999999999
1949483248 -0.12098533333333333 -0.5046383333333333
1950969127 -0.119373 -0.5066376666666665
1952455006 -0.12274266666666667 -0.5091429999999999
1953940885 -0.124658 -0.5130836666666667
1955426764 -0.12511566666666665 -0.514119
1956912643 -0.12315466666666666 -0.5162233333333333
1958398522 -0.12456166666666665 -0.5189943333333333
1959884401 -0.12600033333333333 -0.5189816666666667
1961370280 -0.12665766666666667 -0.5215703333333332
1962856159 -0.12803666666666663 -0.520295
1964342038 -0.12619566666666665 -0.5210656666666666
1965827917 -0.12873733333333331 -0.5215989999999999
1967313796 -0.12964666666666666 -0.5204169999999999
1968799675 -0.12045333333333333 -0.5486166666666666
1970285554 -0.124345 -0.5234369999999999
1971771433 -0.1268293333333333 -0.5194516666666666
1973257312 -0.12786566666666666 -0.5189659999999999
1974743191 -0.12668966666666664 -0.5173493333333333
1976229070 -0.126208 -0.5157029999999999
1977714949 -0.12668133333333334 -0.5128336666666666
1979200828 -0.12928399999999998 -0.5081716666666666
1980686707 -0.12709966666666667 -0.508618
1982172586 -0.12824933333333333 -0.513523
1983658465 -0.13223600000000002 -0.5155026666666666
1985144344 -0.13329366666666664 -0.5165816666666667
1986630223 -0.13349933333333333 -0.5187856666666666
1988116102 -0.132241 -0.5218636666666667
1989601981 -0.134847 -0.5162633333333333
1991087860 -0.1344743333333333 -0.5245213333333332
1992573739 -0.133764 -0.5245756666666667
1994059618 -0.13604333333333332 -0.5246913333333333
1995545497 -0.13255899999999998 -0.52596
1997031376 -0.13466899999999998 -0.5249383333333333
1998517255 -0.13257666666666668 -0.524663
2000003134 -0.13202033333333332 -0.5230996666666666
2001489013 -0.13133266666666665 -0.5228473333333333
2002974892 -0.13001733333333332 -0.5210603333333333
2004460771 -0.13069566666666665 -0.518303
2005946650 -0.13110100000000002 -0.5172566666666666
2007432529 -0.13327899999999998 -0.5145263333333332
2008918408 -0.13306066666666666 -0.5105473333333334
2010404287 -0.13084633333333331 -0.5085616666666666
2011890166 -0.134027 -0.5135353333333332
2013376045 -0.137867 -0.5133113333333333
2014861924 -0.136913 -0.5168796666666666
2016347803 -0.1422783333333333 -0.5160393333333333
2017833682 -0.13674 -0.5234209999999999
2019319561 -0.14349933333333334 -0.5226523333333333
2020805440 -0.14635 -0.511093
2022291319 -0.13093933333333332 -0.5378729999999999
2023777198 -0.14302766666666666 -0.5255833333333333
2025263077 -0.139825 -0.5264833333333333
2026748956 -0.14378233333333332 -0.5264876666666667
2028234835 -0.13832099999999997 -0.5293083333333334
2029720714 -0.14032999999999998 -0.5250063333333332
2031206593 -0.137755 -0.5248553333333333
2032692472 -0.14258366666666666 -0.5216363333333334
2034178351 -0.13506166666666666 -0.5246743333333332
2035664230 -0.13716166666666665 -0.5202976666666665
2037150109 -0.13533033333333333 -0.519608
2038635988 -0.13891 -0.5162203333333333
2040121867 -0.13533699999999999 -0.5134003333333332
2041607746 -0.13902133333333333 -0.5159373333333332
2043093625 -0.1375513333333333 -0.519814
2044579504 -0.13936666666666664 -0.5213363333333333
2046065383 -0.14143266666666665 -0.52224
2047551262 -0.14303099999999996 -0.5230183333333334
2049037141 -0.14114966666666665 -0.5270246666666667
2050523020 -0.14527433333333334 -0.5246329999999999
2052008899 -0.13546 -0.532934
2053494778 -0.143507 -0.5272646666666666
2054980657 -0.13645933333333332 -0.5293486666666667
2056466536 -0.144255 -0.5263276666666666
2057952415 -0.13577766666666663 -0.5302129999999999
2059438294 -0.14135666666666663 -0.525679
2060924173 -0.1335613333333333 -0.5271666666666666
2062410052 -0.14190766666666665 -0.5226066666666666
2063895931 -0.13443966666666665 -0.524667
2065381810 -0.14233633333333331 -0.5184276666666667
2066867689 -0.131955 -0.518219
2068353568 -0.1376673333333333 -0.5165066666666666
2069839447 -0.131185 -0.5149303333333333
2071325326 -0.14085666666666666 -0.5122133333333334
2072811205 -0.136242 -0.5172923333333334
2074297084 -0.1431933333333333 -0.51779
2075782963 -0.13644599999999998 -0.5220226666666666
2077268842 -0.14266299999999998 -0.5211276666666667
2078754721 -0.13980266666666666 -0.5240776666666666
2080240600 -0.14551799999999998 -0.5220349999999999
2081726479 -0.14098666666666665 -0.5250553333333332
2083212358 -0.14817066666666667 -0.5217186666666667
2084698237 -0.135619 -0.5251663333333332
2086184116 -0.146474 -0.5227196666666667
2087669995 -0.135851 -0.526896
2089155874 -0.142546 -0.5221666666666667
2090641753 -0.13896233333333333 -0.522887
2092127632 -0.14207966666666666 -0.5201793333333333
2093613511 -0.13685533333333333 -0.5195746666666665
2095099390 -0.14445866666666665 -0.515573
2096585269 -0.13667166666666666 -0.5170039999999999
2098071148 -0.13566833333333334 -0.511814
2099557027 -0.13830199999999998 -0.5080893333333333
2101042906 -0.13882666666666665 -0.5105719999999999
2102528785 -0.14238733333333334 -0.513258
2104014664 -0.14088299999999998 -0.5156363333333334
2105500543 -0.14213599999999998 -0.5174666666666666
2106986422 -0.14433466666666667 -0.5197703333333333
2108472301 -0.1448133333333333 -0.5209016666666666
2109958180 -0.14349566666666663 -0.524075
2111444059 -0.14483233333333334 -0.5230736666666667
2112929938 -0.14462466666666665 -0.5249956666666666
2114415817 -0.144494 -0.5245943333333334
2115901696 -0.14423266666666665 -0.5275996666666667
2117387575 -0.134869 -0.5522226666666666
2118873454 -0.14502266666666666 -0.525401
2120359333 -0.15154800000000002 -0.5180669999999999
2121845212 -0.14079533333333333 -0.5256063333333333
2123331091 -0.14293199999999998 -0.5240356666666667
2124816970 -0.14536033333333334 -0.5204709999999999
2126302849 -0.14060799999999998 -0.5203923333333332
2127788728 -0.14069466666666666 -0.5178953333333334
2129274607 -0.13841566666666666 -0.5146096666666666
2130760486 -0.14035266666666665 -0.5149413333333334
2132246365 -0.14204699999999998 -0.5186526666666667
2133732244 -0.14042966666666667 -0.5211916666666666
2135218123 -0.14039333333333331 -0.524459
2136704002 -0.14074266666666668 -0.5237523333333332
2138189881 -0.14211166666666666 -0.5264363333333333
2139675760 -0.13815366666666667 -0.5278486666666666
2141161639 -0.14127066666666668 -0.5297276666666667
2142647518 -0.13939499999999996 -0.5281653333333334
2144133397 -0.14100066666666666 -0.5272316666666665
2145619276 -0.124102 -0.5392189999999999
2147105155 -0.14186433333333331 -0.5263646666666667
2148591034 -0.13926499999999997 -0.524856
2150076913 -0.14219533333333334 -0.524036
2151562792 -0.13687366666666667 -0.523868
2153048671 -0.13472066666666666 -0.5220606666666666
2154534550 -0.14090099999999997 -0.5175953333333334
2156020429 -0.13339966666666664 -0.5188563333333334
2157506308 -0.13627533333333333 -0.5137726666666667
2158992187 -0.14006 -0.5114623333333332
2160478066 -0.13488666666666665 -0.5117909999999999
2161963945 -0.13794233333333333 -0.513925
2163449824 -0.13848533333333335 -0.5170980000000001
2164935703 -0.14009766666666668 -0.5165496666666667
2166421582 -0.14283666666666667 -0.5192193333333333
2167907461 -0.1373583333333333 -0.5196266666666666
2169393340 -0.14110433333333333 -0.5235966666666666
2170879219 -0.13844199999999998 -0.526589
2172365098 -0.14647899999999997 -0.5207063333333333
2173850977 -0.142891 -0.5246276666666666
2175336856 -0.14371699999999998 -0.5235523333333334
2176822735 -0.14132999999999998 -0.5231036666666666
2178308614 -0.14667633333333333 -0.5242633333333333
2179794493 -0.14534799999999998 -0.5212399999999999
2181280372 -0.14914433333333332 -0.5194243333333333
2182766251 -0.1406033333333333 -0.5196803333333333
2184252130 -0.14824866666666664 -0.5159393333333333
2185738009 -0.147893 -0.5162846666666666
2187223888 -0.14640299999999998 -0.5130509999999999
2188709767 -0.15038466666666667 -0.5117413333333333
2190195646 -0.14686866666666665 -0.5096683333333334
2191681525 -0.14428233333333332 -0.5131429999999999
2193167404 -0.15279266666666666 -0.5160696666666666
2194653283 -0.15196199999999999 -0.5205496666666667
2196139162 -0.15145433333333333 -0.5211699999999999
2197625041 -0.15277666666666667 -0.5249766666666665
2199110920 -0.14908666666666665 -0.5258043333333333
2200596799 -0.1571433333333333 -0.526175
2202082678 -0.15205666666666665 -0.5273743333333332
2203568557 -0.15011999999999998 -0.5294243333333333
2205054436 -0.14895999999999998 -0.5286023333333333
2206540315 -0.1531183333333333 -0.529547
2208026194 -0.16059933333333334 -0.51892
2209512073 -0.15204233333333333 -0.5294939999999999
2210997952 -0.14629066666666668 -0.527767
2212483831 -0.14798633333333333 -0.5249963333333333
2213969710 -0.14376599999999998 -0.5243656666666667
2215455589 -0.148413 -0.5208623333333332
2216941468 -0.147401 -0.5195819999999999
2218427347 -0.14841733333333335 -0.5148236666666667
2219913226 -0.14440966666666666 -0.5103953333333333
2221399105 -0.14906433333333333 -0.5130213333333333
2222884984 -0.150325 -0.5192626666666667
2224370863 -0.15572133333333332 -0.5205669999999999
2225856742 -0.152106 -0.5221673333333333
2227342621 -0.15639433333333333 -0.5242326666666666
2228828500 -0.15483333333333332 -0.525432
2230314379 -0.16043433333333335 -0.5269056666666666
2231800258 -0.15803766666666666 -0.528491
2233286137 -0.15949266666666667 -0.5293843333333332
2234772016 -0.15811699999999998 -0.530887
2236257895 -0.15765566666666667 -0.5289043333333333
2237743774 -0.15571633333333335 -0.528812
2239229653 -0.15479199999999999 -0.5282416666666667
2240715532 -0.15283033333333332 -0.527771
2242201411 -0.15818 -0.5268226666666667
2243687290 -0.15417 -0.5251406666666667
2245173169 -0.15437966666666664 -0.52247
2246659048 -0.15252366666666667 -0.519922
2248144927 -0.15914 -0.5155473333333332
2249630806 -0.15521666666666667 -0.5166483333333333
2251116685 -0.15264099999999997 -0.5153256666666666
2252602564 -0.15600833333333333 -0.519409
2254088443 -0.15613566666666667 -0.5227149999999999
2255574322 -0.16077233333333332 -0.5248686666666667
2257060201 -0.15841566666666665 -0.5277796666666666
2258546080 -0.161296 -0.529041
2260031959 -0.16376866666666665 -0.5311913333333333
2261517838 -0.16588866666666666 -0.5342089999999999
2263003717 -0.16211799999999998 -0.5337169999999999
2264489596 -0.16555799999999998 -0.5335096666666665
2265975475 -0.16302733333333333 -0.5354193333333332
2267461354 -0.16938566666666666 -0.5320833333333332
2268947233 -0.163821 -0.5311816666666667
2270433112 -0.15677433333333332 -0.5256083333333333
2271918991 -0.16619866666666666 -0.5330723333333333
2273404870 -0.16754533333333335 -0.5288923333333333
2274890749 -0.16701566666666667 -0.5282199999999999
2276376628 -0.16697166666666666 -0.5254946666666667
2277862507 -0.16698733333333332 -0.523977
2279348386 -0.16546633333333333 -0.5198636666666666
2280834265 -0.16600399999999998 -0.5198816666666666
2282320144 -0.16850933333333332 -0.5225559999999999
2283806023 -0.169813 -0.5260436666666666
2285291902 -0.16881966666666665 -0.5288893333333333
2286777781 -0.17062100000000002 -0.5297993333333333
2288263660 -0.17002699999999998 -0.5332066666666666
2289749539 -0.17145933333333332 -0.532861
2291235418 -0.16847366666666666 -0.5340093333333333
2292721297 -0.169977 -0.5343046666666666
2294207176 -0.16442066666666666 -0.5389729999999999
2295693055 -0.166805 -0.5344073333333333
2297178934 -0.16060966666666665 -0.535909
2298664813 -0.169514 -0.5319909999999999
2300150692 -0.1623633333333333 -0.5349249999999999
2301636571 -0.16728933333333332 -0.5295943333333333
2303122450 -0.15896066666666664 -0.53257
2304608329 -0.16414666666666666 -0.5282429999999999
2306094208 -0.15953699999999998 -0.5250873333333332
2307580087 -0.16239599999999998 -0.5231943333333333
2309065966 -0.15895466666666663 -0.518391
2310551845 -0.16139966666666666 -0.5194116666666666
2312037724 -0.16369433333333333 -0.5204983333333333
2313523603 -0.16307133333333332 -0.5235333333333332
2315009482 -0.1670303333333333 -0.5259926666666666
2316495361 -0.16879199999999997 -0.527285
2317981240 -0.16579333333333332 -0.5291866666666667
2319467119 -0.16787266666666667 -0.5305056666666665
2320952998 -0.16646533333333333 -0.5318213333333333
2322438877 -0.16815599999999997 -0.5331333333333333
2323924756 -0.15515799999999996 -0.543961
2325410635 -0.1683763333333333 -0.5299426666666667
2326896514 -0.16744699999999996 -0.5309653333333333
2328382393 -0.16878366666666667 -0.5311986666666666
2329868272 -0.16702733333333333 -0.5307459999999999
2331354151 -0.16869099999999998 -0.5281913333333332
2332840030 -0.16572066666666666 -0.5265856666666666
2334325909 -0.16647166666666668 -0.5249793333333332
2335811788 -0.165289 -0.520825
2337297667 -0.168302 -0.5193423333333334
2338783546 -0.16559266666666667 -0.5167719999999999
2340269425 -0.16746299999999997 -0.5142053333333334
2341755304 -0.1686983333333333 -0.5136479999999999
2343241183 -0.16824766666666663 -0.5188463333333333
2344727062 -0.16825933333333332 -0.5233843333333332
2346212941 -0.16874233333333333 -0.527271
2347698820 -0.1720213333333333 -0.526841
2349184699 -0.171889 -0.526944
2350670578 -0.168765 -0.5318733333333333
2352156457 -0.17354766666666666 -0.5283226666666667
2353642336 -0.171068 -0.5317046666666667
2355128215 -0.17518 -0.5316863333333333
2356614094 -0.17382466666666666 -0.5317780000000001
2358099973 -0.17429333333333333 -0.5314686666666666
2359585852 -0.17030799999999996 -0.530529
2361071731 -0.17045233333333334 -0.5305283333333333
2362557610 -0.17518966666666663 -0.5280669999999998
2364043489 -0.17277966666666666 -0.5263439999999999
2365529368 -0.16943433333333335 -0.5268029999999999
2367015247 -0.1671703333333333 -0.5257123333333333
2368501126 -0.17028466666666664 -0.5203479999999999
2369987005 -0.17189899999999997 -0.5135246666666666
2371472884 -0.16935899999999998 -0.519376
2372958763 -0.17107399999999998 -0.5245966666666666
2374444642 -0.1755233333333333 -0.522903
2375930521 -0.17684866666666665 -0.523982
2377416400 -0.17497033333333334 -0.527905
2378902279 -0.17755733333333334 -0.5282996666666666
2380388158 -0.17728766666666665 -0.5322243333333333
2381874037 -0.17715566666666666 -0.532144
2383359916 -0.18294599999999997 -0.5337056666666666
2384845795 -0.18065466666666666 -0.5353249999999999
2386331674 -0.18394999999999997 -0.5345926666666666
2387817553 -0.18314399999999997 -0.534883
2389303432 -0.1810323333333333 -0.5343119999999999
2390789311 -0.18372266666666665 -0.53071
2392275190 -0.18161333333333332 -0.530597
2393761069 -0.183036 -0.5320103333333333
2395246948 -0.18002299999999996 -0.5257786666666666
2396732827 -0.18083566666666664 -0.5248963333333333
2398218706 -0.18344766666666668 -0.523961
2399704585 -0.18256799999999998 -0.520212
2401190464 -0.180874 -0.522494
2402676343 -0.18477333333333334 -0.519979
2404162222 -0.18623933333333334 -0.5293019999999999
2405648101 -0.18663566666666667 -0.5273873333333334
2407133980 -0.18272133333333332 -0.527832
2408619859 -0.19282633333333332 -0.5285436666666667
2410105738 -0.185804 -0.5299706666666666
2411591617 -0.18578399999999998 -0.5362423333333333
2413077496 -0.18570566666666666 -0.536408
2414563375 -0.183795 -0.5369746666666666
2416049254 -0.193778 -0.5208973333333333
2417535133 -0.17121533333333333 -0.538254
2419021012 -0.16863199999999995 -0.5585153333333333
2420506891 -0.18542166666666665 -0.5302586666666667
2421992770 -0.18199833333333332 -0.5273476666666667
2423478649 -0.18516933333333332 -0.530153
2424964528 -0.18094499999999997 -0.530999
2426450407 -0.17877666666666664 -0.5274003333333332
2427936286 -0.176546 -0.5243639999999999
2429422165 -0.18014266666666667 -0.5198023333333333
2430908044 -0.18109466666666665 -0.5181956666666666
2432393923 -0.17835 -0.5199683333333334
2433879802 -0.18272199999999997 -0.5238216666666666
2435365681 -0.18197033333333335 -0.5257006666666666
2436851560 -0.178198 -0.5292656666666666
2438337439 -0.18327866666666665 -0.5316356666666666
2439823318 -0.18819999999999998 -0.5309636666666666
2441309197 -0.18340066666666666 -0.5329283333333333
2442795076 -0.18610266666666667 -0.5312486666666667
2444280955 -0.187055 -0.5308053333333334
2445766834 -0.18271799999999996 -0.530111
2447252713 -0.18253066666666665 -0.5306196666666666
2448738592 -0.18247266666666664 -0.5317706666666666
2450224471 -0.1804653333333333 -0.530967
2451710350 -0.18253266666666668 -0.527998
2453196229 -0.178813 -0.5312013333333333
2454682108 -0.18052966666666664 -0.524627
2456167987 -0.18156066666666665 -0.524329
2457653866 -0.18108566666666664 -0.5217126666666667
2459139745 -0.18181833333333333 -0.5189096666666666
2460625624 -0.1783596666666667 -0.5173736666666666
2462111503 -0.184078 -0.5186013333333332
2463597382 -0.18112866666666666 -0.5228646666666666
2465083261 -0.17663666666666666 -0.530623
2466569140 -0.17904666666666663 -0.5303436666666667
2468055019 -0.182606 -0.5291566666666666
2469540898 -0.19321499999999997 -0.5124463333333332
2471026777 -0.18345599999999998 -0.539191
2472512656 -0.17760766666666664 -0.538244
2473998535 -0.18172833333333333 -0.5332293333333333
2475484414 -0.179149 -0.539612
2476970293 -0.18157066666666669 -0.5339053333333332
2478456172 -0.17683799999999997 -0.5351923333333334
2479942051 -0.17135033333333333 -0.5374033333333333
2481427930 -0.17657533333333333 -0.532979
2482913809 -0.17339133333333334 -0.5326266666666666
2484399688 -0.17505299999999996 -0.5296453333333333
2485885567 -0.1755003333333333 -0.5266573333333333
2487371446 -0.176193 -0.5245799999999999
2488857325 -0.176274 -0.5228693333333332
2490343204 -0.17480333333333334 -0.5232393333333333
2491829083 -0.167983 -0.5264243333333333
2493314962 -0.17321733333333333 -0.5320686666666666
2494800841 -0.17837933333333333 -0.5288899999999999
2496286720 -0.17185799999999998 -0.5339749999999999
2497772599 -0.17210766666666666 -0.5314423333333332
2499258478 -0.16918199999999997 -0.535261
2500744357 -0.1696133333333333 -0.5365753333333332
2502230236 -0.16657866666666665 -0.5365486666666667
2503716115 -0.16634566666666664 -0.538893
2505201994 -0.16148333333333334 -0.5373033333333332
2506687873 -0.17340233333333332 -0.5318069999999999
2508173752 -0.16331666666666667 -0.5363763333333332
2509659631 -0.16994233333333333 -0.5296646666666667
2511145510 -0.16158199999999998 -0.5300370000000001
2512631389 -0.16832066666666667 -0.5254866666666667
2514117268 -0.162624 -0.5275883333333332
2515603147 -0.1663673333333333 -0.5265606666666667
2517089026 -0.15885966666666665 -0.5223733333333334
2518574905 -0.16802933333333336 -0.5154899999999999
2520060784 -0.155844 -0.5148673333333333
2521546663 -0.16605766666666666 -0.518238
2523032542 -0.155786 -0.5241486666666666
2524518421 -0.16238566666666665 -0.524824
2526004300 -0.16122133333333333 -0.526306
2527490179 -0.17204966666666666 -0.5263916666666666
2528976058 -0.16352066666666665 -0.5305443333333333
2530461937 -0.17204733333333333 -0.5284663333333333
2531947816 -0.16626033333333334 -0.5303420000000001
2533433695 -0.17348166666666665 -0.5303986666666667
2534919574 -0.16813166666666662 -0.532959
2536405453 -0.17326799999999998 -0.5282123333333333
2537891332 -0.16711766666666666 -0.5319043333333333
2539377211 -0.17783566666666664 -0.5266823333333333
2540863090 -0.17670199999999997 -0.5260233333333333
2542348969 -0.18329900000000002 -0.5234726666666666
2543834848 -0.17178799999999997 -0.526817
2545320727 -0.179867 -0.5232199999999999
2546806606 -0.17589433333333332 -0.5228143333333333
2548292485 -0.175593 -0.5180826666666666
2549778364 -0.17953 -0.5188256666666666
2551264243 -0.18542099999999997 -0.5188163333333333
2552750122 -0.18225566666666665 -0.521349
2554236001 -0.17855266666666664 -0.5227843333333333
2555721880 -0.18090699999999998 -0.5257246666666666
2557207759 -0.183033 -0.531061
2558693638 -0.1823803333333333 -0.532457
2560179517 -0.18578666666666666 -0.5345103333333334
2561665396 -0.18513533333333332 -0.5341073333333333
2563151275 -0.18341633333333332 -0.5346313333333333
2564637154 -0.18528633333333333 -0.5360116666666666
2566123033 -0.1873103333333333 -0.5365880000000001
2567608912 -0.18492566666666665 -0.5362776666666665
2569094791 -0.18203333333333332 -0.5388403333333334
2570580670 -0.17534433333333332 -0.5380646666666666
2572066549 -0.17867599999999997 -0.537102
2573552428 -0.17656166666666664 -0.535593
2575038307 -0.17561866666666665 -0.5334643333333333
2576524186 -0.18138599999999996 -0.5328879999999999
2578010065 -0.17684166666666667 -0.5274043333333333
2579495944 -0.1801793333333333 -0.5259913333333334
2580981823 -0.19638400000000003 -0.5259449999999999
2582467702 -0.180697 -0.5314136666666667
2583953581 -0.18144033333333331 -0.5367609999999999
2585439460 -0.18085333333333334 -0.536422
2586925339 -0.17733099999999996 -0.5385816666666666
2588411218 -0.184543 -0.540732
2589897097 -0.18552066666666667 -0.5400803333333333
2591382976 -0.18588566666666664 -0.543449
2592868855 -0.18309233333333333 -0.541011
2594354734 -0.1950903333333333 -0.5372953333333332
2595840613 -0.194554 -0.5380856666666666
2597326492 -0.19175399999999998 -0.5408679999999999
2598812371 -0.19247466666666663 -0.5376663333333334
2600298250 -0.19397766666666666 -0.5352723333333333
2601784129 -0.19159133333333334 -0.5349573333333333
2603270008 -0.19348066666666666 -0.5339193333333333
2604755887 -0.18910300000000002 -0.5297923333333333
2606241766 -0.19284799999999996 -0.5289566666666667
2607727645 -0.18913333333333332 -0.5265503333333333
2609213524 -0.1938433333333333 -0.5242249999999999
2610699403 -0.19524966666666668 -0.5231516666666666
2612185282 -0.19552866666666668 -0.5279483333333334
2613671161 -0.19162766666666667 -0.5275029999999999
2615157040 -0.19446066666666667 -0.5285953333333333
2616642919 -0.19250899999999999 -0.5323383333333334
2618128798 -0.19577366666666665 -0.5345813333333332
2619614677 -0.192687 -0.5346423333333333
2621100556 -0.195773 -0.5395683333333334
2622586435 -0.19356399999999999 -0.5348556666666666
2624072314 -0.19725066666666669 -0.5365166666666665
2625558193 -0.19424266666666667 -0.5351733333333333
2627044072 -0.19369933333333333 -0.53443
2628529951 -0.1927743333333333 -0.531793
2630015830 -0.19413466666666662 -0.5336443333333334
2631501709 -0.19519666666666668 -0.528739
2632987588 -0.19533533333333333 -0.5244283333333333
2634473467 -0.1864263333333333 -0.5162779999999999
2635959346 -0.19529966666666665 -0.5253806666666666
2637445225 -0.195006 -0.51883
2638931104 -0.19625166666666663 -0.5150343333333333
2640416983 -0.19771566666666665 -0.5131379999999999
2641902862 -0.20221633333333333 -0.5162233333333333
2643388741 -0.1948563333333333 -0.5179959999999999
2644874620 -0.1989433333333333 -0.5191856666666665
2646360499 -0.19940133333333332 -0.5260539999999999
2647846378 -0.20333199999999998 -0.5295023333333333
2649332257 -0.20583633333333334 -0.5332486666666666
2650818136 -0.20192733333333335 -0.5309176666666666
2652304015 -0.20335366666666665 -0.5290653333333333
2653789894 -0.20083399999999998 -0.5316036666666666
2655275773 -0.20718833333333334 -0.5329386666666666
2656761652 -0.204057 -0.5346156666666666
2658247531 -0.20423966666666665 -0.5351676666666666
2659733410 -0.20401366666666665 -0.5319993333333333
2661219289 -0.200536 -0.5359203333333333
2662705168 -0.19955766666666666 -0.5307336666666665
2664191047 -0.20441133333333333 -0.531212
2665676926 -0.20591966666666667 -0.5308896666666666
2667162805 -0.19872066666666666 -0.5281703333333333
2668648684 -0.19876966666666665 -0.5250649999999999
2670134563 -0.204577 -0.521335
2671620442 -0.20229233333333332 -0.5257503333333333
2673106321 -0.20340433333333333 -0.5298259999999999
2674592200 -0.20266666666666666 -0.5322976666666667
2676078079 -0.20426066666666667 -0.5332773333333334
2677563958 -0.20383866666666664 -0.5358923333333333
2679049837 -0.20194099999999998 -0.5381983333333333
2680535716 -0.20483166666666666 -0.5397123333333332
2682021595 -0.201807 -0.5413453333333333
2683507474 -0.20479733333333333 -0.5404176666666667
2684993353 -0.20116299999999998 -0.5420146666666665
2686479232 -0.19895 -0.541669
2687965111 -0.19446499999999994 -0.5368676666666665
2689450990 -0.19698166666666667 -0.5392633333333332
2690936869 -0.19655033333333333 -0.539902
2692422748 -0.19411599999999998 -0.5392939999999999
2693908627 -0.19478466666666666 -0.5356356666666666
2695394506 -0.19364966666666664 -0.5329126666666666
2696880385 -0.18864599999999998 -0.5324213333333333
2698366264 -0.18921433333333332 -0.5268033333333333
2699852143 -0.18924766666666665 -0.526095
2701338022 -0.19143233333333334 -0.5270756666666667
2702823901 -0.189893 -0.5311313333333333
2704309780 -0.194353 -0.5309223333333333
2705795659 -0.19076299999999996 -0.536418
2707281538 -0.19323399999999996 -0.5362916666666666
2708767417 -0.19639399999999999 -0.5376963333333333
2710253296 -0.19162966666666664 -0.5382416666666666
2711739175 -0.1949093333333333 -0.5374669999999999
2713225054 -0.19174966666666665 -0.5380123333333333
2714710933 -0.19457533333333332 -0.5379273333333333
2716196812 -0.18955366666666665 -0.537671
2717682691 -0.191607 -0.538735
2719168570 -0.18903399999999998 -0.5396246666666666
2720654449 -0.1928903333333333 -0.536586
2722140328 -0.19396166666666664 -0.5347166666666667
2723626207 -0.19133466666666665 -0.534326
2725112086 -0.18796566666666664 -0.532897
2726597965 -0.1928313333333333 -0.528639
2728083844 -0.1910363333333333 -0.5264963333333333
2729569723 -0.190297 -0.5226846666666667
2731055602 -0.19395500000000002 -0.5241733333333333
2732541481 -0.1972023333333333 -0.5287856666666666
2734027360 -0.19599100000000003 -0.5314623333333333
2735513239 -0.197847 -0.5344629999999999
2736999118 -0.19555766666666666 -0.5341960000000001
2738484997 -0.195047 -0.536203
2739970876 -0.19869499999999998 -0.5359746666666667
2741456755 -0.19785266666666668 -0.5366336666666667
2742942634 -0.20104866666666665 -0.535513
2744428513 -0.203425 -0.5389273333333333
2745914392 -0.20088166666666665 -0.537131
2747400271 -0.20187933333333333 -0.5370203333333332
2748886150 -0.20153966666666667 -0.5356036666666666
2750372029 -0.2017893333333333 -0.5382553333333333
2751857908 -0.20109666666666662 -0.5362026666666666
2753343787 -0.20052766666666666 -0.5350693333333333
2754829666 -0.20300333333333334 -0.533095
2756315545 -0.20764766666666667 -0.5343196666666666
2757801424 -0.20172800000000002 -0.528519
2759287303 -0.20303266666666667 -0.5240233333333333
2760773182 -0.20229566666666665 -0.529549
2762259061 -0.20492233333333332 -0.5298953333333334
2763744940 -0.204673 -0.529669
2765230819 -0.203648 -0.5336023333333333
2766716698 -0.21130166666666664 -0.5387113333333333
2768202577 -0.20379133333333332 -0.5420576666666665
2769688456 -0.204542 -0.541364
2771174335 -0.20827166666666666 -0.5405166666666666
2772660214 -0.20327433333333333 -0.5396493333333333
2774146093 -0.2068773333333333 -0.5427463333333333
2775631972 -0.20328899999999997 -0.5433903333333333
2777117851 -0.20273333333333332 -0.540509
2778603730 -0.20189433333333331 -0.539961
2780089609 -0.20470533333333335 -0.5395763333333333
2781575488 -0.20309566666666667 -0.5347013333333333
2783061367 -0.20748133333333332 -0.5246586666666666
2784547246 -0.20312233333333332 -0.5353023333333333
2786033125 -0.20366566666666666 -0.5305106666666666
2787519004 -0.20302599999999998 -0.5281279999999999
2789004883 -0.20253866666666664 -0.5259393333333332
2790490762 -0.20414133333333334 -0.5275019999999999
2791976641 -0.20428566666666664 -0.525625
2793462520 -0.20605866666666667 -0.5294826666666667
2794948399 -0.20655433333333334 -0.5289663333333332
2796434278 -0.20240799999999998 -0.5334003333333333
2797920157 -0.20421999999999998 -0.5343653333333332
2799406036 -0.20136233333333334 -0.5323656666666667
2800891915 -0.20689266666666667 -0.53555
2802377794 -0.20543299999999998 -0.5291503333333333
2803863673 -0.19944766666666663 -0.5345759999999999
2805349552 -0.20333099999999998 -0.534286
2806835431 -0.20381533333333335 -0.5343693333333334
2808321310 -0.20441233333333333 -0.5305433333333333
2809807189 -0.20235499999999998 -0.52803
2811293068 -0.202225 -0.5273529999999998
2812778947 -0.2062373333333333 -0.5283089999999999
2814264826 -0.20456433333333335 -0.5187019999999999
2815750705 -0.20230700000000001 -0.5191976666666666
2817236584 -0.20097399999999999 -0.5180053333333332
2818722463 -0.20140899999999998 -0.5177266666666667
2820208342 -0.20536466666666667 -0.519708
2821694221 -0.20649466666666666 -0.5187809999999999
2823180100 -0.20720566666666668 -0.5277056666666666
2824665979 -0.19964166666666666 -0.5291886666666666
2826151858 -0.201395 -0.5302583333333334
2827637737 -0.20500933333333332 -0.5313023333333333
2829123616 -0.20707599999999998 -0.534995
2830609495 -0.20903433333333332 -0.5308073333333333
2832095374 -0.19875199999999998 -0.54128
2833581253 -0.207525 -0.536823
2835067132 -0.1979313333333333 -0.534764
2836553011 -0.19799933333333333 -0.5414226666666666
2838038890 -0.203182 -0.536985
2839524769 -0.20176866666666665 -0.5352806666666666
2841010648 -0.1989616666666667 -0.5314803333333333
2842496527 -0.19921899999999998 -0.5354176666666667
2843982406 -0.19992100000000002 -0.5276696666666667
2845468285 -0.19454766666666667 -0.526801
2846954164 -0.197231 -0.5258043333333333
2848440043 -0.18903133333333333 -0.5261923333333334
2849925922 -0.19456600000000002 -0.5234633333333333
2851411801 -0.19314766666666663 -0.5323719999999998
2852897680 -0.201918 -0.5249843333333334
2854383559 -0.19761900000000002 -0.5279983333333333
2855869438 -0.20087266666666664 -0.5302823333333333
2857355317 -0.20704699999999998 -0.5282256666666666
2858841196 -0.20564033333333334 -0.5284456666666666
2860327075 -0.20209033333333332 -0.5306976666666666
2861812954 -0.20730633333333331 -0.5313936666666667
2863298833 -0.20360199999999998 -0.531065
2864784712 -0.20555199999999998 -0.528931
2866270591 -0.21150033333333332 -0.5268256666666665
2867756470 -0.17092866666666665 -0.496162
2869242349 -0.213941 -0.5486073333333332
2870728228 -0.20966200000000002 -0.5261803333333332
2872214107 -0.209868 -0.5220876666666667
2873699986 -0.20406933333333332 -0.523639
2875185865 -0.21475099999999997 -0.515905
2876671744 -0.21000933333333333 -0.518118
2878157623 -0.21245799999999998 -0.5111023333333333
2879643502 -0.21038233333333334 -0.5044096666666666
2881129381 -0.213461 -0.509817
2882615260 -0.21378799999999998 -0.5138196666666667
2884101139 -0.21678233333333333 -0.515931
2885587018 -0.21711066666666667 -0.5198836666666666
2887072897 -0.21168766666666664 -0.5229809999999999
2888558776 -0.21898433333333334 -0.525185
2890044655 -0.21665666666666666 -0.5251123333333332
2891530534 -0.21101499999999998 -0.5245299999999999
2893016413 -0.2178233333333333 -0.530489
2894502292 -0.219282 -0.527783
2895988171 -0.2187893333333333 -0.5308616666666667
2897474050 -0.2235643333333333 -0.5295493333333333
2898959929 -0.21689966666666666 -0.5305163333333334
2900445808 -0.21436433333333332 -0.5284169999999999
2901931687 -0.21600533333333333 -0.5269456666666666
2903417566 -0.2104913333333333 -0.527857
2904903445 -0.22187199999999999 -0.524604
2906389324 -0.211757 -0.526262
2907875203 -0.21307866666666667 -0.5225193333333333
2909361082 -0.2110083333333333 -0.5163913333333332
2910846961 -0.21825133333333335 -0.5172606666666666
2912332840 -0.21748166666666668 -0.5202513333333334
2913818719 -0.2172553333333333 -0.5238019999999999
2915304598 -0.21790899999999996 -0.5308256666666666
2916790477 -0.21537233333333333 -0.5289433333333333
2918276356 -0.22649766666666665 -0.5311203333333332
2919762235 -0.22271533333333332 -0.5316786666666666
2921248114 -0.23498 -0.49132866666666664
2922733993 -0.21605866666666668 -0.5693243333333333
2924219872 -0.22080533333333333 -0.5333893333333333
2925705751 -0.2226223333333333 -0.5342326666666666
2927191630 -0.22028499999999998 -0.5364793333333333
2928677509 -0.21826066666666666 -0.5336563333333333
2930163388 -0.22651066666666667 -0.533696
2931649267 -0.22580633333333333 -0.5326963333333332
2933135146 -0.22279233333333331 -0.5338293333333333
2934621025 -0.23052033333333333 -0.5307856666666667
2936106904 -0.2157353333333333 -0.5268836666666666
2937592783 -0.215691 -0.5301946666666667
2939078662 -0.21853866666666666 -0.5260856666666667
2940564541 -0.21854766666666664 -0.5238056666666666
2942050420 -0.219018 -0.5212013333333333
2943536299 -0.22492933333333331 -0.5286919999999999
2945022178 -0.23191766666666663 -0.5290619999999999
2946508057 -0.2217223333333333 -0.5287459999999999
2947993936 -0.22239266666666668 -0.5328863333333334
2949479815 -0.22443533333333332 -0.5312826666666666
2950965694 -0.21933833333333333 -0.5335270000000001
2952451573 -0.22174066666666664 -0.5335953333333333
2953937452 -0.227722 -0.532346
2955423331 -0.22318833333333332 -0.5305419999999998
2956909210 -0.22013566666666665 -0.5304503333333332
2958395089 -0.218721 -0.531201
2959880968 -0.22261233333333333 -0.5280683333333334
2961366847 -0.21982666666666664 -0.5247649999999999
2962852726 -0.22284566666666664 -0.5207526666666666
2964338605 -0.22186799999999998 -0.5222156666666666
2965824484 -0.21427633333333332 -0.5192613333333334
2967310363 -0.2220906666666667 -0.5164473333333333
2968796242 -0.21583999999999998 -0.5084973333333334
2970282121 -0.21527033333333334 -0.51013
2971768000 -0.22016833333333333 -0.5123416666666667
2973253879 -0.22064733333333333 -0.5149396666666666
2974739758 -0.221155 -0.5180893333333333
2976225637 -0.22984299999999996 -0.5195596666666666
2977711516 -0.2275403333333333 -0.5209496666666666
2979197395 -0.22867133333333334 -0.5234696666666667
2980683274 -0.22580566666666668 -0.5241096666666666
2982169153 -0.22484266666666666 -0.5248766666666667
2983655032 -0.228186 -0.5269729999999999
2985140911 -0.22647999999999996 -0.5245326666666666
2986626790 -0.22921133333333332 -0.5291326666666667
2988112669 -0.23489299999999996 -0.530165
2989598548 -0.22903066666666666 -0.526046
2991084427 -0.23205666666666663 -0.530214
2992570306 -0.23063833333333333 -0.5282023333333333
2994056185 -0.2231133333333333 -0.5237806666666667
2995542064 -0.22106066666666663 -0.5234586666666666
2997027943 -0.226613 -0.5220616666666666
2998513822 -0.22394633333333336 -0.5271193333333333
2999999701 -0.222395 -0.5229166666666667
