# HZ S RI R 50
10000 1.619452 0.678522
1495879 -0.717882 1.472708
2981758 -0.30597 0.756095
4467637 -0.117311 0.518476
5953516 -0.035032 0.395215
7439395 0.000975 0.316244
8925274 0.744741 -0.11183
10411153 0.526246 -0.135319
11897032 0.395787 -0.137724
13382911 0.309118 -0.134667
14868790 0.248165 -0.128532
16354669 0.187092 -0.138274
17840548 0.170567 -0.115297
19326427 0.144049 -0.109523
20812306 0.123072 -0.104131
22298185 0.106011 -0.09935
23784064 0.09204 -0.094684
25269943 0.080016 -0.090434
26755822 0.070081 -0.086633
28241701 0.061305 -0.083225
29727580 0.05373 -0.080118
31213459 0.052425 -0.08384
32699338 0.052026 -0.089654
34185217 0.051611 -0.095402
35671096 0.050333 -0.102528
37156975 0.047584 -0.111049
38642854 0.044645 -0.12011
40128733 0.037516 -0.131621
41614612 0.034094 -0.143205
43100491 0.021949 -0.159457
44586370 0.007127 -0.180133
46072249 -0.020643 -0.208087
47558128 -0.05831 -0.25085
49044007 -0.124057 -0.327275
50529886 -0.239711 -0.514045
52015765 -0.473931 -1.181674
53501644 1.623418 -1.584638
54987523 1.25192 -0.255104
56473402 0.964555 -0.143869
57959281 0.883886 -0.132106
59445160 0.912242 -0.09693
60931039 0.945744 -0.07039
62416918 0.951386 -0.080954
63902797 0.953278 -0.090526
65388676 0.956282 -0.099795
66874555 0.957563 -0.095964
68360434 0.949722 -0.176418
69846313 0.964239 -0.077392
71332192 0.964717 -0.07339
72818071 0.962975 -0.116802
74303950 0.964664 -0.108
75789829 0.969387 -0.043521
77275708 0.967473 -0.051724
78761587 0.966889 -0.048716
80247466 0.954555 -0.157477
81733345 0.95952 -0.114508
83219224 0.955658 -0.124036
84705103 0.948937 -0.150081
86190982 0.957158 -0.031883
87676861 0.94251 -0.143642
89162740 0.94162 -0.11799
90648619 0.938679 -0.137328
92134498 0.942625 -0.136743
93620377 0.949253 -0.107559
95106256 0.950768 -0.134342
96592135 0.952694 -0.133999
98078014 0.954783 -0.129302
99563893 0.956346 -0.12819
101049772 0.957844 -0.143047
102535651 0.95655 -0.144726
104021530 0.957516 -0.143512
105507409 0.95699 -0.147058
106993288 0.956364 -0.148506
108479167 0.957023 -0.14849
109965046 0.953566 -0.15105
111450925 0.952664 -0.151809
112936804 0.948353 -0.152969
114422683 0.946689 -0.155812
115908562 0.944758 -0.154657
117394441 0.940028 -0.157833
118880320 0.935609 -0.15717
120366199 0.934024 -0.15986
121852078 0.937923 -0.163407
123337957 0.939968 -0.165594
124823836 0.944676 -0.168027
126309715 0.949725 -0.171623
127795594 0.952993 -0.173667
129281473 0.954411 -0.173502
130767352 0.95737 -0.176206
132253231 0.958971 -0.178781
133739110 0.958271 -0.180342
135224989 0.942751 -0.188554
136710868 0.943767 -0.18974
138196747 0.944564 -0.191086
139682626 0.942321 -0.193079
141168505 0.941986 -0.192994
142654384 0.939565 -0.194939
144140263 0.93719 -0.195877
145626142 0.935161 -0.195877
147112021 0.931199 -0.197023
148597900 0.929519 -0.197374
150083779 0.925503 -0.198162
151569658 0.928684 -0.200928
153055537 0.931071 -0.204054
154541416 0.93289 -0.20574
156027295 0.936405 -0.209862
157513174 0.93938 -0.209848
158999053 0.940916 -0.211908
160484932 0.940103 -0.214199
161970811 0.940808 -0.216829
163456690 0.941346 -0.217994
164942569 0.941238 -0.219464
166428448 0.940709 -0.220554
167914327 0.939682 -0.221685
169400206 0.938141 -0.223578
170886085 0.911887 -0.273501
172371964 0.935052 -0.225453
173857843 0.930214 -0.227572
175343722 0.926797 -0.228785
176829601 0.922091 -0.231888
178315480 0.918876 -0.232664
179801359 0.914853 -0.234616
181287238 0.916375 -0.236618
182773117 0.920353 -0.2397
184258996 0.922603 -0.242474
185744875 0.925503 -0.24464
187230754 0.927961 -0.246376
188716633 0.928835 -0.24888
190202512 0.929932 -0.250841
191688391 0.931111 -0.252617
193174270 0.931866 -0.253795
194660149 0.930758 -0.255455
196146028 0.93075 -0.257054
197631907 0.92808 -0.25939
199117786 0.927523 -0.260414
200603665 0.925707 -0.261998
202089544 0.922812 -0.262969
203575423 0.919348 -0.265338
205061302 0.915343 -0.266841
206547181 0.912527 -0.267851
208033060 0.908377 -0.268576
209518939 0.902829 -0.270763
211004818 0.904601 -0.27365
212490697 0.906727 -0.276987
213976576 0.910893 -0.28044
215462455 0.913106 -0.282474
216948334 0.914931 -0.285841
218434213 0.917724 -0.287383
219920092 0.918959 -0.287373
221405971 0.920267 -0.291039
222891850 0.918495 -0.29363
224377729 0.92106 -0.293524
225863608 0.919488 -0.29474
227349487 0.918969 -0.297168
228835366 0.916717 -0.298941
230321245 0.914803 -0.299149
231807124 0.913352 -0.300787
233293003 0.907215 -0.302123
234778882 0.904393 -0.302921
236264761 0.900244 -0.305122
237750640 0.895806 -0.305285
239236519 0.890415 -0.307079
240722398 0.889332 -0.309377
242208277 0.900505 -0.29797
243694156 0.896819 -0.316719
245180035 0.899778 -0.318718
246665914 0.902817 -0.321909
248151793 0.90462 -0.324768
249637672 0.905485 -0.326677
251123551 0.906454 -0.328669
252609430 0.905959 -0.331072
254095309 0.906835 -0.332694
255581188 0.906483 -0.332638
257067067 0.906054 -0.334268
258552946 0.903429 -0.336467
260038825 0.901908 -0.336558
261524704 0.898224 -0.338142
263010583 0.895405 -0.338721
264496462 0.889902 -0.340278
265982341 0.886401 -0.341137
267468220 0.881809 -0.341668
268954099 0.877232 -0.342681
270439978 0.87379 -0.344867
271925857 0.876527 -0.349188
273411736 0.880744 -0.352397
274897615 0.883303 -0.355223
276383494 0.885451 -0.359483
277869373 0.887049 -0.362239
279355252 0.889349 -0.362742
280841131 0.889427 -0.36556
282327010 0.890555 -0.366305
283812889 0.889334 -0.369072
285298768 0.890308 -0.369644
286784647 0.889028 -0.371823
288270526 0.886444 -0.373656
289756405 0.883853 -0.372489
291242284 0.881536 -0.372265
292728163 0.877674 -0.373713
294214042 0.874112 -0.374574
295699921 0.869006 -0.37463
297185800 0.864374 -0.374331
298671679 0.858618 -0.376337
300157558 0.852499 -0.376045
301643437 0.857089 -0.380653
303129316 0.859561 -0.384236
304615195 0.86115 -0.390298
306101074 0.865714 -0.390856
307586953 0.866663 -0.393887
309072832 0.868018 -0.396626
310558711 0.869132 -0.398821
312044590 0.870611 -0.400271
313530469 0.870808 -0.401951
315016348 0.867617 -0.40389
316502227 0.867095 -0.404845
317988106 0.866712 -0.404749
319473985 0.865115 -0.404515
320959864 0.780638 -0.438234
322445743 0.859747 -0.40541
323931622 0.855834 -0.405774
325417501 0.850528 -0.406499
326903380 0.846504 -0.404266
328389259 0.840345 -0.404314
329875138 0.835967 -0.406096
331361017 0.837198 -0.409934
332846896 0.840842 -0.41351
334332775 0.844283 -0.41668
335818654 0.844919 -0.421375
337304533 0.846284 -0.424031
338790412 0.84912 -0.428197
340276291 0.849287 -0.430142
341762170 0.849915 -0.43339
343248049 0.850607 -0.434948
344733928 0.849176 -0.436688
346219807 0.848789 -0.43715
347705686 0.846397 -0.440246
349191565 0.846989 -0.43949
350677444 0.844234 -0.439809
352163323 0.841244 -0.438916
353649202 0.836708 -0.439627
355135081 0.832565 -0.438968
356620960 0.830154 -0.439603
358106839 0.825961 -0.440347
359592718 0.819676 -0.436371
361078597 0.820594 -0.441048
362564476 0.82224 -0.446248
364050355 0.825677 -0.450362
365536234 0.825848 -0.453849
367022113 0.827574 -0.456025
368507992 0.829376 -0.458593
369993871 0.829969 -0.461036
371479750 0.829501 -0.462833
372965629 0.82917 -0.465053
374451508 0.827995 -0.468579
375937387 0.82763 -0.469085
377423266 0.827129 -0.469777
378909145 0.823927 -0.472252
380395024 0.822208 -0.46979
381880903 0.819296 -0.471108
383366782 0.816803 -0.472421
384852661 0.813725 -0.471345
386338540 0.809481 -0.46852
387824419 0.80505 -0.46937
389310298 0.799064 -0.469549
390796177 0.799227 -0.471762
392282056 0.799417 -0.475959
393767935 0.800654 -0.48011
395253814 0.804764 -0.481999
396739693 0.804082 -0.485654
398225572 0.806061 -0.487037
399711451 0.805982 -0.490808
401197330 0.80786 -0.492906
402683209 0.808045 -0.49475
404169088 0.807064 -0.495009
405654967 0.806056 -0.497229
407140846 0.80576 -0.4969
408626725 0.804971 -0.498089
410112604 0.79933 -0.498775
411598483 0.799883 -0.497492
413084362 0.796584 -0.498391
414570241 0.793707 -0.498091
416056120 0.791177 -0.495784
417541999 0.785842 -0.496525
419027878 0.78112 -0.495906
420513757 0.779188 -0.496808
421999636 0.779474 -0.500076
423485515 0.781944 -0.507534
424971394 0.784452 -0.508135
426457273 0.784334 -0.510192
427943152 0.785035 -0.514037
429429031 0.785522 -0.515553
430914910 0.786295 -0.518336
432400789 0.785913 -0.521172
433886668 0.78585 -0.521341
435372547 0.784007 -0.521919
436858426 0.783833 -0.525647
438344305 0.782075 -0.525591
439830184 0.78011 -0.522839
441316063 0.777996 -0.523175
442801942 0.774053 -0.522152
444287821 0.771936 -0.524718
445773700 0.767807 -0.522987
447259579 0.762538 -0.52443
448745458 0.757838 -0.520637
450231337 0.753989 -0.520941
451717216 0.744673 -0.5384
453203095 0.768597 -0.518241
454688974 0.747668 -0.547215
456174853 0.762084 -0.536181
457660732 0.762533 -0.539968
459146611 0.762971 -0.543545
460632490 0.764666 -0.544497
462118369 0.761969 -0.54775
463604248 0.762529 -0.546396
465090127 0.761904 -0.548288
466576006 0.76131 -0.550021
468061885 0.759486 -0.548536
469547764 0.758088 -0.550594
471033643 0.754278 -0.549696
472519522 0.752752 -0.549466
474005401 0.74978 -0.550225
475491280 0.745325 -0.548701
476977159 0.740767 -0.549357
478463038 0.737065 -0.547861
479948917 0.732068 -0.547324
481434796 0.7338 -0.551231
482920675 0.735669 -0.554171
484406554 0.738195 -0.557993
485892433 0.739256 -0.561062
487378312 0.739776 -0.565223
488864191 0.741322 -0.56695
490350070 0.741121 -0.566338
491835949 0.741513 -0.5699
493321828 0.742085 -0.571404
494807707 0.741029 -0.571592
496293586 0.738751 -0.572021
497779465 0.738739 -0.574652
499265344 0.735801 -0.574665
500751223 0.733546 -0.57414
502237102 0.73124 -0.572517
503722981 0.727678 -0.573223
505208860 0.725201 -0.572111
506694739 0.719835 -0.572627
508180618 0.715993 -0.570385
509666497 0.711244 -0.570073
511152376 0.711326 -0.572982
512638255 0.712353 -0.578489
514124134 0.715888 -0.579594
515610013 0.7158 -0.584881
517095892 0.717424 -0.587816
518581771 0.718603 -0.589234
520067650 0.718362 -0.592531
521553529 0.716953 -0.593688
523039408 0.717464 -0.595936
524525287 0.717437 -0.595664
526011166 0.716092 -0.595841
527497045 0.713365 -0.597992
528982924 0.71274 -0.59779
530468803 0.71146 -0.59674
531954682 0.707201 -0.597115
533440561 0.704627 -0.596165
534926440 0.700791 -0.596359
536412319 0.695739 -0.594505
537898198 0.692284 -0.593922
539384077 0.687381 -0.592278
540869956 0.686679 -0.592832
542355835 0.688666 -0.599657
543841714 0.689973 -0.600859
545327593 0.69165 -0.603695
546813472 0.692437 -0.607549
548299351 0.69376 -0.609191
549785230 0.692641 -0.611854
551271109 0.693042 -0.615657
552756988 0.692664 -0.613964
554242867 0.691056 -0.615874
555728746 0.69099 -0.615644
557214625 0.688619 -0.61454
558700504 0.687797 -0.614987
560186383 0.684985 -0.61364
561672262 0.683134 -0.613411
563158141 0.678535 -0.613029
564644020 0.675392 -0.611493
566129899 0.671602 -0.611758
567615778 0.667755 -0.609536
569101657 0.662171 -0.606667
570587536 0.657748 -0.607989
572073415 0.658735 -0.614293
573559294 0.662975 -0.618623
575045173 0.662091 -0.622742
576531052 0.663504 -0.62668
578016931 0.665482 -0.628856
579502810 0.667121 -0.631236
580988689 0.665517 -0.634129
582474568 0.666399 -0.63748
583960447 0.664507 -0.640061
585446326 0.665747 -0.63999
586932205 0.662872 -0.640358
588418084 0.662276 -0.641944
589903963 0.663363 -0.641104
591389842 0.65967 -0.641857
592875721 0.657443 -0.641051
594361600 0.653698 -0.640575
595847479 0.650323 -0.639719
597333358 0.646365 -0.639007
598819237 0.640224 -0.638234
600305116 0.638009 -0.636701
601790995 0.638934 -0.640991
603276874 0.641787 -0.645586
604762753 0.642957 -0.650771
606248632 0.645255 -0.652508
607734511 0.644235 -0.65516
609220390 0.644017 -0.656879
610706269 0.644007 -0.659098
612192148 0.644715 -0.661841
613678027 0.643486 -0.662512
615163906 0.64281 -0.661719
616649785 0.642636 -0.662797
618135664 0.637352 -0.66656
619621543 0.542086 -0.642165
621107422 0.635748 -0.663702
622593301 0.633349 -0.660661
624079180 0.629858 -0.661136
625565059 0.627176 -0.658979
627050938 0.62091 -0.658502
628536817 0.615801 -0.6548
630022696 0.613049 -0.652491
631508575 0.614972 -0.657052
632994454 0.611942 -0.659684
634480333 0.615431 -0.663933
635966212 0.613859 -0.667999
637452091 0.614834 -0.670715
638937970 0.616427 -0.671842
640423849 0.614321 -0.672406
641909728 0.613144 -0.674428
643395607 0.612298 -0.676761
644881486 0.611471 -0.676433
646367365 0.609924 -0.678253
647853244 0.60653 -0.678638
649339123 0.606754 -0.678378
650825002 0.604691 -0.676272
652310881 0.599899 -0.67653
653796760 0.596761 -0.672293
655282639 0.590266 -0.67256
656768518 0.590619 -0.670951
658254397 0.585185 -0.66902
659740276 0.581678 -0.667569
661226155 0.580927 -0.671248
662712034 0.579571 -0.675173
664197913 0.580628 -0.679904
665683792 0.579204 -0.682932
667169671 0.581087 -0.686051
668655550 0.579349 -0.690562
670141429 0.577683 -0.693026
671627308 0.579706 -0.697043
673113187 0.579558 -0.696692
674599066 0.577675 -0.69916
676084945 0.579267 -0.698511
677570824 0.575106 -0.70035
679056703 0.571712 -0.70273
680542582 0.570853 -0.700497
682028461 0.569011 -0.701315
683514340 0.567297 -0.701979
685000219 0.56426 -0.700781
686486098 0.56123 -0.69949
687971977 0.558173 -0.69802
689457856 0.554642 -0.693957
690943735 0.553198 -0.698406
692429614 0.554838 -0.70285
693915493 0.560545 -0.705306
695401372 0.556957 -0.709991
696887251 0.560254 -0.71257
698373130 0.561722 -0.712438
699859009 0.562993 -0.713165
701344888 0.563421 -0.71656
702830767 0.563974 -0.714411
704316646 0.565038 -0.7167
705802525 0.562722 -0.716932
707288404 0.563491 -0.714333
708774283 0.56284 -0.710751
710260162 0.560377 -0.713738
711746041 0.560612 -0.712379
713231920 0.5562 -0.708375
714717799 0.556228 -0.706418
716203678 0.553613 -0.705583
717689557 0.55284 -0.703467
719175436 0.548409 -0.699105
720661315 0.54531 -0.699195
722147194 0.549143 -0.702113
723633073 0.546697 -0.705891
725118952 0.548897 -0.708884
726604831 0.54759 -0.713489
728090710 0.548319 -0.715041
729576589 0.549711 -0.716287
731062468 0.54965 -0.717378
732548347 0.546967 -0.719923
734034226 0.546244 -0.720107
735520105 0.546924 -0.720355
737005984 0.543741 -0.72031
738491863 0.542906 -0.721696
739977742 0.542864 -0.719501
741463621 0.540683 -0.71897
742949500 0.536017 -0.718604
744435379 0.533706 -0.716749
745921258 0.53141 -0.714365
747407137 0.527567 -0.71237
748893016 0.523709 -0.709593
750378895 0.523421 -0.706808
751864774 0.520361 -0.713261
753350653 0.518967 -0.716569
754836532 0.521374 -0.720246
756322411 0.520561 -0.725197
757808290 0.521526 -0.726872
759294169 0.52081 -0.728903
760780048 0.521484 -0.729512
762265927 0.520375 -0.732939
763751806 0.519463 -0.734405
765237685 0.517791 -0.733208
766723564 0.519829 -0.731415
768209443 0.516744 -0.733164
769695322 0.513856 -0.732856
771181201 0.511494 -0.732462
772667080 0.51192 -0.72967
774152959 0.507929 -0.72923
775638838 0.502966 -0.727541
777124717 0.497038 -0.727761
778610596 0.493828 -0.725711
780096475 0.490671 -0.722898
781582354 0.491899 -0.726617
783068233 0.493536 -0.730324
784554112 0.493177 -0.73441
786039991 0.492429 -0.738322
787525870 0.493618 -0.739107
789011749 0.494585 -0.744602
790497628 0.495049 -0.746071
791983507 0.492716 -0.746648
793469386 0.494857 -0.747274
794955265 0.494518 -0.749433
796441144 0.49474 -0.74788
797927023 0.493436 -0.747375
799412902 0.492738 -0.74643
800898781 0.489885 -0.744781
802384660 0.487815 -0.744587
803870539 0.483789 -0.74215
805356418 0.482833 -0.740954
806842297 0.480508 -0.739024
808328176 0.47657 -0.736412
809814055 0.472934 -0.73174
811299934 0.4726 -0.737625
812785813 0.473204 -0.740845
814271692 0.473414 -0.744635
815757571 0.472802 -0.74684
817243450 0.473806 -0.75191
818729329 0.475767 -0.751667
820215208 0.47453 -0.755904
821701087 0.476686 -0.756617
823186966 0.474683 -0.757338
824672845 0.469583 -0.757747
826158724 0.472567 -0.759024
827644603 0.471285 -0.757541
829130482 0.469136 -0.758442
830616361 0.464265 -0.757257
832102240 0.465426 -0.75368
833588119 0.463087 -0.753922
835073998 0.459342 -0.751838
836559877 0.455334 -0.748586
838045756 0.454454 -0.742963
839531635 0.451146 -0.74054
841017514 0.451097 -0.744529
842503393 0.451619 -0.747747
843989272 0.447633 -0.753529
845475151 0.447124 -0.758033
846961030 0.449733 -0.757782
848446909 0.449511 -0.763703
849932788 0.449057 -0.766954
851418667 0.447225 -0.768492
852904546 0.447591 -0.77021
854390425 0.447302 -0.7711
855876304 0.446722 -0.771731
857362183 0.444147 -0.7737
858848062 0.443775 -0.770935
860333941 0.443835 -0.770383
861819820 0.443338 -0.770003
863305699 0.437982 -0.769666
864791578 0.439081 -0.767285
866277457 0.433137 -0.767592
867763336 0.433862 -0.761705
869249215 0.431231 -0.760425
870735094 0.429544 -0.759787
872220973 0.429669 -0.764025
873706852 0.429168 -0.768022
875192731 0.428635 -0.769773
876678610 0.429285 -0.775509
878164489 0.427395 -0.777403
879650368 0.428126 -0.778717
881136247 0.42864 -0.779654
882622126 0.424957 -0.780478
884108005 0.424844 -0.783034
885593884 0.423136 -0.783988
887079763 0.422991 -0.782344
888565642 0.420689 -0.783633
890051521 0.420553 -0.782224
891537400 0.415775 -0.781727
893023279 0.418989 -0.777742
894509158 0.413538 -0.777533
895995037 0.415855 -0.774202
897480916 0.408919 -0.772459
898966795 0.409226 -0.769233
900452674 0.407988 -0.765714
901938553 0.405008 -0.772703
903424432 0.404654 -0.776573
904910311 0.402819 -0.779608
906396190 0.40179 -0.78134
907882069 0.402357 -0.781666
909367948 0.404352 -0.781696
910853827 0.403718 -0.783723
912339706 0.404391 -0.785189
913825585 0.404826 -0.787417
915311464 0.403919 -0.785348
916797343 0.400072 -0.786452
918283222 0.397267 -0.785089
919769101 0.4927 -0.868873
921254980 0.398831 -0.781508
922740859 0.397105 -0.780217
924226738 0.392805 -0.778111
925712617 0.395452 -0.774424
927198496 0.385701 -0.772365
928684375 0.384662 -0.770609
930170254 0.383824 -0.766212
931656133 0.383475 -0.771547
933142012 0.383007 -0.774917
934627891 0.382243 -0.778965
936113770 0.381481 -0.78167
937599649 0.383019 -0.782207
939085528 0.382893 -0.784946
940571407 0.381434 -0.787317
942057286 0.382353 -0.787813
943543165 0.382521 -0.787452
945029044 0.378357 -0.789974
946514923 0.379255 -0.789801
948000802 0.376017 -0.789414
949486681 0.379854 -0.78698
950972560 0.374549 -0.786257
952458439 0.375974 -0.784161
953944318 0.374203 -0.784003
955430197 0.370154 -0.783373
956916076 0.370622 -0.778454
958401955 0.36709 -0.778572
959887834 0.367444 -0.773644
961373713 0.364531 -0.77911
962859592 0.362492 -0.782885
964345471 0.363937 -0.783492
965831350 0.362764 -0.788033
967317229 0.365863 -0.788766
968803108 0.36209 -0.791374
970288987 0.363694 -0.791684
971774866 0.363722 -0.794407
973260745 0.359064 -0.795889
974746624 0.363369 -0.794901
976232503 0.362747 -0.793643
977718382 0.364105 -0.793214
979204261 0.361886 -0.793326
980690140 0.359813 -0.793841
982176019 0.354939 -0.791926
983661898 0.358338 -0.788803
985147777 0.35524 -0.787491
986633656 0.350569 -0.784652
988119535 0.347489 -0.7828
989605414 0.345451 -0.779683
991091293 0.346041 -0.781479
992577172 0.34471 -0.785735
994063051 0.344128 -0.788141
995548930 0.345991 -0.792014
997034809 0.345082 -0.794217
998520688 0.34044 -0.796136
1000006567 0.341505 -0.796607
1001492446 0.344 -0.796996
1002978325 0.341587 -0.800578
1004464204 0.340071 -0.798452
1005950083 0.341042 -0.798875
1007435962 0.34021 -0.798108
1008921841 0.338377 -0.799002
1010407720 0.336535 -0.795551
1011893599 0.332976 -0.793727
1013379478 0.331379 -0.792578
1014865357 0.328238 -0.791709
1016351236 0.326595 -0.789051
1017837115 0.321996 -0.78608
1019322994 0.318164 -0.783688
1020808873 0.316639 -0.785292
1022294752 0.319241 -0.789608
1023780631 0.318103 -0.790813
1025266510 0.317399 -0.796372
1026752389 0.317455 -0.798427
1028238268 0.317295 -0.802105
1029724147 0.317613 -0.804161
1031210026 0.314536 -0.805957
1032695905 0.315811 -0.80608
1034181784 0.318043 -0.80722
1035667663 0.312881 -0.807218
1037153542 0.315015 -0.805555
1038639421 0.311564 -0.805318
1040125300 0.309856 -0.805628
1041611179 0.309068 -0.804454
1043097058 0.305483 -0.803357
1044582937 0.305883 -0.801389
1046068816 0.303205 -0.797185
1047554695 0.301663 -0.795406
1049040574 0.298397 -0.790276
1050526453 0.297764 -0.791436
1052012332 0.294558 -0.795104
1053498211 0.298665 -0.799213
1054984090 0.296353 -0.804291
1056469969 0.297202 -0.806086
1057955848 0.298498 -0.806481
1059441727 0.298056 -0.810389
1060927606 0.296092 -0.812519
1062413485 0.297208 -0.812966
1063899364 0.298415 -0.812192
1065385243 0.301004 -0.812408
1066871122 0.297493 -0.812602
1068357001 0.293805 -0.811471
1069842880 0.29701 -0.809681
1071328759 0.290923 -0.807948
1072814638 0.303711 -0.803104
1074300517 0.28934 -0.802905
1075786396 0.288328 -0.799592
1077272275 0.28874 -0.796174
1078758154 0.285168 -0.790701
1080244033 0.283513 -0.78943
1081729912 0.28005 -0.792351
1083215791 0.279977 -0.796723
1084701670 0.280204 -0.799511
1086187549 0.276706 -0.803382
1087673428 0.280862 -0.803701
1089159307 0.278882 -0.807459
1090645186 0.279206 -0.805995
1092131065 0.279762 -0.808734
1093616944 0.275322 -0.809982
1095102823 0.277477 -0.808436
1096588702 0.272272 -0.80912
1098074581 0.276896 -0.805594
1099560460 0.275479 -0.804477
1101046339 0.271897 -0.803548
1102532218 0.269862 -0.801957
1104018097 0.271019 -0.797294
1105503976 0.265971 -0.795132
1106989855 0.264569 -0.791314
1108475734 0.262286 -0.786256
1109961613 0.259742 -0.78358
1111447492 0.258018 -0.786822
1112933371 0.25924 -0.791106
1114419250 0.253872 -0.796187
1115905129 0.25813 -0.798738
1117391008 0.255051 -0.801541
1118876887 0.255323 -0.802873
1120362766 0.252368 -0.805715
1121848645 0.253713 -0.807798
1123334524 0.255852 -0.807768
1124820403 0.253869 -0.809718
1126306282 0.256377 -0.807519
1127792161 0.25611 -0.808092
1129278040 0.256919 -0.805983
1130763919 0.250645 -0.806362
1132249798 0.246853 -0.805485
1133735677 0.249072 -0.799825
1135221556 0.252652 -0.797096
1136707435 0.250109 -0.794798
1138193314 0.250218 -0.790515
1139679193 0.247703 -0.787248
1141165072 0.244207 -0.789112
1142650951 0.243641 -0.79192
1144136830 0.239624 -0.795322
1145622709 0.240551 -0.800278
1147108588 0.238831 -0.8006
1148594467 0.243401 -0.802585
1150080346 0.241434 -0.804674
1151566225 0.237097 -0.805872
1153052104 0.235891 -0.806541
1154537983 0.234949 -0.807287
1156023862 0.232164 -0.806774
1157509741 0.231678 -0.808276
1158995620 0.234264 -0.805013
1160481499 0.229502 -0.803156
1161967378 0.230417 -0.80025
1163453257 0.231193 -0.801764
1164939136 0.232536 -0.796236
1166425015 0.225323 -0.795085
1167910894 0.224243 -0.791561
1169396773 0.221652 -0.787674
1170882652 0.220339 -0.788659
1172368531 0.223352 -0.79098
1173854410 0.222408 -0.794485
1175340289 0.222521 -0.799012
1176826168 0.222541 -0.803023
1178312047 0.220855 -0.801661
1179797926 0.223723 -0.804245
1181283805 0.219631 -0.805902
1182769684 0.220922 -0.804672
1184255563 0.222488 -0.805737
1185741442 0.221786 -0.807154
1187227321 0.219973 -0.804878
1188713200 0.217246 -0.808236
1190199079 0.219083 -0.804884
1191684958 0.223815 -0.801355
1193170837 0.222416 -0.800512
1194656716 0.219968 -0.797061
1196142595 0.21933 -0.79382
1197628474 0.213285 -0.794445
1199114353 0.212427 -0.790451
1200600232 0.214934 -0.787859
1202086111 0.217009 -0.791027
1203571990 0.210986 -0.793138
1205057869 0.212263 -0.799678
1206543748 0.212039 -0.801128
1208029627 0.214464 -0.798037
1209515506 0.211638 -0.804808
1211001385 0.212641 -0.804291
1212487264 0.212422 -0.806438
1213973143 0.210006 -0.804088
1215459022 0.204341 -0.807048
1216944901 0.210001 -0.803218
1218430780 0.208334 -0.806111
1219916659 0.208842 -0.805104
1221402538 0.205918 -0.804323
1222888417 0.204985 -0.802542
1224374296 0.204923 -0.798591
1225860175 0.205515 -0.797037
1227346054 0.204423 -0.794925
1228831933 0.202764 -0.788866
1230317812 0.203342 -0.789944
1231803691 0.197317 -0.796858
1233289570 0.201695 -0.796851
1234775449 0.204661 -0.799424
1236261328 0.206116 -0.801492
1237747207 0.201888 -0.805784
1239233086 0.205209 -0.808265
1240718965 0.203469 -0.812665
1242204844 0.20331 -0.811385
1243690723 0.20187 -0.810479
1245176602 0.222702 -0.809199
1246662481 0.206307 -0.809816
1248148360 0.203518 -0.810232
1249634239 0.20617 -0.808847
1251120118 0.205447 -0.807687
1252605997 0.207263 -0.806694
1254091876 0.209812 -0.80179
1255577755 0.206693 -0.799633
1257063634 0.205337 -0.799093
1258549513 0.201501 -0.798732
1260035392 0.204113 -0.791864
1261521271 0.200718 -0.794426
1263007150 0.202974 -0.79764
1264493029 0.197034 -0.804507
1265978908 0.199579 -0.804679
1267464787 0.202847 -0.801151
1268950666 0.193223 -0.807254
1270436545 0.195553 -0.807446
1271922424 0.193394 -0.811897
1273408303 0.191563 -0.809792
1274894182 0.192311 -0.809476
1276380061 0.192396 -0.811734
1277865940 0.188833 -0.809545
1279351819 0.187415 -0.810227
1280837698 0.18052 -0.811482
1282323577 0.185877 -0.807198
1283809456 0.183966 -0.805046
1285295335 0.177782 -0.804937
1286781214 0.17642 -0.801949
1288267093 0.170834 -0.800261
1289752972 0.171509 -0.797667
1291238851 0.16697 -0.7988
1292724730 0.16604 -0.802584
1294210609 0.169138 -0.802436
1295696488 0.169786 -0.806053
1297182367 0.165867 -0.808405
1298668246 0.164584 -0.80906
1300154125 0.167727 -0.809382
1301640004 0.167564 -0.809476
1303125883 0.170269 -0.811153
1304611762 0.166791 -0.808883
1306097641 0.164631 -0.809624
1307583520 0.159635 -0.807277
1309069399 0.162293 -0.806347
1310555278 0.161798 -0.804331
1312041157 0.160619 -0.801965
1313527036 0.159442 -0.799327
1315012915 0.154653 -0.797898
1316498794 0.152048 -0.792774
1317984673 0.15295 -0.790933
1319470552 0.146694 -0.789672
1320956431 0.142763 -0.7888
1322442310 0.147834 -0.794029
1323928189 0.145265 -0.79744
1325414068 0.146616 -0.801722
1326899947 0.145489 -0.805017
1328385826 0.151349 -0.809591
1329871705 0.149609 -0.808685
1331357584 0.154755 -0.81203
1332843463 0.148893 -0.813702
1334329342 0.151337 -0.813806
1335815221 0.151615 -0.814971
1337301100 0.152016 -0.815474
1338786979 0.151995 -0.816119
1340272858 0.149266 -0.815493
1341758737 0.149617 -0.812126
1343244616 0.151698 -0.811526
1344730495 0.150521 -0.809138
1346216374 0.14434 -0.808785
1347702253 0.147659 -0.803268
1349188132 0.14579 -0.796884
1350674011 0.140558 -0.800541
1352159890 0.143264 -0.80437
1353645769 0.150311 -0.809562
1355131648 0.143848 -0.814689
1356617527 0.145139 -0.814676
1358103406 0.143651 -0.81832
1359589285 0.146254 -0.820184
1361075164 0.14568 -0.821998
1362561043 0.14208 -0.822962
1364046922 0.142965 -0.824384
1365532801 0.145633 -0.824486
1367018680 0.139195 -0.826727
1368504559 0.144786 -0.82453
1369990438 0.15416 -0.825117
1371476317 0.139504 -0.821095
1372962196 0.13547 -0.821286
1374448075 0.13882 -0.817997
1375933954 0.134214 -0.814144
1377419833 0.130564 -0.810649
1378905712 0.128273 -0.8046
1380391591 0.128287 -0.806326
1381877470 0.128323 -0.811473
1383363349 0.129534 -0.810793
1384849228 0.129145 -0.817498
1386335107 0.131276 -0.817778
1387820986 0.128424 -0.82077
1389306865 0.127873 -0.824765
1390792744 0.121488 -0.825082
1392278623 0.130507 -0.826412
1393764502 0.12543 -0.829712
1395250381 0.130179 -0.825436
1396736260 0.125266 -0.826023
1398222139 0.124598 -0.823655
1399708018 0.126183 -0.817636
1401193897 0.121691 -0.818002
1402679776 0.119374 -0.817093
1404165655 0.121663 -0.813358
1405651534 0.119549 -0.809403
1407137413 0.120706 -0.803817
1408623292 0.118186 -0.799537
1410109171 0.111239 -0.801357
1411595050 0.11252 -0.802583
1413080929 0.109752 -0.809608
1414566808 0.114598 -0.813553
1416052687 0.109488 -0.813069
1417538566 0.11072 -0.817943
1419024445 0.10735 -0.820058
1420510324 0.108452 -0.822657
1421996203 0.110441 -0.820097
1423482082 0.111692 -0.824795
1424967961 0.112236 -0.82477
1426453840 0.109399 -0.824197
1427939719 0.114704 -0.824791
1429425598 0.108309 -0.82194
1430911477 0.110751 -0.818926
1432397356 0.107701 -0.822721
1433883235 0.107066 -0.81362
1435369114 0.107915 -0.816456
1436854993 0.104287 -0.808411
1438340872 0.105127 -0.805657
1439826751 0.102143 -0.803091
1441312630 0.099294 -0.804671
1442798509 0.099693 -0.809824
1444284388 0.105695 -0.811934
1445770267 0.099913 -0.813809
1447256146 0.103242 -0.818031
1448742025 0.096876 -0.819066
1450227904 0.1014 -0.82155
1451713783 0.10183 -0.820824
1453199662 0.101971 -0.821699
1454685541 0.097948 -0.822068
1456171420 0.098755 -0.822658
1457657299 0.096568 -0.821459
1459143178 0.102356 -0.817908
1460629057 0.096378 -0.818266
1462114936 0.095907 -0.814493
1463600815 0.094127 -0.811745
1465086694 0.09703 -0.807892
1466572573 0.092779 -0.803836
1468058452 0.09537 -0.798204
1469544331 0.091029 -0.794773
1471030210 0.089417 -0.795982
1472516089 0.090508 -0.798711
1474001968 0.08602 -0.803226
1475487847 0.087569 -0.806037
1476973726 0.088739 -0.809183
1478459605 0.08431 -0.810622
1479945484 0.080478 -0.814558
1481431363 0.088827 -0.813675
1482917242 0.08896 -0.814598
1484403121 0.083883 -0.817185
1485889000 0.07992 -0.819786
1487374879 0.082863 -0.817352
1488860758 0.080646 -0.816233
1490346637 0.075729 -0.813361
1491832516 0.0829 -0.812008
1493318395 0.083244 -0.810431
1494804274 0.081541 -0.807162
1496290153 0.081745 -0.804468
1497776032 0.076475 -0.802381
1499261911 0.077099 -0.79626
1500747790 0.079392 -0.796877
1502233669 0.074537 -0.799454
1503719548 0.072859 -0.804339
1505205427 0.070187 -0.805934
1506691306 0.072497 -0.808212
1508177185 0.073052 -0.810793
1509663064 0.073464 -0.813537
1511148943 0.073108 -0.813081
1512634822 0.071665 -0.814821
1514120701 0.072011 -0.81304
1515606580 0.071815 -0.814882
1517092459 0.070727 -0.81488
1518578338 0.076885 -0.811629
1520064217 0.055728 -0.810782
1521550096 0.073777 -0.809517
1523035975 0.055805 -0.808986
1524521854 0.070288 -0.807317
1526007733 0.068675 -0.800461
1527493612 0.065469 -0.798687
1528979491 0.052777 -0.796844
1530465370 0.063003 -0.795457
1531951249 0.050893 -0.796442
1533437128 0.063741 -0.797879
1534923007 0.061724 -0.801449
1536408886 0.032634 -0.801165
1537894765 0.057986 -0.806553
1539380644 0.062308 -0.807857
1540866523 0.06046 -0.808441
1542352402 0.057976 -0.806368
1543838281 0.062032 -0.807635
1545324160 0.051834 -0.806424
1546810039 0.053938 -0.807336
1548295918 0.058182 -0.807266
1549781797 0.053019 -0.806839
1551267676 0.054177 -0.805454
1552753555 0.052315 -0.80333
1554239434 0.052034 -0.799879
1555725313 0.045113 -0.798767
1557211192 0.046887 -0.795374
1558697071 0.047933 -0.79458
1560182950 0.046748 -0.788508
1561668829 0.045677 -0.792639
1563154708 0.043702 -0.795321
1564640587 0.046032 -0.79778
1566126466 0.044373 -0.802423
1567612345 0.043478 -0.801363
1569098224 0.045992 -0.805919
1570584103 0.046816 -0.807142
1572069982 0.042314 -0.807693
1573555861 0.044456 -0.809254
1575041740 0.043644 -0.806119
1576527619 0.043695 -0.807297
1578013498 0.045245 -0.810812
1579499377 0.040112 -0.806139
1580985256 0.041104 -0.805624
1582471135 0.03885 -0.800069
1583957014 0.040394 -0.800896
1585442893 0.04006 -0.800018
1586928772 0.044094 -0.791327
1588414651 0.040017 -0.791491
1589900530 0.042877 -0.786844
1591386409 0.035422 -0.790053
1592872288 0.037173 -0.793151
1594358167 0.037049 -0.796709
1595844046 0.037178 -0.800128
1597329925 0.038073 -0.805079
1598815804 0.036651 -0.803093
1600301683 0.038494 -0.808424
1601787562 0.039113 -0.808752
1603273441 0.039129 -0.807744
1604759320 0.039189 -0.808342
1606245199 0.033287 -0.810855
1607731078 0.03819 -0.807343
1609216957 0.040027 -0.807922
1610702836 0.035987 -0.80731
1612188715 0.029733 -0.804778
1613674594 0.037804 -0.804565
1615160473 0.035424 -0.800113
1616646352 0.031623 -0.797643
1618132231 0.028949 -0.794016
1619618110 0.025265 -0.790243
1621103989 0.027862 -0.794381
1622589868 0.029038 -0.797443
1624075747 0.026659 -0.798268
1625561626 0.024872 -0.803857
1627047505 0.027665 -0.802574
1628533384 0.023885 -0.806881
1630019263 0.027613 -0.807893
1631505142 0.024693 -0.807356
1632991021 0.027786 -0.810023
1634476900 0.026422 -0.810815
1635962779 0.028753 -0.805875
1637448658 0.031294 -0.809239
1638934537 0.03188 -0.806856
1640420416 0.025827 -0.803571
1641906295 0.02409 -0.799732
1643392174 0.026586 -0.80075
1644878053 0.026422 -0.793688
1646363932 0.02195 -0.793024
1647849811 0.020559 -0.788896
1649335690 0.019749 -0.784471
1650821569 0.020652 -0.784097
1652307448 0.020773 -0.787541
1653793327 0.017611 -0.793528
1655279206 0.017426 -0.796925
1656765085 0.008992 -0.798128
1658250964 0.015388 -0.800073
1659736843 0.015279 -0.80312
1661222722 0.016726 -0.803217
1662708601 0.017643 -0.80562
1664194480 0.011748 -0.802706
1665680359 0.016643 -0.805349
1667166238 0.013087 -0.802829
1668652117 0.016413 -0.802199
1670137996 -0.011193 -0.788703
1671623875 0.013719 -0.797777
1673109754 0.012795 -0.794593
1674595633 0.013048 -0.790699
1676081512 0.013684 -0.789668
1677567391 0.010548 -0.784819
1679053270 0.006103 -0.781657
1680539149 0.012188 -0.781505
1682025028 0.003537 -0.782667
1683510907 0.006917 -0.786093
1684996786 0.003643 -0.791307
1686482665 0.005019 -0.795401
1687968544 0.006354 -0.795875
1689454423 0.004738 -0.79947
1690940302 0.007604 -0.79847
1692426181 0.006185 -0.802813
1693912060 0.001953 -0.802969
1695397939 0.003822 -0.80034
1696883818 0.007801 -0.800883
1698369697 0.003247 -0.798641
1699855576 0.003499 -0.797557
1701341455 0.002083 -0.795205
1702827334 0.000243 -0.791265
1704313213 0.004688 -0.790361
1705799092 0.002391 -0.785467
1707284971 0.003245 -0.783199
1708770850 0.004822 -0.779042
1710256729 0.001076 -0.773831
1711742608 -0.003208 -0.778691
1713228487 0.00131 -0.783169
1714714366 -0.00567 -0.786562
1716200245 -0.002738 -0.790964
1717686124 -0.00147 -0.792626
1719172003 -0.00475 -0.79482
1720657882 -0.003607 -0.796698
1722143761 0.000693 -0.801665
1723629640 -0.003475 -0.79928
1725115519 -0.000519 -0.798751
1726601398 0.001683 -0.802951
1728087277 -0.007121 -0.798484
1729573156 -0.001151 -0.797771
1731059035 -0.004924 -0.795991
1732544914 -0.005289 -0.795737
1734030793 -0.002016 -0.792177
1735516672 -0.002465 -0.788629
1737002551 -0.00191 -0.786695
1738488430 -0.008809 -0.78033
1739974309 -0.00665 -0.774849
1741460188 -0.006421 -0.779936
1742946067 -0.011084 -0.781953
1744431946 -0.015026 -0.789207
1745917825 -0.013678 -0.790551
1747403704 -0.014047 -0.794925
1748889583 -0.014569 -0.797372
1750375462 -0.012571 -0.798184
1751861341 -0.013347 -0.800789
1753347220 -0.014751 -0.796529
1754833099 -0.008517 -0.799898
1756318978 -0.014354 -0.797
1757804857 -0.010675 -0.798341
1759290736 -0.016132 -0.795401
1760776615 -0.010131 -0.797596
1762262494 -0.010895 -0.792207
1763748373 -0.011729 -0.79541
1765234252 -0.021267 -0.790151
1766720131 -0.020812 -0.783608
1768206010 -0.017701 -0.780571
1769691889 -0.015657 -0.774662
1771177768 -0.022162 -0.781221
1772663647 -0.026251 -0.783014
1774149526 -0.022307 -0.780766
1775635405 -0.025813 -0.786595
1777121284 -0.022555 -0.787941
1778607163 -0.029268 -0.7894
1780093042 -0.021063 -0.791972
1781578921 -0.017901 -0.793135
1783064800 -0.028919 -0.791439
1784550679 -0.025314 -0.792046
1786036558 -0.02775 -0.790559
1787522437 -0.024451 -0.796707
1789008316 -0.029964 -0.788467
1790494195 -0.029295 -0.78647
1791980074 -0.029455 -0.7806
1793465953 -0.034826 -0.782523
1794951832 -0.029784 -0.77781
1796437711 -0.032932 -0.774974
1797923590 -0.034755 -0.769197
1799409469 -0.029086 -0.765907
1800895348 -0.026483 -0.767455
1802381227 -0.033638 -0.76753
1803867106 -0.041179 -0.774164
1805352985 -0.034702 -0.768619
1806838864 -0.033782 -0.778982
1808324743 -0.028747 -0.785633
1809810622 -0.040118 -0.783295
1811296501 -0.042866 -0.7835
1812782380 -0.043076 -0.785508
1814268259 -0.041535 -0.783417
1815754138 -0.042127 -0.785623
1817240017 -0.044078 -0.785699
1818725896 -0.036425 -0.785533
1820211775 -0.040288 -0.784194
1821697654 -0.058106 -0.780587
1823183533 -0.080191 -0.773486
1824669412 -0.068416 -0.767304
1826155291 -0.104727 -0.759472
1827641170 -0.106868 -0.755967
1829127049 -0.105617 -0.75569
1830612928 -0.109318 -0.753696
1832098807 -0.110898 -0.755238
1833584686 -0.115455 -0.758405
1835070565 -0.105257 -0.765345
1836556444 -0.107741 -0.762317
1838042323 -0.114778 -0.764425
1839528202 -0.113648 -0.771217
1841014081 -0.11796 -0.770779
1842499960 -0.112415 -0.767217
1843985839 -0.107982 -0.772569
1845471718 -0.115819 -0.774122
1846957597 -0.111966 -0.774275
1848443476 -0.048388 -0.780756
1849929355 -0.051505 -0.777251
1851415234 -0.050614 -0.777292
1852901113 -0.048709 -0.77302
1854386992 -0.048758 -0.766897
1855872871 -0.052754 -0.769203
1857358750 -0.0518 -0.763612
1858844629 -0.054029 -0.760823
1860330508 -0.051571 -0.761057
1861816387 -0.053444 -0.76117
1863302266 -0.056998 -0.768153
1864788145 -0.058008 -0.768755
1866274024 -0.061983 -0.773227
1867759903 -0.051721 -0.773437
1869245782 -0.055984 -0.775787
1870731661 -0.057572 -0.779127
1872217540 -0.050775 -0.77786
1873703419 -0.062724 -0.779386
1875189298 -0.030376 -0.793555
1876675177 -0.059131 -0.778296
1878161056 -0.052214 -0.776448
1879646935 -0.048961 -0.774583
1881132814 -0.05565 -0.772839
1882618693 -0.055868 -0.768518
1884104572 -0.053444 -0.769638
1885590451 -0.053179 -0.76384
1887076330 -0.059891 -0.762398
1888562209 -0.055761 -0.756956
1890048088 -0.055861 -0.752089
1891533967 -0.052924 -0.757256
1893019846 -0.054808 -0.759703
1894505725 -0.057291 -0.763958
1895991604 -0.060552 -0.765045
1897477483 -0.058232 -0.76789
1898963362 -0.059487 -0.771029
1900449241 -0.054174 -0.77126
1901935120 -0.060576 -0.772965
1903420999 -0.054842 -0.775896
1904906878 -0.055286 -0.775878
1906392757 -0.062111 -0.776272
1907878636 -0.057538 -0.77145
1909364515 -0.062965 -0.772586
1910850394 -0.055422 -0.771249
1912336273 -0.06241 -0.768259
1913822152 -0.058357 -0.76452
1915308031 -0.058234 -0.761062
1916793910 -0.059418 -0.759965
1918279789 -0.064205 -0.755688
1919765668 -0.057069 -0.751887
1921251547 -0.061765 -0.755025
1922737426 -0.064103 -0.757709
1924223305 -0.064796 -0.764341
1925709184 -0.065091 -0.765508
1927195063 -0.065965 -0.770693
1928680942 -0.06267 -0.767613
1930166821 -0.065588 -0.769266
1931652700 -0.069865 -0.771188
1933138579 -0.065646 -0.774961
1934624458 -0.061567 -0.773837
1936110337 -0.061929 -0.777764
1937596216 -0.067499 -0.77491
1939082095 -0.06865 -0.769408
1940567974 -0.063011 -0.768778
1942053853 -0.060322 -0.768775
1943539732 -0.065195 -0.76632
1945025611 -0.064706 -0.764809
1946511490 -0.064359 -0.756912
1947997369 -0.06628 -0.757357
1949483248 -0.062096 -0.752202
1950969127 -0.068728 -0.749812
1952455006 -0.068449 -0.756496
1953940885 -0.074097 -0.759815
1955426764 -0.073685 -0.763585
1956912643 -0.074088 -0.767047
1958398522 -0.066292 -0.766722
1959884401 -0.075166 -0.771614
1961370280 -0.072098 -0.771722
1962856159 -0.076618 -0.771556
1964342038 -0.074582 -0.77243
1965827917 -0.072454 -0.770794
1967313796 -0.0777 -0.772241
1968799675 -0.02994 -0.804094
1970285554 -0.075634 -0.769724
1971771433 -0.067658 -0.768858
1973257312 -0.077614 -0.764739
1974743191 -0.070308 -0.761858
1976229070 -0.079606 -0.758566
1977714949 -0.071425 -0.7549
1979200828 -0.079796 -0.750454
1980686707 -0.079956 -0.749373
1982172586 -0.073629 -0.756787
1983658465 -0.079934 -0.756612
1985144344 -0.082519 -0.762383
1986630223 -0.084811 -0.764492
1988116102 -0.085104 -0.768555
1989601981 -0.102694 -0.77608
1991087860 -0.085539 -0.77183
1992573739 -0.091016 -0.7686
1994059618 -0.087061 -0.772418
1995545497 -0.08342 -0.773974
1997031376 -0.085839 -0.772216
1998517255 -0.080374 -0.770099
2000003134 -0.082963 -0.770138
2001489013 -0.079254 -0.767981
2002974892 -0.083308 -0.763384
2004460771 -0.083562 -0.757239
2005946650 -0.081202 -0.757501
2007432529 -0.082333 -0.753278
2008918408 -0.083709 -0.750667
2010404287 -0.085439 -0.744488
2011890166 -0.084146 -0.751881
2013376045 -0.083733 -0.75682
2014861924 -0.084709 -0.758903
2016347803 -0.090521 -0.762082
2017833682 -0.092091 -0.765693
2019319561 -0.089562 -0.765653
2020805440 -0.086626 -0.764983
2022291319 -0.083684 -0.768913
2023777198 -0.092551 -0.769334
2025263077 -0.098053 -0.768248
2026748956 -0.092771 -0.767405
2028234835 -0.093561 -0.769832
2029720714 -0.08945 -0.770496
2031206593 -0.090186 -0.767669
2032692472 -0.088122 -0.763883
2034178351 -0.088068 -0.764421
2035664230 -0.086538 -0.760045
2037150109 -0.087163 -0.757622
2038635988 -0.094021 -0.754445
2040121867 -0.091002 -0.747846
2041607746 -0.087279 -0.7529
2043093625 -0.094374 -0.757074
2044579504 -0.094021 -0.75868
2046065383 -0.093044 -0.759879
2047551262 -0.098437 -0.759075
2049037141 -0.097006 -0.764809
2050523020 -0.091763 -0.765872
2052008899 -0.091984 -0.764209
2053494778 -0.093132 -0.76794
2054980657 -0.094831 -0.765628
2056466536 -0.099883 -0.766261
2057952415 -0.088692 -0.77009
2059438294 -0.092567 -0.764092
2060924173 -0.093292 -0.760291
2062410052 -0.094943 -0.757381
2063895931 -0.091455 -0.756089
2065381810 -0.092417 -0.754937
2066867689 -0.093797 -0.749036
2068353568 -0.094312 -0.747523
2069839447 -0.093425 -0.739238
2071325326 -0.087861 -0.745095
2072811205 -0.089118 -0.749531
2074297084 -0.096144 -0.748745
2075782963 -0.091648 -0.750032
2077268842 -0.092108 -0.756922
2078754721 -0.089593 -0.758006
2080240600 -0.093756 -0.757226
2081726479 -0.094918 -0.756379
2083212358 -0.097142 -0.75745
2084698237 -0.100505 -0.758766
2086184116 -0.092183 -0.756021
2087669995 -0.094422 -0.755875
2089155874 -0.097714 -0.753204
2090641753 -0.095508 -0.753533
2092127632 -0.09787 -0.747558
2093613511 -0.092221 -0.74869
2095099390 -0.089099 -0.744774
2096585269 -0.100017 -0.739677
2098071148 -0.09785 -0.738558
2099557027 -0.100838 -0.733186
2101042906 -0.098494 -0.734871
2102528785 -0.100857 -0.738581
2104014664 -0.094672 -0.742253
2105500543 -0.093781 -0.743599
2106986422 -0.103218 -0.745867
2108472301 -0.10136 -0.747859
2109958180 -0.104371 -0.746677
2111444059 -0.09974 -0.75099
2112929938 -0.096232 -0.753805
2114415817 -0.098165 -0.7541
2115901696 -0.100084 -0.755754
2117387575 -0.096553 -0.75588
2118873454 -0.10489 -0.752969
2120359333 -0.117609 -0.747351
2121845212 -0.116861 -0.747591
2123331091 -0.105924 -0.754665
2124816970 -0.112277 -0.746914
2126302849 -0.112477 -0.740349
2127788728 -0.108736 -0.73658
2129274607 -0.111968 -0.734769
2130760486 -0.1121 -0.738238
2132246365 -0.107606 -0.739275
2133732244 -0.110292 -0.741789
2135218123 -0.107634 -0.74333
2136704002 -0.118895 -0.744703
2138189881 -0.110416 -0.74566
2139675760 -0.11323 -0.748875
2141161639 -0.113444 -0.750723
2142647518 -0.102711 -0.751692
2144133397 -0.104488 -0.752581
2145619276 -0.112782 -0.75033
2147105155 -0.108211 -0.746608
2148591034 -0.077582 -0.74973
2150076913 -0.107192 -0.740031
2151562792 -0.082374 -0.745322
2153048671 -0.10717 -0.737058
2154534550 -0.080021 -0.738523
2156020429 -0.111846 -0.729919
2157506308 -0.081168 -0.732894
2158992187 -0.101625 -0.722726
2160478066 -0.074667 -0.728611
2161963945 -0.112961 -0.722665
2163449824 -0.079983 -0.732217
2164935703 -0.10171 -0.732615
2166421582 -0.083843 -0.73825
2167907461 -0.110792 -0.735074
2169393340 -0.091279 -0.738799
2170879219 -0.116295 -0.738017
2172365098 -0.086443 -0.741691
2173850977 -0.123002 -0.734794
2175336856 -0.103813 -0.74121
2176822735 -0.101325 -0.741117
2178308614 -0.099877 -0.736817
2179794493 -0.104778 -0.739838
2181280372 -0.097137 -0.738906
2182766251 -0.106279 -0.740147
2184252130 -0.101598 -0.730901
2185738009 -0.103506 -0.7294
2187223888 -0.108752 -0.731665
2188709767 -0.106923 -0.725047
2190195646 -0.110988 -0.723165
2191681525 -0.109981 -0.725725
2193167404 -0.11956 -0.729389
2194653283 -0.122423 -0.734648
2196139162 -0.106361 -0.739505
2197625041 -0.108485 -0.734785
2199110920 -0.112652 -0.740092
2200596799 -0.117719 -0.74016
2202082678 -0.117299 -0.743367
2203568557 -0.116371 -0.74476
2205054436 -0.108249 -0.747648
2206540315 -0.100897 -0.744645
2208026194 -0.160795 -0.740735
2209512073 -0.102538 -0.743099
2210997952 -0.114228 -0.744262
2212483831 -0.110778 -0.736593
2213969710 -0.11827 -0.738898
2215455589 -0.107469 -0.734299
2216941468 -0.111137 -0.729614
2218427347 -0.107768 -0.726714
2219913226 -0.106467 -0.720209
2221399105 -0.107649 -0.727435
2222884984 -0.11874 -0.728401
2224370863 -0.123085 -0.73307
2225856742 -0.117471 -0.733053
2227342621 -0.117278 -0.734187
2228828500 -0.121427 -0.739205
2230314379 -0.120552 -0.740747
2231800258 -0.116217 -0.743026
2233286137 -0.122166 -0.746275
2234772016 -0.117606 -0.741805
2236257895 -0.11459 -0.740722
2237743774 -0.121044 -0.74035
2239229653 -0.119433 -0.741271
2240715532 -0.11923 -0.739829
2242201411 -0.113718 -0.738944
2243687290 -0.115208 -0.731146
2245173169 -0.119588 -0.731233
2246659048 -0.113668 -0.729861
2248144927 -0.115417 -0.724958
2249630806 -0.119713 -0.718642
2251116685 -0.121248 -0.726169
2252602564 -0.122029 -0.727596
2254088443 -0.12191 -0.730554
2255574322 -0.124002 -0.734105
2257060201 -0.129183 -0.735778
2258546080 -0.127172 -0.735797
2260031959 -0.126394 -0.740403
2261517838 -0.135949 -0.743604
2263003717 -0.128747 -0.742726
2264489596 -0.134916 -0.746811
2265975475 -0.124359 -0.74969
2267461354 -0.124855 -0.742301
2268947233 -0.131428 -0.742128
2270433112 -0.130449 -0.741277
2271918991 -0.128724 -0.743424
2273404870 -0.13735 -0.739308
2274890749 -0.131565 -0.734897
2276376628 -0.135121 -0.72995
2277862507 -0.136805 -0.729915
2279348386 -0.130269 -0.723346
2280834265 -0.134101 -0.725855
2282320144 -0.137286 -0.730714
2283806023 -0.13885 -0.736539
2285291902 -0.141852 -0.736964
2286777781 -0.135326 -0.741492
2288263660 -0.138583 -0.743259
2289749539 -0.139656 -0.7403
2291235418 -0.137574 -0.742397
2292721297 -0.137042 -0.742463
2294207176 -0.13997 -0.743513
2295693055 -0.130957 -0.746819
2297178934 -0.134494 -0.744364
2298664813 -0.132397 -0.739568
2300150692 -0.13785 -0.733202
2301636571 -0.123863 -0.74188
2303122450 -0.130564 -0.736331
2304608329 -0.133222 -0.733151
2306094208 -0.132126 -0.73186
2307580087 -0.127248 -0.726071
2309065966 -0.131649 -0.717451
2310551845 -0.12561 -0.719624
2312037724 -0.135895 -0.725844
2313523603 -0.135507 -0.727897
2315009482 -0.132955 -0.730456
2316495361 -0.133591 -0.731345
2317981240 -0.135516 -0.732315
2319467119 -0.138071 -0.735005
2320952998 -0.137853 -0.735704
2322438877 -0.14609 -0.730657
2323924756 -0.140407 -0.736849
2325410635 -0.143344 -0.730779
2326896514 -0.1399 -0.73247
2328382393 -0.135675 -0.732989
2329868272 -0.139679 -0.727508
2331354151 -0.140292 -0.727343
2332840030 -0.138755 -0.725075
2334325909 -0.141136 -0.715397
2335811788 -0.137135 -0.721039
2337297667 -0.137777 -0.711139
2338783546 -0.137115 -0.713412
2340269425 -0.13903 -0.710163
2341755304 -0.13855 -0.71016
2343241183 -0.142278 -0.716242
2344727062 -0.141146 -0.718803
2346212941 -0.142435 -0.724365
2347698820 -0.146041 -0.725693
2349184699 -0.152789 -0.725097
2350670578 -0.143933 -0.721934
2352156457 -0.145663 -0.72919
2353642336 -0.154258 -0.731183
2355128215 -0.142847 -0.731084
2356614094 -0.146272 -0.730828
2358099973 -0.141737 -0.727779
2359585852 -0.148237 -0.729818
2361071731 -0.144576 -0.731747
2362557610 -0.147553 -0.720341
2364043489 -0.147415 -0.727025
2365529368 -0.146067 -0.716757
2367015247 -0.143411 -0.719328
2368501126 -0.144889 -0.717257
2369987005 -0.14709 -0.70718
2371472884 -0.147662 -0.71905
2372958763 -0.14842 -0.717087
2374444642 -0.152251 -0.717613
2375930521 -0.155204 -0.720973
2377416400 -0.166263 -0.726196
2378902279 -0.151447 -0.731458
2380388158 -0.160378 -0.727199
2381874037 -0.154688 -0.733488
2383359916 -0.157283 -0.729063
2384845795 -0.16322 -0.726292
2386331674 -0.163094 -0.729919
2387817553 -0.157144 -0.733017
2389303432 -0.153466 -0.730269
2390789311 -0.153882 -0.73181
2392275190 -0.158932 -0.728833
2393761069 -0.162599 -0.724258
2395246948 -0.159238 -0.72562
2396732827 -0.162615 -0.722555
2398218706 -0.160292 -0.711485
2399704585 -0.158898 -0.715041
2401190464 -0.160538 -0.714938
2402676343 -0.158834 -0.714152
2404162222 -0.164533 -0.720526
2405648101 -0.169287 -0.72142
2407133980 -0.173651 -0.72982
2408619859 -0.159284 -0.738777
2410105738 -0.164542 -0.729817
2411591617 -0.166282 -0.727105
2413077496 -0.166189 -0.735417
2414563375 -0.166583 -0.730678
2416049254 -0.159378 -0.73852
2417535133 -0.159948 -0.727494
2419021012 -0.165849 -0.726405
2420506891 -0.159201 -0.730563
2421992770 -0.163566 -0.727328
2423478649 -0.154078 -0.726035
2424964528 -0.163871 -0.716282
2426450407 -0.157392 -0.717966
2427936286 -0.162987 -0.717516
2429422165 -0.155275 -0.710621
2430908044 -0.164904 -0.706763
2432393923 -0.156949 -0.715545
2433879802 -0.162294 -0.707331
2435365681 -0.158734 -0.718722
2436851560 -0.157822 -0.719926
2438337439 -0.158604 -0.724258
2439823318 -0.162489 -0.723972
2441309197 -0.17006 -0.716444
2442795076 -0.159049 -0.724931
2444280955 -0.160226 -0.722681
2445766834 -0.163839 -0.719669
2447252713 -0.166528 -0.721993
2448738592 -0.167694 -0.718048
2450224471 -0.163283 -0.71444
2451710350 -0.160135 -0.718246
2453196229 -0.154679 -0.71797
2454682108 -0.153407 -0.714843
2456167987 -0.15378 -0.716676
2457653866 -0.155807 -0.714083
2459139745 -0.165585 -0.69914
2460625624 -0.159823 -0.706643
2462111503 -0.161414 -0.704998
2463597382 -0.1585 -0.713978
2465083261 -0.16576 -0.713902
2466569140 -0.148763 -0.720304
2468055019 -0.170626 -0.713315
2469540898 -0.152708 -0.723237
2471026777 -0.158887 -0.723268
2472512656 -0.158273 -0.720124
2473998535 -0.156228 -0.718889
2475484414 -0.159778 -0.718502
2476970293 -0.157085 -0.720676
2478456172 -0.154075 -0.721147
2479942051 -0.163936 -0.714939
2481427930 -0.157442 -0.712406
2482913809 -0.159332 -0.715655
2484399688 -0.148183 -0.713943
2485885567 -0.158767 -0.709991
2487371446 -0.143186 -0.715139
2488857325 -0.152143 -0.70767
2490343204 -0.151505 -0.705443
2491829083 -0.144843 -0.713634
2493314962 -0.15241 -0.708489
2494800841 -0.157858 -0.711888
2496286720 -0.146304 -0.716235
2497772599 -0.152064 -0.716813
2499258478 -0.156124 -0.718898
2500744357 -0.146472 -0.717936
2502230236 -0.14115 -0.716873
2503716115 -0.144069 -0.722561
2505201994 -0.151624 -0.7158
2506687873 -0.145745 -0.715015
2508173752 -0.139636 -0.715402
2509659631 -0.132621 -0.720687
2511145510 -0.147406 -0.709937
2512631389 -0.143656 -0.707284
2514117268 -0.13523 -0.703441
2515603147 -0.130593 -0.710518
2517089026 -0.129332 -0.700729
2518574905 -0.140799 -0.693802
2520060784 -0.140223 -0.691925
2521546663 -0.148007 -0.688728
2523032542 -0.152078 -0.689453
2524518421 -0.138578 -0.701731
2526004300 -0.137396 -0.705007
2527490179 -0.144817 -0.705851
2528976058 -0.151781 -0.706692
2530461937 -0.156866 -0.70491
2531947816 -0.137173 -0.707472
2533433695 -0.147386 -0.714704
2534919574 -0.143953 -0.707893
2536405453 -0.133357 -0.709464
2537891332 -0.148509 -0.705931
2539377211 -0.144733 -0.711191
2540863090 -0.149555 -0.705206
2542348969 -0.155692 -0.707468
2543834848 -0.156858 -0.701385
2545320727 -0.148716 -0.698592
2546806606 -0.15227 -0.697568
2548292485 -0.156958 -0.68744
2549778364 -0.167882 -0.693723
2551264243 -0.15034 -0.696712
2552750122 -0.161507 -0.697893
2554236001 -0.155708 -0.692895
2555721880 -0.166024 -0.697233
2557207759 -0.15853 -0.709464
2558693638 -0.160458 -0.705865
2560179517 -0.166148 -0.71571
2561665396 -0.157218 -0.701388
2563151275 -0.162556 -0.709282
2564637154 -0.170895 -0.708068
2566123033 -0.170886 -0.708535
2567608912 -0.17384 -0.707128
2569094791 -0.162325 -0.705951
2570580670 -0.127447 -0.815918
2572066549 -0.170234 -0.708615
2573552428 -0.170969 -0.701419
2575038307 -0.179294 -0.703554
2576524186 -0.167593 -0.699083
2578010065 -0.186459 -0.689915
2579495944 -0.167549 -0.689648
2580981823 -0.173443 -0.6901
2582467702 -0.173038 -0.690467
2583953581 -0.179172 -0.695445
2585439460 -0.182859 -0.705611
2586925339 -0.181263 -0.706909
2588411218 -0.171767 -0.704962
2589897097 -0.172187 -0.710035
2591382976 -0.176737 -0.703071
2592868855 -0.182087 -0.710764
2594354734 -0.177391 -0.706973
2595840613 -0.176064 -0.71291
2597326492 -0.16644 -0.709606
2598812371 -0.178028 -0.710859
2600298250 -0.171429 -0.712226
2601784129 -0.181439 -0.704776
2603270008 -0.178466 -0.707334
2604755887 -0.1702 -0.704168
2606241766 -0.172296 -0.694362
2607727645 -0.176223 -0.696285
2609213524 -0.172806 -0.683172
2610699403 -0.16679 -0.690851
2612185282 -0.177607 -0.695965
2613671161 -0.188163 -0.693967
2615157040 -0.176073 -0.692857
2616642919 -0.172435 -0.699676
2618128798 -0.171649 -0.704795
2619614677 -0.174535 -0.702457
2621100556 -0.180734 -0.70135
2622586435 -0.17322 -0.701577
2624072314 -0.155187 -0.685199
2625558193 -0.175255 -0.701098
2627044072 -0.180346 -0.703256
2628529951 -0.18187 -0.700169
2630015830 -0.176547 -0.694655
2631501709 -0.179918 -0.699822
2632987588 -0.173552 -0.69229
2634473467 -0.177307 -0.688827
2635959346 -0.179942 -0.680915
2637445225 -0.183685 -0.682896
2638931104 -0.175544 -0.675626
2640416983 -0.183949 -0.681107
2641902862 -0.176883 -0.67905
2643388741 -0.176528 -0.683146
2644874620 -0.183822 -0.680931
2646360499 -0.183434 -0.689199
2647846378 -0.19064 -0.694545
2649332257 -0.19575 -0.697607
2650818136 -0.189737 -0.701073
2652304015 -0.184766 -0.697563
2653789894 -0.182679 -0.699963
2655275773 -0.18367 -0.701559
2656761652 -0.187658 -0.701412
2658247531 -0.191454 -0.702813
2659733410 -0.190672 -0.696719
2661219289 -0.181869 -0.697125
2662705168 -0.19482 -0.692832
2664191047 -0.189759 -0.689472
2665676926 -0.184522 -0.691932
2667162805 -0.189221 -0.691931
2668648684 -0.189951 -0.68854
2670134563 -0.186269 -0.683664
2671620442 -0.198157 -0.687296
2673106321 -0.186963 -0.69278
2674592200 -0.189552 -0.697137
2676078079 -0.188955 -0.697607
2677563958 -0.192656 -0.700432
2679049837 -0.191601 -0.698743
2680535716 -0.193445 -0.698598
2682021595 -0.192213 -0.702875
2683507474 -0.187405 -0.702833
2684993353 -0.188012 -0.708772
2686479232 -0.193319 -0.702686
2687965111 -0.198964 -0.706204
2689450990 -0.186483 -0.706173
2690936869 -0.179018 -0.698671
2692422748 -0.178221 -0.699798
2693908627 -0.190303 -0.695291
2695394506 -0.182103 -0.694015
2696880385 -0.178532 -0.69035
2698366264 -0.178838 -0.686457
2699852143 -0.177227 -0.681288
2701338022 -0.177997 -0.685543
2702823901 -0.179938 -0.687863
2704309780 -0.181863 -0.691785
2705795659 -0.186636 -0.687961
2707281538 -0.178298 -0.695586
2708767417 -0.17972 -0.698037
2710253296 -0.172345 -0.698161
2711739175 -0.182688 -0.694918
2713225054 -0.182943 -0.700502
2714710933 -0.182949 -0.695278
2716196812 -0.180998 -0.700255
2717682691 -0.184937 -0.69435
2719168570 -0.195232 -0.6899
2720654449 -0.18219 -0.697204
2722140328 -0.180012 -0.693921
2723626207 -0.175588 -0.689219
2725112086 -0.182161 -0.686699
2726597965 -0.175953 -0.684015
2728083844 -0.18133 -0.681808
2729569723 -0.177709 -0.677824
2731055602 -0.18196 -0.681461
2732541481 -0.177913 -0.683532
2734027360 -0.184979 -0.690355
2735513239 -0.183708 -0.686067
2736999118 -0.183498 -0.691965
2738484997 -0.189366 -0.691661
2739970876 -0.186427 -0.693181
2741456755 -0.198881 -0.693188
2742942634 -0.185626 -0.697071
2744428513 -0.188199 -0.691491
2745914392 -0.195967 -0.698419
2747400271 -0.186387 -0.697658
2748886150 -0.192225 -0.690711
2750372029 -0.195878 -0.697144
2751857908 -0.19496 -0.691462
2753343787 -0.182074 -0.690533
2754829666 -0.193025 -0.688247
2756315545 -0.195513 -0.687455
2757801424 -0.190874 -0.682917
2759287303 -0.190683 -0.683366
2760773182 -0.20044 -0.680184
2762259061 -0.197484 -0.685157
2763744940 -0.200718 -0.689103
2765230819 -0.191124 -0.690517
2766716698 -0.188434 -0.689289
2768202577 -0.193412 -0.701543
2769688456 -0.199436 -0.694084
2771174335 -0.192397 -0.698177
2772660214 -0.203466 -0.692479
2774146093 -0.186583 -0.702465
2775631972 -0.191597 -0.703979
2777117851 -0.194262 -0.695953
2778603730 -0.188683 -0.701117
2780089609 -0.191961 -0.689998
2781575488 -0.194729 -0.690998
2783061367 -0.191908 -0.688437
2784547246 -0.197716 -0.687776
2786033125 -0.193054 -0.690703
2787519004 -0.202403 -0.680665
2789004883 -0.187667 -0.676747
2790490762 -0.205074 -0.670158
2791976641 -0.191441 -0.676253
2793462520 -0.194628 -0.686345
2794948399 -0.19617 -0.682854
2796434278 -0.203915 -0.671243
2797920157 -0.203707 -0.682614
2799406036 -0.193643 -0.692425
2800891915 -0.197954 -0.683944
2802377794 -0.196701 -0.682624
2803863673 -0.194946 -0.689601
2805349552 -0.203411 -0.682897
2806835431 -0.196013 -0.687331
2808321310 -0.188807 -0.690591
2809807189 -0.194977 -0.685656
2811293068 -0.193669 -0.680941
2812778947 -0.195584 -0.674533
2814264826 -0.199465 -0.675571
2815750705 -0.200444 -0.664292
2817236584 -0.197068 -0.656984
2818722463 -0.197982 -0.662866
2820208342 -0.192448 -0.671267
2821694221 -0.197108 -0.673776
2823180100 -0.19232 -0.677613
2824665979 -0.211432 -0.670039
2826151858 -0.194776 -0.683073
2827637737 -0.2018 -0.674628
2829123616 -0.207123 -0.678229
2830609495 -0.197895 -0.679792
2832095374 -0.207875 -0.698048
2833581253 -0.198432 -0.698246
2835067132 -0.192934 -0.690121
2836553011 -0.187104 -0.687192
2838038890 -0.189441 -0.702835
2839524769 -0.192164 -0.677179
2841010648 -0.194136 -0.680133
2842496527 -0.19315 -0.696627
2843982406 -0.194163 -0.67713
2845468285 -0.189042 -0.678933
2846954164 -0.195063 -0.674887
2848440043 -0.195047 -0.67169
2849925922 -0.185476 -0.662568
2851411801 -0.184907 -0.666939
2852897680 -0.186169 -0.672409
2854383559 -0.189907 -0.681979
2855869438 -0.190368 -0.674914
2857355317 -0.190948 -0.670636
2858841196 -0.19096 -0.677828
2860327075 -0.192837 -0.678107
2861812954 -0.197954 -0.677114
2863298833 -0.197241 -0.682212
2864784712 -0.198455 -0.675063
2866270591 -0.200202 -0.678146
2867756470 -0.212075 -0.667108
2869242349 -0.184713 -0.673863
2870728228 -0.188501 -0.667984
2872214107 -0.201024 -0.667892
2873699986 -0.201487 -0.665653
2875185865 -0.203572 -0.668794
2876671744 -0.197362 -0.663396
2878157623 -0.196565 -0.654824
2879643502 -0.193919 -0.653043
2881129381 -0.208837 -0.649767
2882615260 -0.208359 -0.65841
2884101139 -0.209296 -0.658948
2885587018 -0.213334 -0.666498
2887072897 -0.204549 -0.667577
2888558776 -0.202639 -0.664796
2890044655 -0.203157 -0.675881
2891530534 -0.196674 -0.678159
2893016413 -0.212737 -0.674472
2894502292 -0.22247 -0.672888
2895988171 -0.211147 -0.675893
2897474050 -0.211896 -0.675547
2898959929 -0.19549 -0.680712
2900445808 -0.200818 -0.674713
2901931687 -0.201509 -0.675274
2903417566 -0.208234 -0.672409
2904903445 -0.207446 -0.66845
2906389324 -0.209099 -0.671154
2907875203 -0.20987 -0.658285
2909361082 -0.205774 -0.657382
2910846961 -0.207775 -0.663235
2912332840 -0.217562 -0.661095
2913818719 -0.197361 -0.668902
2915304598 -0.224177 -0.672796
2916790477 -0.216485 -0.66848
2918276356 -0.211665 -0.673292
2919762235 -0.212125 -0.677242
2921248114 -0.208006 -0.680313
2922733993 -0.220172 -0.679185
2924219872 -0.171947 -0.712355
2925705751 -0.206509 -0.678408
2927191630 -0.21436 -0.68031
2928677509 -0.219573 -0.684563
2930163388 -0.212327 -0.683143
2931649267 -0.208052 -0.676156
2933135146 -0.205879 -0.677601
2934621025 -0.211653 -0.672761
2936106904 -0.201405 -0.670696
2937592783 -0.219891 -0.668646
2939078662 -0.217441 -0.669316
2940564541 -0.206552 -0.66484
2942050420 -0.19879 -0.663188
2943536299 -0.217765 -0.665755
2945022178 -0.220764 -0.665308
2946508057 -0.216734 -0.671226
2947993936 -0.21524 -0.669287
2949479815 -0.230532 -0.672309
2950965694 -0.219592 -0.674319
2952451573 -0.206261 -0.672838
2953937452 -0.223518 -0.673102
2955423331 -0.218331 -0.671227
2956909210 -0.208581 -0.675362
2958395089 -0.214897 -0.665589
2959880968 -0.213814 -0.664058
2961366847 -0.215712 -0.663395
2962852726 -0.214728 -0.661118
2964338605 -0.208787 -0.66025
2965824484 -0.205305 -0.649487
2967310363 -0.206981 -0.64882
2968796242 -0.210725 -0.644371
2970282121 -0.203917 -0.639912
2971768000 -0.212862 -0.64603
2973253879 -0.215313 -0.652166
2974739758 -0.211509 -0.655994
2976225637 -0.221709 -0.657777
2977711516 -0.213859 -0.660154
2979197395 -0.220775 -0.661864
2980683274 -0.217505 -0.656473
2982169153 -0.228826 -0.659891
2983655032 -0.219455 -0.661183
2985140911 -0.22262 -0.66503
2986626790 -0.219945 -0.662265
2988112669 -0.230001 -0.668293
2989598548 -0.220091 -0.657533
2991084427 -0.225461 -0.672388
2992570306 -0.20911 -0.664514
2994056185 -0.229984 -0.661167
2995542064 -0.217481 -0.661196
2997027943 -0.213907 -0.651925
2998513822 -0.215287 -0.661579
2999999701 -0.210596 -0.653991
