# HZ S RI R 50
10000000 0.8721029999999999 -0.011843666666666666
11480931 0.8735710000000001 -0.014267333333333333
12961862 0.8750009999999999 -0.016642999999999998
14442793 0.8765003333333332 -0.019533333333333333
15923724 0.8786333333333333 -0.021992
17404655 0.880664 -0.024664
18885586 0.8819483333333333 -0.026434
20366517 0.884538 -0.023901333333333333
21847448 0.8851656666666666 -0.030565666666666665
23328379 0.88624 -0.03219866666666666
24809310 0.8864129999999999 -0.033986666666666665
26290241 0.8868103333333333 -0.03431066666666666
27771172 0.8864343333333333 -0.036510666666666663
29252103 0.8862949999999998 -0.037795666666666665
30733034 0.8854923333333332 -0.037981666666666664
32213965 0.8839189999999999 -0.039851
33694896 0.8823293333333333 -0.03922199999999999
35175827 0.8805723333333333 -0.021487999999999997
36656758 0.902701 -0.02886966666666666
38137689 0.874112 -0.041590333333333326
39618620 0.8708039999999999 -0.04287033333333333
41099551 0.8730469999999999 -0.036937
42580482 0.877113 -0.048793
44061413 0.877945 -0.06982133333333332
45542344 0.8821406666666666 -0.04173766666666667
47023275 0.8832373333333333 -0.055737666666666665
48504206 0.8859896666666667 -0.03065
49985137 0.8871929999999999 -0.04988433333333332
51466068 0.8877783333333333 -0.06156133333333333
52946999 0.888018 -0.071668
54427930 0.889626 -0.06486633333333333
55908861 0.8882313333333333 -0.06622366666666665
57389792 0.8891403333333333 -0.056115
58870723 0.8864996666666667 -0.086103
60351654 0.8863239999999999 -0.068976
61832585 0.8841666666666665 -0.07079733333333332
63313516 0.8819003333333333 -0.073685
64794447 0.8797316666666666 -0.07220466666666667
66275378 0.8741859999999999 -0.10597166666666666
67756309 0.8695206666666666 -0.11604899999999999
69237240 0.869772 -0.07436766666666667
70718171 0.8711246666666668 -0.05091866666666667
72199102 0.8659063333333333 -0.14064533333333332
73680033 0.8757023333333334 -0.081628
75160964 0.8806106666666667 -0.019605
76641895 0.8787483333333334 -0.08674466666666666
78122826 0.8810476666666666 -0.08906833333333333
79603757 0.8854113333333333 -0.028995999999999997
81084688 0.886354 0.025136333333333333
82565619 0.9089929999999999 -0.069933
84046550 0.8841039999999999 -0.096057
85527481 0.8796073333333334 -0.12447033333333332
87008412 0.8825789999999999 -0.097861
88489343 0.8793169999999999 -0.120168
89970274 0.8779469999999999 -0.11707666666666666
91451205 0.8816006666666666 -0.09079366666666666
92932136 0.8755813333333333 -0.111258
94413067 0.875718 -0.090574
95893998 0.8713963333333333 -0.10464266666666666
97374929 0.8694053333333334 -0.10150266666666666
98855860 0.863959 -0.10639866666666667
100336791 0.8648853333333333 -0.10829666666666667
101817722 0.866131 -0.11123866666666667
103298653 0.8689250000000001 -0.11411366666666667
104779584 0.8725003333333332 -0.11595933333333333
106260515 0.8743973333333332 -0.11757066666666667
107741446 0.8759076666666666 -0.11974833333333332
109222377 0.8759629999999998 -0.12143366666666666
110703308 0.8768736666666667 -0.12344466666666666
112184239 0.8788553333333332 -0.12466933333333333
113665170 0.8785356666666666 -0.1259593333333333
115146101 0.878237 -0.12710166666666667
116627032 0.8775403333333333 -0.12724433333333335
118107963 0.8773226666666667 -0.1287583333333333
119588894 0.8757516666666666 -0.13068033333333332
121069825 0.874325 -0.13136866666666666
122550756 0.8729143333333333 -0.1329
124031687 0.8705686666666665 -0.13381366666666664
125512618 0.868394 -0.13363033333333332
126993549 0.8649316666666667 -0.135508
128474480 0.861486 -0.13570833333333335
129955411 0.8602313333333332 -0.137346
131436342 0.8635726666666665 -0.14032933333333333
132917273 0.8676436666666666 -0.14189733333333332
134398204 0.8699859999999999 -0.14291766666666667
135879135 0.8593836666666667 -0.153245
137360066 0.8609886666666666 -0.15499599999999997
138840997 0.8631973333333334 -0.15606266666666668
140321928 0.8646603333333333 -0.15835833333333332
141802859 0.8663303333333332 -0.1587593333333333
143283790 0.8667293333333334 -0.160586
144764721 0.8674899999999999 -0.1610353333333333
146245652 0.8681193333333332 -0.161956
147726583 0.867254 -0.16297799999999998
149207514 0.8668133333333332 -0.16355566666666665
150688445 0.8662233333333333 -0.16401166666666667
152169376 0.8647546666666666 -0.16489366666666666
153650307 0.8630489999999998 -0.1659443333333333
155131238 0.86131 -0.16560333333333332
156612169 0.8583853333333332 -0.16716966666666666
158093100 0.85602 -0.16708233333333333
159574031 0.8538023333333333 -0.167595
161054962 0.8569386666666665 -0.1694533333333333
162535893 0.8592016666666666 -0.17255999999999996
164016824 0.8615393333333332 -0.17451366666666668
165497755 0.863629 -0.17625366666666667
166978686 0.864725 -0.17839433333333332
168459617 0.8671506666666666 -0.179526
169940548 0.8670443333333333 -0.18092266666666668
171421479 0.8678023333333332 -0.18174833333333332
172902410 0.8682693333333332 -0.18489533333333333
174383341 0.8679643333333333 -0.18487399999999998
175864272 0.8677736666666666 -0.18644966666666665
177345203 0.8671593333333334 -0.18782800000000002
178826134 0.8646733333333333 -0.18861866666666666
180307065 0.8630619999999999 -0.189862
181787996 0.8619226666666666 -0.191598
183268927 0.8597406666666665 -0.19269466666666668
184749858 0.8563183333333333 -0.19397
186230789 0.8519023333333333 -0.20075233333333334
187711720 0.8481996666666666 -0.2020553333333333
189192651 0.845646 -0.20413333333333333
190673582 0.8553756666666665 -0.191803
192154513 0.8499113333333332 -0.20795466666666665
193635444 0.8520433333333333 -0.20996700000000001
195116375 0.8547353333333333 -0.2113833333333333
196597306 0.85615 -0.2136033333333333
198078237 0.8571713333333333 -0.214758
199559168 0.8588293333333334 -0.2166273333333333
201040099 0.8593913333333332 -0.218391
202521030 0.8597053333333333 -0.21866199999999997
204001961 0.8595980000000001 -0.22020666666666666
205482892 0.8592086666666666 -0.22161366666666665
206963823 0.8582733333333332 -0.22227566666666668
208444754 0.857303 -0.22412666666666664
209925685 0.8590753333333333 -0.21468299999999998
211406616 0.8529953333333333 -0.22657833333333333
212887547 0.8540329999999999 -0.21745933333333334
214368478 0.847041 -0.22896299999999997
215849409 0.8481076666666666 -0.22046866666666665
217330340 0.8412763333333333 -0.23112366666666664
218811271 0.8409006666666665 -0.22340866666666664
220292202 0.8376509999999999 -0.23441133333333333
221773133 0.8454136666666666 -0.22718700000000003
223254064 0.8408159999999999 -0.24437033333333336
224734995 0.8497456666666665 -0.231552
226215926 0.8485839999999999 -0.2430843333333333
227696857 0.853772 -0.23472266666666666
229177788 0.8528156666666666 -0.2406876666666667
230658719 0.8542299999999999 -0.241412
232139650 0.8536383333333333 -0.24413566666666667
233620581 0.8539973333333333 -0.24490233333333333
235101512 0.8531193333333333 -0.24630266666666667
236582443 0.8518779999999999 -0.24676899999999996
238063374 0.8508069999999999 -0.24842166666666665
239544305 0.849542 -0.24891999999999997
241025236 0.8473926666666666 -0.24993300000000002
242506167 0.8447443333333333 -0.25124366666666664
243987098 0.8412083333333333 -0.25235966666666665
245468029 0.837678 -0.2536346666666666
246948960 0.8337113333333332 -0.2545653333333333
248429891 0.8297869999999998 -0.2562153333333333
249910822 0.8292063333333333 -0.25738433333333327
251391753 0.83268 -0.260821
252872684 0.835276 -0.26265866666666665
254353615 0.8380919999999998 -0.265354
255834546 0.8400463333333335 -0.26822733333333326
257315477 0.8418843333333333 -0.269266
258796408 0.843086 -0.271599
260277339 0.8442606666666667 -0.2736063333333333
261758270 0.845631 -0.27419066666666664
263239201 0.8442419999999999 -0.27561733333333327
264720132 0.8447756666666667 -0.2774123333333333
266201063 0.8437049999999999 -0.278189
267681994 0.8421503333333332 -0.27884166666666665
269162925 0.8403843333333333 -0.28035299999999996
270643856 0.8379826666666667 -0.2813643333333333
272124787 0.8361093333333331 -0.28187933333333326
273605718 0.8327103333333332 -0.2823293333333333
275086649 0.8295526666666666 -0.284028
276567580 0.8249463333333333 -0.28437066666666666
278048511 0.8207393333333333 -0.285848
279529442 0.8183266666666666 -0.2884403333333333
281010373 0.821246 -0.290185
282491304 0.8245873333333332 -0.2931663333333333
283972235 0.826527 -0.2954443333333333
285453166 0.8289329999999999 -0.29773866666666665
286934097 0.8308603333333333 -0.2996483333333333
288415028 0.8323393333333332 -0.30158299999999993
289895959 0.8330946666666665 -0.30341033333333334
291376890 0.83349 -0.30484766666666663
292857821 0.833542 -0.30528333333333335
294338752 0.8328530000000001 -0.30690433333333333
295819683 0.8327123333333333 -0.3078166666666667
297300614 0.8305163333333333 -0.30913599999999997
298781545 0.8289263333333332 -0.31037
300262476 0.826095 -0.3100919999999999
301743407 0.8238603333333332 -0.31044299999999997
303224338 0.8203643333333333 -0.31176866666666664
304705269 0.81725 -0.3122723333333333
306186200 0.8134479999999998 -0.31216166666666667
307667131 0.809021 -0.313048
309148062 0.8038029999999999 -0.31437433333333337
310628993 0.808278 -0.316007
312109924 0.810508 -0.31973566666666664
313590855 0.8162146666666665 -0.3184243333333333
315071786 0.8158416666666667 -0.32543433333333327
316552717 0.818126 -0.32836466666666664
318033648 0.8189413333333333 -0.32970866666666665
319514579 0.8204143333333331 -0.3307123333333333
320995510 0.8210856666666665 -0.332816
322476441 0.8216566666666667 -0.33417066666666667
323957372 0.821664 -0.33547266666666664
325438303 0.8204216666666666 -0.3371556666666667
326919234 0.8186303333333332 -0.3376676666666666
328400165 0.817664 -0.3380873333333333
329881096 0.820947 -0.3304736666666666
331362027 0.8139333333333334 -0.3393093333333333
332842958 0.809682 -0.33883399999999997
334323889 0.8066769999999999 -0.33982366666666664
335804820 0.8033669999999999 -0.339651
337285751 0.7984606666666665 -0.3398793333333333
338766682 0.7935089999999999 -0.33993566666666664
340247613 0.7978726666666667 -0.3382303333333333
341728544 0.7982623333333333 -0.34681999999999996
343209475 0.8010269999999999 -0.34897933333333336
344690406 0.8019170000000001 -0.3525586666666666
346171337 0.8040656666666666 -0.3555633333333333
347652268 0.8061729999999999 -0.3572683333333333
349133199 0.8063936666666667 -0.35901933333333325
350614130 0.8067563333333332 -0.36028366666666667
352095061 0.8071723333333332 -0.3625636666666666
353575992 0.8065686666666667 -0.363112
355056923 0.8056856666666667 -0.36544199999999993
356537854 0.8047973333333333 -0.3660726666666666
358018785 0.803365 -0.36659166666666665
359499716 0.8010473333333332 -0.36671566666666666
360980647 0.7981353333333333 -0.3679713333333333
362461578 0.7954166666666667 -0.366954
363942509 0.7924566666666666 -0.36834599999999995
365423440 0.7887409999999999 -0.3665966666666667
366904371 0.7849556666666666 -0.36748533333333333
368385302 0.7804973333333334 -0.36726633333333336
369866233 0.7802496666666665 -0.37033999999999995
371347164 0.7823516666666667 -0.37320099999999995
372828095 0.7843736666666665 -0.376466
374309026 0.7864683333333333 -0.379312
375789957 0.7882846666666667 -0.38156599999999996
377270888 0.7887976666666666 -0.38417033333333334
378751819 0.789596 -0.3855393333333333
380232750 0.7897806666666667 -0.388704
381713681 0.7901693333333333 -0.3887816666666667
383194612 0.7897733333333333 -0.38953266666666664
384675543 0.7889273333333333 -0.3910823333333333
386156474 0.7878413333333333 -0.39183066666666666
387637405 0.7867763333333333 -0.39288466666666666
389118336 0.7846193333333332 -0.3935546666666667
390599267 0.785589 -0.38873366666666664
392080198 0.7797853333333333 -0.39317366666666664
393561129 0.7778126666666667 -0.39212800000000003
395042060 0.7736700000000001 -0.39210966666666663
396522991 0.7698746666666666 -0.39270799999999995
398003922 0.7657589999999999 -0.3920383333333333
399484853 0.7652076666666666 -0.3943743333333334
400965784 0.7677033333333334 -0.396655
402446715 0.7683899999999999 -0.4004096666666666
403927646 0.7716426666666667 -0.403226
405408577 0.7718183333333333 -0.4060166666666667
406889508 0.7731873333333334 -0.40783299999999995
408370439 0.7739689999999999 -0.410331
409851370 0.7730906666666666 -0.4123493333333333
411332301 0.7750563333333332 -0.4139503333333333
412813232 0.7743530000000001 -0.41508533333333336
414294163 0.7734873333333333 -0.4153096666666667
415775094 0.7724366666666667 -0.4169493333333333
417256025 0.7717263333333333 -0.41756233333333337
418736956 0.7690263333333333 -0.41774233333333327
420217887 0.767396 -0.4182376666666666
421698818 0.7655596666666666 -0.417327
423179749 0.762662 -0.4192613333333333
424660680 0.7595566666666667 -0.41778633333333326
426141611 0.756653 -0.4166133333333333
427622542 0.7521636666666667 -0.41667733333333334
429103473 0.7498959999999999 -0.41770399999999996
430584404 0.752502 -0.4208323333333333
432065335 0.7538003333333332 -0.42442333333333326
433546266 0.7559316666666667 -0.426386
435027197 0.7556556666666667 -0.429185
436508128 0.758705 -0.4302693333333333
437989059 0.758375 -0.4325406666666667
439469990 0.759343 -0.4342873333333333
440950921 0.7582723333333333 -0.4364773333333334
442431852 0.7564196666666666 -0.4371476666666666
443912783 0.7570609999999999 -0.43860299999999997
445393714 0.7560006666666667 -0.438338
446874645 0.7541466666666665 -0.4394993333333333
448355576 0.7527686666666666 -0.43977166666666667
449836507 0.7508149999999999 -0.43799499999999997
451317438 0.7470876666666666 -0.44019433333333335
452798369 0.745707 -0.43905233333333327
454279300 0.7419569999999999 -0.43879466666666667
455760231 0.7389519999999999 -0.43764933333333333
457241162 0.7352279999999999 -0.43886000000000003
458722093 0.7331356666666666 -0.436025
460203024 0.734667 -0.439779
461683955 0.7368129999999999 -0.4436483333333333
463164886 0.738766 -0.4477466666666666
464645817 0.739989 -0.44949466666666665
466126748 0.7419016666666667 -0.4525646666666666
467607679 0.7419926666666666 -0.45349433333333333
469088610 0.7417816666666666 -0.4556796666666666
470569541 0.7430446666666667 -0.45683299999999993
472050472 0.7419709999999999 -0.45944299999999993
473531403 0.7428993333333334 -0.45926033333333327
475012334 0.741908 -0.46116133333333337
476493265 0.7421186666666666 -0.46040400000000004
477974196 0.7401443333333333 -0.461495
479455127 0.7383446666666666 -0.46258699999999997
480936058 0.736007 -0.4630236666666666
482416989 0.6950356666666666 -0.44995566666666664
483897920 0.7307776666666665 -0.4612433333333333
485378851 0.7275056666666666 -0.4605053333333333
486859782 0.7250796666666666 -0.460505
488340713 0.7391616666666666 -0.44895266666666667
489821644 0.7222633333333333 -0.462926
491302575 0.7245246666666666 -0.46556966666666666
492783506 0.7300133333333334 -0.46444033333333323
494264437 0.7300646666666666 -0.467312
495745368 0.7308293333333333 -0.46963133333333335
497226299 0.7323519999999999 -0.4716213333333333
498707230 0.7326439999999999 -0.47269966666666663
500188161 0.7322703333333332 -0.47359633333333334
501669092 0.7318553333333333 -0.47542466666666666
503150023 0.7314476666666666 -0.47596666666666665
504630954 0.7302713333333333 -0.47733666666666663
506111885 0.729298 -0.47723766666666667
507592816 0.7277593333333333 -0.47755899999999996
509073747 0.7254769999999999 -0.476641
510554678 0.7230439999999999 -0.47746266666666665
512035609 0.7202123333333332 -0.4774886666666667
513516540 0.7102296666666665 -0.48547033333333334
514997471 0.7133096666666666 -0.47778866666666664
516478402 0.7030646666666667 -0.483177
517959333 0.7055843333333334 -0.47638766666666665
519440264 0.699649 -0.48671933333333334
520921195 0.7079496666666667 -0.4810303333333333
522402126 0.7026246666666666 -0.49210766666666667
523883057 0.7113776666666666 -0.4878643333333333
525363988 0.7057026666666666 -0.4968893333333333
526844919 0.713252 -0.4917893333333333
528325850 0.7070653333333332 -0.5020323333333333
529806781 0.7133769999999999 -0.4959563333333333
531287712 0.7063476666666666 -0.5047919999999999
532768643 0.7131716666666668 -0.4975153333333333
534249574 0.7092916666666667 -0.502054
535730505 0.7375006666666667 -0.49595833333333333
537211436 0.7077026666666667 -0.502216
538692367 0.7052916666666667 -0.5027849999999999
540173298 0.7019806666666666 -0.503026
541654229 0.7005666666666667 -0.502832
543135160 0.6962569999999999 -0.5028873333333332
544616091 0.6934396666666667 -0.5022006666666666
546097022 0.6900763333333334 -0.5014366666666666
547577953 0.6850746666666666 -0.5023293333333334
549058884 0.6847 -0.5024439999999999
550539815 0.6863256666666666 -0.5064153333333332
552020746 0.688697 -0.5104593333333334
553501677 0.6900853333333333 -0.5129013333333332
554982608 0.6909073333333332 -0.515698
556463539 0.6915516666666666 -0.5184726666666666
557944470 0.691983 -0.5195843333333333
559425401 0.6932663333333333 -0.5198896666666666
560906332 0.692696 -0.5225573333333333
562387263 0.6929446666666667 -0.5223966666666666
563868194 0.6931763333333333 -0.524281
565349125 0.691678 -0.5248709999999999
566830056 0.6904636666666667 -0.5247829999999999
568310987 0.6874896666666666 -0.5252473333333333
569791918 0.6870673333333334 -0.5233483333333333
571272849 0.6835933333333333 -0.524432
572753780 0.6809716666666668 -0.523127
574234711 0.678349 -0.5227506666666667
575715642 0.6732579999999999 -0.5221683333333332
577196573 0.6701986666666666 -0.5207346666666666
578677504 0.6683833333333333 -0.5220863333333333
580158435 0.6696216666666667 -0.5259696666666667
581639366 0.6718586666666666 -0.528588
583120297 0.6722769999999999 -0.533142
584601228 0.6738770000000001 -0.5344089999999999
586082159 0.674111 -0.5361946666666666
587563090 0.6752293333333333 -0.5395446666666666
589044021 0.6760609999999999 -0.5401386666666667
590524952 0.6760659999999998 -0.5417076666666667
592005883 0.675572 -0.541798
593486814 0.6744646666666665 -0.5442186666666666
594967745 0.6730236666666666 -0.5441276666666666
596448676 0.6715306666666666 -0.5449013333333332
597929607 0.6699809999999999 -0.544434
599410538 0.6687339999999999 -0.543372
600891469 0.6652746666666667 -0.54402
602372400 0.6635139999999999 -0.5430966666666666
603853331 0.6599503333333333 -0.542283
605334262 0.657056 -0.5408073333333334
606815193 0.6511579999999999 -0.53936
608296124 0.6491006666666667 -0.5384593333333332
609777055 0.6507863333333332 -0.543253
611257986 0.653089 -0.5474583333333333
612738917 0.6540013333333332 -0.549172
614219848 0.6543353333333333 -0.5538669999999999
615700779 0.6554996666666667 -0.5554363333333333
617181710 0.6561503333333333 -0.557181
618662641 0.6566566666666667 -0.5603123333333333
620143572 0.6569496666666667 -0.5611783333333333
621624503 0.6563633333333334 -0.5624233333333334
623105434 0.6569073333333333 -0.562627
624586365 0.6556126666666666 -0.563358
626067296 0.6537206666666666 -0.563944
627548227 0.6525796666666666 -0.564363
629029158 0.6497616666666667 -0.5641643333333334
630510089 0.6488416666666665 -0.561963
631991020 0.6465316666666667 -0.5631406666666666
633471951 0.6432673333333333 -0.5607103333333333
634952882 0.6276006666666666 -0.5651769999999999
636433813 0.6070960000000001 -0.5351346666666666
637914744 0.632134 -0.557601
639395675 0.6328849999999999 -0.5610656666666667
640876606 0.6352316666666666 -0.5638199999999999
642357537 0.6363263333333333 -0.5678456666666666
643838468 0.6380409999999999 -0.571287
645319399 0.6377213333333334 -0.5724830000000001
646800330 0.640593 -0.5747156666666666
648281261 0.6463769999999999 -0.5705146666666667
649762192 0.6394156666666666 -0.577911
651243123 0.6392473333333333 -0.5789523333333333
652724054 0.6377543333333333 -0.5809329999999999
654204985 0.6365163333333334 -0.5811893333333332
655685916 0.6362046666666666 -0.5799146666666666
657166847 0.63515 -0.5793489999999999
658647778 0.6330749999999999 -0.5794496666666666
660128709 0.6325836666666667 -0.578817
661609640 0.628609 -0.5773953333333333
663090571 0.6261703333333333 -0.5768113333333333
664571502 0.623015 -0.5753323333333333
666052433 0.6193803333333333 -0.572784
667533364 0.6164256666666665 -0.5711336666666667
669014295 0.615709 -0.5736596666666667
670495226 0.6174856666666666 -0.5772326666666666
671976157 0.6184786666666666 -0.5808456666666666
673457088 0.619552 -0.5838673333333333
674938019 0.6200243333333334 -0.5866966666666666
676418950 0.6189343333333334 -0.587612
677899881 0.6198366666666666 -0.590498
679380812 0.6206203333333333 -0.5915206666666666
680861743 0.6162823333333334 -0.5963163333333333
682342674 0.6203833333333333 -0.5931963333333333
683823605 0.6181586666666666 -0.5937896666666667
685304536 0.6165553333333333 -0.5949103333333333
686785467 0.6158006666666667 -0.5950806666666666
688266398 0.6149766666666666 -0.5935600000000001
689747329 0.6193543333333333 -0.588705
691228260 0.6097073333333334 -0.5932963333333333
692709191 0.6072206666666666 -0.5925173333333333
694190122 0.6047093333333333 -0.5912956666666666
695671053 0.6019196666666666 -0.590387
697151984 0.5974236666666666 -0.5871249999999999
698632915 0.5976303333333333 -0.5888789999999999
700113846 0.5968156666666666 -0.5933799999999999
701594777 0.5988209999999999 -0.598096
703075708 0.6001963333333333 -0.599521
704556639 0.5999273333333333 -0.6025056666666666
706037570 0.6042503333333333 -0.5994973333333333
707518501 0.5992636666666666 -0.6061473333333334
708999432 0.6003569999999999 -0.605625
710480363 0.594313 -0.6112666666666666
711961294 0.6028773333333333 -0.606074
713442225 0.5923066666666666 -0.6130623333333333
714923156 0.5984656666666666 -0.6071313333333332
716404087 0.5890616666666666 -0.6145956666666665
717885018 0.5939283333333333 -0.6087363333333333
719365949 0.586136 -0.6145999999999999
720846880 0.5910329999999999 -0.6074416666666667
722327811 0.5822423333333333 -0.6115666666666666
723808742 0.5850913333333333 -0.6052486666666667
725289673 0.5755663333333334 -0.6099726666666665
726770604 0.5801243333333332 -0.6037233333333333
728251535 0.5687626666666665 -0.6087506666666667
729732466 0.5783293333333333 -0.606269
731213397 0.5718506666666667 -0.615293
732694328 0.580857 -0.6122363333333333
734175259 0.5735186666666667 -0.620447
735656190 0.5813336666666666 -0.6166739999999999
737137121 0.572219 -0.6246843333333334
738618052 0.580957 -0.6195176666666666
740098983 0.5732903333333332 -0.6268296666666666
741579914 0.581153 -0.6224716666666666
743060845 0.5728073333333333 -0.6273169999999999
744541776 0.5795343333333334 -0.6226903333333333
746022707 0.5719086666666666 -0.627189
747503638 0.578147 -0.6221983333333334
748984569 0.5671663333333333 -0.6273243333333333
750465500 0.5737193333333332 -0.6212523333333333
751946431 0.5630363333333334 -0.6250336666666666
753427362 0.569508 -0.6179513333333333
754908293 0.5620033333333333 -0.6191153333333334
756389224 0.5582303333333333 -0.6180556666666666
757870155 0.5560143333333333 -0.6171763333333333
759351086 0.5562576666666665 -0.620362
760832017 0.560133 -0.6236176666666666
762312948 0.5591713333333332 -0.6280986666666666
763793879 0.5613186666666665 -0.6288433333333333
765274810 0.5597796666666666 -0.6312353333333333
766755741 0.5602176666666666 -0.6326046666666667
768236672 0.5597446666666667 -0.6345983333333334
769717603 0.5598436666666666 -0.6370963333333334
771198534 0.5593183333333333 -0.6373409999999999
772679465 0.5587486666666666 -0.636763
774160396 0.5577349999999999 -0.6374013333333333
775641327 0.556003 -0.6384719999999999
777122258 0.5558609999999999 -0.6364839999999999
778603189 0.5530516666666667 -0.6367806666666667
780084120 0.550833 -0.6360379999999999
781565051 0.5477110000000001 -0.6350750000000001
783045982 0.5446186666666667 -0.6339683333333334
784526913 0.5424513333333333 -0.6323023333333333
786007844 0.5390596666666666 -0.6308716666666667
787488775 0.5362356666666666 -0.62972
788969706 0.5370276666666666 -0.6341716666666666
790450637 0.53876 -0.6358423333333333
791931568 0.5390013333333333 -0.6394673333333333
793412499 0.5393343333333334 -0.6422813333333333
794893430 0.5395073333333333 -0.6453556666666667
796374361 0.5394079999999999 -0.6470316666666667
797855292 0.5397046666666665 -0.6480686666666666
799336223 0.5398033333333332 -0.6500853333333333
800817154 0.5385169999999999 -0.651581
802298085 0.5378673333333334 -0.6511046666666667
803779016 0.5365956666666667 -0.6525119999999999
805259947 0.535207 -0.652351
806740878 0.5347943333333333 -0.6513376666666666
808221809 0.5325273333333334 -0.6526573333333333
809702740 0.5303066666666667 -0.6510189999999999
811183671 0.529259 -0.6493019999999999
812664602 0.5256936666666665 -0.6488999999999999
814145533 0.5223779999999999 -0.647851
815626464 0.519098 -0.6451396666666667
817107395 0.5161146666666666 -0.6432406666666666
818588326 0.5176099999999999 -0.6458206666666666
820069257 0.5181676666666666 -0.650631
821550188 0.5186249999999999 -0.652395
823031119 0.5180756666666666 -0.6550763333333333
824512050 0.5198769999999999 -0.6573009999999999
825992981 0.5183166666666668 -0.6604966666666666
827473912 0.52133 -0.6612376666666666
828954843 0.518797 -0.6635369999999999
830435774 0.5194896666666666 -0.6639213333333334
831916705 0.5189986666666666 -0.6650276666666667
833397636 0.519516 -0.6642016666666666
834878567 0.5175016666666666 -0.6646719999999999
836359498 0.515701 -0.6650953333333334
837840429 0.514594 -0.6643053333333333
839321360 0.5424906666666667 -0.6632173333333333
840802291 0.5118446666666666 -0.6602599999999998
842283222 0.5085363333333333 -0.6593656666666666
843764153 0.506326 -0.6565396666666666
845245084 0.5030126666666667 -0.6552073333333334
846726015 0.5010699999999999 -0.6543406666666667
848206946 0.4996046666666666 -0.654797
849687877 0.4990433333333333 -0.6576056666666666
851168808 0.4985166666666667 -0.662883
852649739 0.5006766666666667 -0.6643726666666666
854130670 0.5001819999999999 -0.6670783333333334
855611601 0.5004879999999999 -0.6693256666666666
857092532 0.5001986666666667 -0.6717709999999999
858573463 0.499299 -0.6727469999999999
860054394 0.4995506666666666 -0.6736986666666667
861535325 0.499988 -0.6739576666666666
863016256 0.49810599999999994 -0.6745286666666666
864497187 0.49703566666666665 -0.6738199999999999
865978118 0.49701533333333336 -0.6735249999999999
867459049 0.49437999999999993 -0.6736446666666667
868939980 0.49377733333333335 -0.6715746666666667
870420911 0.4904449999999999 -0.6716313333333332
871901842 0.4883736666666666 -0.6691929999999999
873382773 0.48684400000000005 -0.6659863333333332
874863704 0.483104 -0.6655099999999999
876344635 0.4804503333333333 -0.6614013333333333
877825566 0.4773243333333333 -0.6639276666666667
879306497 0.47969533333333325 -0.668154
880787428 0.4783993333333333 -0.670255
882268359 0.47961299999999996 -0.6747093333333332
883749290 0.47949733333333333 -0.677286
885230221 0.4801833333333333 -0.6796896666666666
886711152 0.4789116666666667 -0.6815293333333333
888192083 0.4793876666666666 -0.6839063333333333
889673014 0.47804599999999997 -0.6841696666666666
891153945 0.47791733333333336 -0.6858016666666666
892634876 0.47802100000000003 -0.6849809999999998
894115807 0.4785806666666666 -0.6853093333333332
895596738 0.47769033333333333 -0.6863063333333335
897077669 0.47512033333333337 -0.6854726666666666
898558600 0.47478399999999993 -0.6846553333333333
900039531 0.47283299999999995 -0.6826013333333334
901520462 0.4698043333333333 -0.6822993333333334
903001393 0.4686583333333333 -0.6798913333333332
904482324 0.4661373333333333 -0.6773233333333333
905963255 0.46382233333333334 -0.6749783333333333
907444186 0.46342533333333336 -0.6733973333333332
908925117 0.46265999999999996 -0.6765526666666666
910406048 0.46377333333333326 -0.6800876666666666
911886979 0.4627996666666666 -0.6837746666666666
913367910 0.46263699999999996 -0.686076
914848841 0.4626403333333333 -0.6875113333333333
916329772 0.46384366666666665 -0.6899246666666665
917810703 0.46132599999999996 -0.6913456666666666
919291634 0.4626766666666667 -0.6924173333333333
920772565 0.4640666666666667 -0.693605
922253496 0.462703 -0.692703
923734427 0.46131833333333333 -0.6924383333333333
925215358 0.459835 -0.6937776666666666
926696289 0.46016233333333334 -0.69114
928177220 0.456199 -0.6913996666666666
929658151 0.458346 -0.6868433333333333
931139082 0.454526 -0.6879043333333332
932620013 0.4522183333333333 -0.685783
934100944 0.450858 -0.6832226666666666
935581875 0.4492923333333333 -0.6800653333333333
937062806 0.44659899999999997 -0.6774626666666667
938543737 0.44621033333333326 -0.6821619999999999
940024668 0.447275 -0.6853389999999999
941505599 0.447014 -0.6876273333333334
942986530 0.4471936666666666 -0.6899753333333332
944467461 0.44534366666666664 -0.693019
945948392 0.44609866666666664 -0.6946433333333333
947429323 0.4464579999999999 -0.6960653333333333
948910254 0.4459736666666666 -0.6984299999999999
950391185 0.4457393333333333 -0.6985553333333333
951872116 0.446375 -0.6992033333333333
953353047 0.4468026666666667 -0.6982776666666666
954833978 0.4442976666666667 -0.6992656666666666
956314909 0.44450233333333333 -0.698458
957795840 0.442259 -0.6984136666666665
959276771 0.44072266666666665 -0.697913
960757702 0.44060433333333326 -0.695359
962238633 0.4383026666666666 -0.6950623333333332
963719564 0.4350763333333333 -0.6925723333333332
965200495 0.435249 -0.6892039999999999
966681426 0.4333993333333333 -0.6880363333333334
968162357 0.4330143333333333 -0.6893693333333333
969643288 0.4330126666666666 -0.6927723333333333
971124219 0.4316133333333333 -0.6969746666666667
972605150 0.4331763333333333 -0.6984779999999999
974086081 0.43364366666666665 -0.7000279999999999
975567012 0.432375 -0.7019469999999999
977047943 0.43270866666666663 -0.7028083333333333
978528874 0.431774 -0.7052609999999999
980009805 0.4036203333333333 -0.697883
981490736 0.4307076666666666 -0.7062393333333334
982971667 0.43118999999999996 -0.7055899999999999
984452598 0.4311216666666667 -0.705724
985933529 0.422791 -0.708011
987414460 0.4287696666666666 -0.7033766666666665
988895391 0.42516033333333336 -0.7039033333333333
990376322 0.4219056666666666 -0.7039673333333334
991857253 0.42320599999999997 -0.7005589999999999
993338184 0.4198013333333333 -0.6996173333333333
994819115 0.41699733333333333 -0.6973493333333334
996300046 0.4162493333333333 -0.6954326666666667
997780977 0.414626 -0.6972153333333333
999261908 0.415119 -0.700084
1000742839 0.41460566666666665 -0.7047
1002223770 0.41717933333333335 -0.7045063333333333
1003704701 0.4174553333333333 -0.7057906666666667
1005185632 0.4152013333333333 -0.7092959999999999
1006666563 0.41754499999999994 -0.710094
1008147494 0.4155816666666666 -0.711213
1009628425 0.415037 -0.7128033333333332
1011109356 0.41352599999999995 -0.7137143333333333
1012590287 0.413989 -0.7124616666666667
1014071218 0.4137183333333333 -0.711553
1015552149 0.41297366666666663 -0.7123856666666667
1017033080 0.411352 -0.7120896666666666
1018514011 0.41007533333333335 -0.711429
1019994942 0.40765366666666664 -0.7111609999999999
1021475873 0.40693766666666664 -0.7083936666666666
1022956804 0.40601133333333334 -0.7061173333333333
1024437735 0.40137066666666665 -0.705777
1025918666 0.400706 -0.7022246666666666
1027399597 0.399039 -0.7044099999999999
1028880528 0.39998999999999996 -0.7061256666666665
1030361459 0.3992606666666666 -0.70883
1031842390 0.39959066666666665 -0.7121116666666666
1033323321 0.39944999999999997 -0.7129633333333333
1034804252 0.4000876666666667 -0.71432
1036285183 0.3993256666666667 -0.7157586666666665
1037766114 0.3995153333333333 -0.717151
1039247045 0.400064 -0.7185253333333332
1040727976 0.39902533333333334 -0.7178213333333333
1042208907 0.39751999999999993 -0.7179933333333333
1043689838 0.39725466666666664 -0.7176993333333332
1045170769 0.3958443333333333 -0.7164493333333334
1046651700 0.39567566666666665 -0.716783
1048132631 0.3930703333333333 -0.7155130000000001
1049613562 0.38956366666666664 -0.714167
1051094493 0.39008333333333334 -0.7127006666666666
1052575424 0.3866893333333333 -0.7122036666666667
1054056355 0.38358866666666663 -0.709902
1055537286 0.3838786666666666 -0.7063256666666666
1057018217 0.38213166666666665 -0.7058666666666666
1058499148 0.38145566666666664 -0.70872
1059980079 0.38392766666666667 -0.7127749999999999
1061461010 0.3827763333333333 -0.7136866666666666
1062941941 0.38326499999999997 -0.7172806666666667
1064422872 0.38511433333333334 -0.716986
1065903803 0.3844103333333333 -0.7186956666666666
1067384734 0.385244 -0.7205683333333333
1068865665 0.38416799999999995 -0.7208933333333333
1070346596 0.3846156666666667 -0.7208083333333334
1071827527 0.38358866666666663 -0.7223539999999998
1073308458 0.38270099999999996 -0.7211969999999999
1074789389 0.38232399999999994 -0.7202616666666667
1076270320 0.37317199999999995 -0.7208889999999999
1077751251 0.37987099999999996 -0.720057
1079232182 0.3787213333333333 -0.7171883333333332
1080713113 0.37803666666666663 -0.715949
1082194044 0.3747003333333333 -0.7146216666666666
1083674975 0.3717946666666667 -0.7114623333333332
1085155906 0.3742376666666667 -0.7077956666666667
1086636837 0.36714 -0.7077176666666666
1088117768 0.3685036666666666 -0.7113379999999998
1089598699 0.36908366666666664 -0.714873
1091079630 0.3683076666666667 -0.7180936666666666
1092560561 0.368769 -0.7204969999999999
1094041492 0.3679739999999999 -0.7222710000000001
1095522423 0.3687673333333333 -0.723916
1097003354 0.36787233333333325 -0.726371
1098484285 0.3682063333333333 -0.7269783333333334
1099965216 0.36612199999999995 -0.7275093333333333
1101446147 0.36715733333333334 -0.7277603333333333
1102927078 0.36640999999999996 -0.7285459999999999
1104408009 0.364737 -0.7270196666666666
1105888940 0.3659556666666666 -0.7272083333333335
1107369871 0.363435 -0.7241996666666666
1108850802 0.36176566666666665 -0.7252553333333333
1110331733 0.35874399999999995 -0.7231336666666667
1111812664 0.35737699999999994 -0.7224876666666666
1113293595 0.35444566666666666 -0.720405
1114774526 0.3519223333333333 -0.7179776666666667
1116255457 0.35090333333333334 -0.7170663333333334
1117736388 0.3490006666666666 -0.7195320000000001
1119217319 0.35029866666666665 -0.7218576666666667
1120698250 0.3492613333333333 -0.7258913333333332
1122179181 0.3499093333333333 -0.726533
1123660112 0.3498199999999999 -0.7288763333333332
1125141043 0.35001099999999996 -0.7312243333333333
1126621974 0.34810166666666664 -0.7329906666666666
1128102905 0.34900766666666666 -0.735525
1129583836 0.3367563333333333 -0.7327033333333333
1131064767 0.3483286666666666 -0.7337096666666666
1132545698 0.34834533333333334 -0.7344543333333333
1134026629 0.34661966666666666 -0.7329529999999999
1135507560 0.3456916666666666 -0.7321226666666667
1136988491 0.3434173333333333 -0.7308896666666667
1138469422 0.330887 -0.731951
1139950353 0.3399433333333333 -0.7284583333333332
1141431284 0.33867533333333333 -0.725366
1142912215 0.3346243333333333 -0.724537
1144393146 0.33241366666666666 -0.7215073333333333
1145874077 0.32640933333333333 -0.7194356666666666
1147355008 0.33011633333333334 -0.7216806666666665
1148835939 0.3309033333333333 -0.7259986666666667
1150316870 0.327893 -0.7284333333333333
1151797801 0.32846866666666663 -0.7315053333333333
1153278732 0.3310073333333333 -0.7339126666666665
1154759663 0.3303563333333333 -0.736547
1156240594 0.3273666666666667 -0.7385903333333333
1157721525 0.327567 -0.7409403333333332
1159202456 0.3290413333333333 -0.7405656666666667
1160683387 0.329065 -0.7410669999999999
1162164318 0.328951 -0.7417073333333333
1163645249 0.327972 -0.7407616666666665
1165126180 0.3271236666666667 -0.7406603333333333
1166607111 0.32650366666666664 -0.7408066666666665
1168088042 0.3253563333333333 -0.7387536666666668
1169568973 0.322996 -0.737096
1171049904 0.32231699999999996 -0.7346976666666667
1172530835 0.3193393333333333 -0.7327173333333332
1174011766 0.31774933333333333 -0.7306916666666666
1175492697 0.315675 -0.728188
1176973628 0.31514299999999995 -0.7279063333333333
1178454559 0.3160493333333333 -0.7310490000000001
1179935490 0.3154323333333333 -0.7349519999999999
1181416421 0.3160576666666666 -0.737383
1182897352 0.3159943333333333 -0.7389866666666667
1184378283 0.315277 -0.7413573333333333
1185859214 0.32020199999999993 -0.7413360000000001
1187340145 0.31097133333333327 -0.745542
1188821076 0.32068766666666665 -0.744144
1190302007 0.31396066666666667 -0.7457583333333334
1191782938 0.3178033333333333 -0.7437616666666665
1193263869 0.31014933333333333 -0.7463439999999999
1194744800 0.31598099999999996 -0.7438889999999999
1196225731 0.3087643333333333 -0.7445053333333332
1197706662 0.313859 -0.7409316666666667
1199187593 0.30442166666666665 -0.7407926666666667
1200668524 0.313388 -0.7360136666666667
1202149455 0.304265 -0.7357303333333333
1203630386 0.30883266666666664 -0.7313336666666667
1205111317 0.29769599999999996 -0.7301523333333333
1206592248 0.30078866666666665 -0.7285106666666668
1208073179 0.30079433333333333 -0.730994
1209554110 0.3009343333333333 -0.7342580000000001
1211035041 0.30213866666666667 -0.7373446666666666
1212515972 0.3001123333333333 -0.740219
1213996903 0.29817133333333334 -0.742089
1215477834 0.29855766666666667 -0.7442583333333334
1216958765 0.29741833333333334 -0.7456546666666666
1218439696 0.29806499999999997 -0.7461226666666666
1219920627 0.2950723333333333 -0.7482759999999999
1221401558 0.2948 -0.7486396666666667
1222882489 0.296964 -0.746388
1224363420 0.29642766666666664 -0.7452613333333332
1225844351 0.30523033333333327 -0.7443483333333334
1227325282 0.2956886666666666 -0.7425296666666666
1228806213 0.29127633333333336 -0.742753
1230287144 0.29055766666666666 -0.7402113333333333
1231768075 0.29097533333333336 -0.7384593333333332
1233249006 0.2752003333333333 -0.7372456666666666
1234729937 0.2856606666666667 -0.7318246666666666
1236210868 0.28113999999999995 -0.7323506666666666
1237691799 0.2844513333333333 -0.7346286666666666
1239172730 0.28056633333333336 -0.7376993333333333
1240653661 0.28276599999999996 -0.740184
1242134592 0.2808003333333333 -0.7419323333333333
1243615523 0.28265299999999993 -0.7432926666666666
1245096454 0.28083366666666665 -0.7463276666666667
1246577385 0.27999366666666664 -0.7468963333333334
1248058316 0.2806453333333333 -0.7469326666666666
1249539247 0.278649 -0.7492073333333333
1251020178 0.2799103333333333 -0.7488003333333333
1252501109 0.27986266666666665 -0.7474270000000001
1253982040 0.27949 -0.7467406666666667
1255462971 0.27834133333333333 -0.7461353333333333
1256943902 0.2761653333333333 -0.745158
1258424833 0.27462166666666665 -0.7427673333333332
1259905764 0.27661333333333327 -0.7415050000000001
1261386695 0.27369933333333335 -0.7400103333333333
1262867626 0.269293 -0.738829
1264348557 0.27232799999999996 -0.7351183333333333
1265829488 0.2692096666666666 -0.7318943333333332
1267310419 0.2681523333333333 -0.7346519999999999
1268791350 0.26810766666666663 -0.7385116666666667
1270272281 0.2688113333333333 -0.7400690000000001
1271753212 0.2681956666666666 -0.7414176666666666
1273234143 0.26461266666666666 -0.7483749999999999
1274715074 0.26847999999999994 -0.7469813333333333
1276196005 0.267929 -0.7478906666666667
1277676936 0.2641096666666667 -0.7505906666666666
1279157867 0.2670463333333333 -0.749751
1280638798 0.2670493333333333 -0.7515443333333334
1282119729 0.26754966666666663 -0.7511163333333333
1283600660 0.26625999999999994 -0.751089
1285081591 0.2653423333333333 -0.7511066666666666
1286562522 0.26704599999999995 -0.7484173333333333
1288043453 0.2669896666666666 -0.7471683333333333
1289524384 0.2646286666666666 -0.7467753333333331
1291005315 0.26378966666666664 -0.7446163333333333
1292486246 0.262968 -0.7438879999999999
1293967177 0.2600756666666666 -0.7398323333333333
1295448108 0.260622 -0.7357466666666667
1296929039 0.25814866666666664 -0.739788
1298409970 0.259809 -0.7428123333333333
1299890901 0.2596033333333333 -0.7449233333333334
1301371832 0.2567326666666666 -0.7489589999999999
1302852763 0.2606603333333333 -0.7477113333333333
1304333694 0.2570703333333333 -0.7505556666666666
1305814625 0.2571653333333333 -0.7513860000000001
1307295556 0.257202 -0.751428
1308776487 0.257273 -0.7542266666666665
1310257418 0.2552093333333333 -0.7522279999999999
1311738349 0.25405866666666665 -0.7537909999999999
1313219280 0.25169633333333336 -0.7522633333333333
1314700211 0.2537613333333333 -0.75201
1316181142 0.25257599999999997 -0.7521739999999999
1317662073 0.2517973333333333 -0.7506263333333332
1319143004 0.25028066666666665 -0.7495966666666667
1320623935 0.2510266666666667 -0.7463263333333333
1322104866 0.24761633333333333 -0.745717
1323585797 0.248724 -0.7438016666666667
1325066728 0.24362233333333333 -0.7424489999999999
1326547659 0.243695 -0.7427223333333333
1328028590 0.244923 -0.744021
1329509521 0.24589433333333333 -0.7471566666666667
1330990452 0.24628666666666668 -0.749625
1332471383 0.2460923333333333 -0.7522533333333332
1333952314 0.246662 -0.7517516666666666
1335433245 0.245676 -0.7534246666666666
1336914176 0.24549999999999997 -0.7527010000000001
1338395107 0.24249199999999999 -0.7559896666666666
1339876038 0.2442433333333333 -0.7549729999999999
1341356969 0.24405266666666664 -0.7549786666666667
1342837900 0.24684366666666663 -0.754759
1344318831 0.2449893333333333 -0.755166
1345799762 0.24568099999999998 -0.7533556666666665
1347280693 0.24450366666666667 -0.7515296666666665
1348761624 0.242741 -0.749787
1350242555 0.23935533333333336 -0.7489279999999999
1351723486 0.23716866666666664 -0.7485696666666666
1353204417 0.23634899999999998 -0.7451059999999999
1354685348 0.233356 -0.7409233333333334
1356166279 0.232401 -0.7419423333333333
1357647210 0.235122 -0.7436443333333334
1359128141 0.23755733333333331 -0.746927
1360609072 0.235746 -0.7505766666666666
1362090003 0.235865 -0.7517413333333334
1363570934 0.23550566666666667 -0.7534006666666666
1365051865 0.235961 -0.7538403333333333
1366532796 0.23593033333333335 -0.7561709999999999
1368013727 0.24903266666666668 -0.7512559999999999
1369494658 0.23810166666666666 -0.7577393333333333
1370975589 0.23519299999999999 -0.7567736666666667
1372456520 0.23423166666666664 -0.7572046666666666
1373937451 0.23776066666666665 -0.7556919999999999
1375418382 0.23154133333333332 -0.755801
1376899313 0.22452866666666665 -0.7245643333333334
1378380244 0.23178766666666667 -0.753262
1379861175 0.22757033333333335 -0.7522216666666666
1381342106 0.2274683333333333 -0.7511363333333333
1382823037 0.22887733333333332 -0.747366
1384303968 0.2233053333333333 -0.7463973333333334
1385784899 0.22392666666666666 -0.7466263333333334
1387265830 0.22230466666666665 -0.7491566666666666
1388746761 0.22293066666666667 -0.7511623333333333
1390227692 0.2210643333333333 -0.7535013333333334
1391708623 0.22198166666666666 -0.7559043333333333
1393189554 0.21916733333333333 -0.758197
1394670485 0.2183753333333333 -0.7595043333333333
1396151416 0.217922 -0.7597976666666666
1397632347 0.22219766666666665 -0.7609369999999999
1399113278 0.21702133333333332 -0.7609513333333333
1400594209 0.222443 -0.761984
1402075140 0.22243266666666667 -0.7611933333333332
1403556071 0.21496633333333331 -0.759789
1405037002 0.21542366666666662 -0.7599506666666667
1406517933 0.21959066666666663 -0.7589936666666667
1407998864 0.215387 -0.7562873333333333
1409479795 0.21561066666666664 -0.7537909999999999
1410960726 0.21344233333333335 -0.7528266666666666
1412441657 0.21216866666666667 -0.7510936666666665
1413922588 0.21136366666666664 -0.7483493333333333
1415403519 0.20733266666666667 -0.7459286666666666
1416884450 0.20807133333333333 -0.7494683333333333
1418365381 0.20902033333333336 -0.7525796666666666
1419846312 0.20850133333333332 -0.7559923333333334
1421327243 0.21159133333333335 -0.75624
1422808174 0.2071343333333333 -0.7606423333333333
1424289105 0.21080833333333332 -0.7614559999999999
1425770036 0.21094166666666664 -0.762406
1427250967 0.21022566666666664 -0.7649869999999999
1428731898 0.21114466666666665 -0.7645746666666666
1430212829 0.20998833333333333 -0.7652639999999999
1431693760 0.20940766666666666 -0.7646786666666667
1433174691 0.23358966666666664 -0.7901909999999999
1434655622 0.20870599999999997 -0.7642673333333333
1436136553 0.19120033333333333 -0.7489376666666666
1437617484 0.2048043333333333 -0.7602096666666667
1439098415 0.20494833333333332 -0.758705
1440579346 0.20589566666666664 -0.7571300000000001
1442060277 0.2017383333333333 -0.7536086666666666
1443541208 0.19873633333333332 -0.7518933333333333
1445022139 0.19869766666666666 -0.7479353333333334
1446503070 0.19900233333333334 -0.7518976666666666
1447984001 0.19693533333333335 -0.7544743333333332
1449464932 0.19902466666666666 -0.7580436666666667
1450945863 0.20018800000000003 -0.761084
1452426794 0.20185233333333333 -0.7624056666666666
1453907725 0.198679 -0.7656216666666668
1455388656 0.19972199999999998 -0.7667003333333332
1456869587 0.19876033333333334 -0.766975
1458350518 0.19795299999999996 -0.7669233333333333
1459831449 0.20124266666666668 -0.7692169999999999
1461312380 0.19983566666666666 -0.767644
1462793311 0.19813133333333333 -0.7680566666666666
1464274242 0.19801366666666667 -0.7659846666666665
1465755173 0.19620399999999996 -0.7647636666666667
1467236104 0.19616099999999997 -0.7638383333333333
1468717035 0.19468466666666664 -0.7611646666666667
1470197966 0.19300833333333334 -0.7594979999999999
1471678897 0.19003933333333334 -0.7568916666666665
1473159828 0.18810299999999996 -0.7534716666666667
1474640759 0.18665333333333334 -0.7510883333333332
1476121690 0.18551566666666663 -0.7522373333333334
1477602621 0.18482266666666664 -0.7565123333333333
1479083552 0.185468 -0.7588236666666666
1480564483 0.184234 -0.7613683333333332
1482045414 0.18586899999999998 -0.7635116666666667
1483526345 0.1875173333333333 -0.765922
1485007276 0.186616 -0.7688163333333332
1486488207 0.1851223333333333 -0.768076
1487969138 0.1856693333333333 -0.768585
1489450069 0.18479433333333334 -0.7692129999999999
1490931000 0.18670866666666666 -0.768369
1492411931 0.1861546666666667 -0.7681766666666665
1493892862 0.18385166666666666 -0.7692673333333333
1495373793 0.185172 -0.765631
1496854724 0.182297 -0.7636296666666667
1498335655 0.182967 -0.7618906666666666
1499816586 0.17926799999999998 -0.7595703333333332
1501297517 0.1775813333333333 -0.7574136666666667
1502778448 0.173724 -0.7548849999999999
1504259379 0.17600133333333334 -0.7500236666666666
1505740310 0.17581466666666667 -0.7494156666666667
1507221241 0.17165566666666665 -0.7535216666666665
1508702172 0.17335566666666663 -0.7562676666666667
1510183103 0.1697266666666667 -0.7589103333333334
1511664034 0.17451166666666665 -0.760969
1513144965 0.16985366666666663 -0.762685
1514625896 0.17214033333333334 -0.7638539999999999
1516106827 0.17025566666666664 -0.7647566666666666
1517587758 0.17227133333333333 -0.765326
1519068689 0.17137966666666665 -0.765014
1520549620 0.17128266666666664 -0.7654983333333334
1522030551 0.17072066666666666 -0.7648929999999999
1523511482 0.1683113333333333 -0.7678156666666667
1524992413 0.17076433333333332 -0.7617926666666667
1526473344 0.17114966666666667 -0.761091
1527954275 0.16304366666666664 -0.7594406666666667
1529435206 0.16606333333333334 -0.7557366666666666
1530916137 0.157248 -0.7534856666666667
1532397068 0.150044 -0.7202440000000001
1533877999 0.16167333333333334 -0.7456709999999999
1535358930 0.15953 -0.746037
1536839861 0.15995733333333334 -0.7496130000000001
1538320792 0.15999766666666665 -0.7523329999999999
1539801723 0.161406 -0.755576
1541282654 0.16187833333333335 -0.7569826666666666
1542763585 0.15853766666666666 -0.760137
1544244516 0.16197 -0.7619606666666666
1545725447 0.1588923333333333 -0.7633076666666666
1547206378 0.1588733333333333 -0.7647603333333333
1548687309 0.16002799999999998 -0.7651863333333333
1550168240 0.15995099999999998 -0.7648323333333332
1551649171 0.16092966666666667 -0.7650583333333333
1553130102 0.16105999999999998 -0.7643856666666666
1554611033 0.15916633333333333 -0.764284
1556091964 0.15876566666666664 -0.7615249999999999
1557572895 0.15928399999999998 -0.7599746666666667
1559053826 0.154441 -0.7585853333333332
1560534757 0.15871266666666664 -0.7554276666666666
1562015688 0.14917066666666667 -0.7548166666666667
1563496619 0.15706799999999999 -0.7497113333333332
1564977550 0.145341 -0.7473436666666666
1566458481 0.15366033333333332 -0.7493253333333334
1567939412 0.144279 -0.7543273333333333
1569420343 0.15494599999999997 -0.7553866666666667
1570901274 0.14027833333333334 -0.7595793333333332
1572382205 0.14980833333333332 -0.7603116666666666
1573863136 0.14054066666666665 -0.7635726666666667
1575344067 0.149298 -0.7629133333333332
1576824998 0.14161233333333334 -0.7649726666666666
1578305929 0.14763533333333334 -0.765579
1579786860 0.143687 -0.7663869999999999
1581267791 0.14223066666666664 -0.7661753333333332
1582748722 0.14593833333333334 -0.764367
1584229653 0.14255266666666666 -0.7653166666666666
1585710584 0.16175966666666666 -0.7742193333333334
1587191515 0.14290866666666663 -0.761336
1588672446 0.138189 -0.7594086666666666
1590153377 0.13812633333333332 -0.7575483333333333
1591634308 0.13903666666666664 -0.7549233333333334
1593115239 0.13695233333333334 -0.752151
1594596170 0.1360353333333333 -0.7485063333333334
1596077101 0.13602966666666666 -0.7515793333333334
1597558032 0.1322713333333333 -0.7546853333333333
1599038963 0.13397266666666668 -0.75577
1600519894 0.13257566666666665 -0.7580950000000001
1602000825 0.13240533333333332 -0.7602513333333333
1603481756 0.13343 -0.7618606666666665
1604962687 0.13137066666666664 -0.7625143333333333
1606443618 0.130568 -0.7622096666666667
1607924549 0.13139633333333334 -0.7619196666666667
1609405480 0.12811266666666665 -0.763755
1610886411 0.1266253333333333 -0.7634206666666667
1612367342 0.13017033333333333 -0.762486
1613848273 0.12668666666666667 -0.7617453333333333
1615329204 0.128281 -0.7594503333333332
1616810135 0.12666866666666665 -0.7583973333333331
1618291066 0.127349 -0.7564723333333332
1619771997 0.12452033333333332 -0.754257
1621252928 0.124799 -0.7510633333333333
1622733859 0.12318433333333334 -0.7493036666666666
1624214790 0.12238233333333333 -0.745614
1625695721 0.117986 -0.7480856666666666
1627176652 0.11956499999999999 -0.7498966666666667
1628657583 0.11808533333333333 -0.7535063333333333
1630138514 0.11932466666666666 -0.7546436666666666
1631619445 0.12110066666666666 -0.755343
1633100376 0.11855566666666667 -0.7592859999999999
1634581307 0.11670366666666666 -0.7601423333333333
1636062238 0.116474 -0.7621859999999999
1637543169 0.11838466666666667 -0.7620763333333334
1639024100 0.11946566666666665 -0.7618199999999999
1640505031 0.11636066666666667 -0.7631566666666667
1641985962 0.11904100000000001 -0.7606256666666666
1643466893 0.119306 -0.7594709999999998
1644947824 0.11633066666666667 -0.7594636666666666
1646428755 0.11635333333333332 -0.758373
1647909686 0.11627499999999999 -0.756106
1649390617 0.11351766666666666 -0.7550813333333333
1650871548 0.11296366666666666 -0.7523973333333333
1652352479 0.114232 -0.750539
1653833410 0.11179733333333333 -0.7475483333333333
1655314341 0.11145866666666666 -0.7462713333333333
1656795272 0.11285766666666666 -0.7500493333333333
1658276203 0.11096600000000001 -0.7542283333333334
1659757134 0.11023833333333333 -0.754571
1661238065 0.11379866666666666 -0.7570609999999999
1662718996 0.10960833333333332 -0.7584823333333333
1664199927 0.11197299999999999 -0.760608
1665680858 0.10841966666666666 -0.7619039999999999
1667161789 0.11048499999999997 -0.762586
1668642720 0.11027299999999998 -0.7602843333333333
1670123651 0.10894966666666667 -0.7629556666666667
1671604582 0.10885133333333333 -0.7632793333333333
1673085513 0.08838866666666667 -0.749043
1674566444 0.11115599999999999 -0.7595986666666665
1676047375 0.10554733333333333 -0.761234
1677528306 0.10705466666666666 -0.7588383333333333
1679009237 0.10598233333333332 -0.7567866666666667
1680490168 0.10703466666666668 -0.75567
1681971099 0.10447166666666666 -0.7530016666666667
1683452030 0.10431866666666667 -0.7497183333333333
1684932961 0.10286066666666667 -0.751239
1686413892 0.1018 -0.752077
1687894823 0.10188066666666667 -0.7562833333333333
1689375754 0.102477 -0.7589233333333333
1690856685 0.09962433333333333 -0.7611883333333332
1692337616 0.10044766666666666 -0.7623853333333332
1693818547 0.10146666666666666 -0.7642776666666666
1695299478 0.10073333333333334 -0.7649536666666666
1696780409 0.10291366666666668 -0.7660396666666666
1698261340 0.10210599999999999 -0.7671579999999999
1699742271 0.098435 -0.7655343333333333
1701223202 0.10071966666666665 -0.7651043333333334
1702704133 0.10023066666666666 -0.7645886666666666
1704185064 0.09811566666666667 -0.7650616666666666
1705665995 0.10055466666666665 -0.7629049999999999
1707146926 0.10026933333333332 -0.7612983333333334
1708627857 0.09509599999999999 -0.759207
1710108788 0.09711966666666667 -0.7559146666666666
1711589719 0.09441433333333334 -0.7547789999999999
1713070650 0.09406866666666666 -0.7526043333333333
1714551581 0.08990799999999999 -0.7496233333333333
1716032512 0.096454 -0.7552399999999999
1717513443 0.09248666666666666 -0.7550916666666666
1718994374 0.09417866666666666 -0.757513
1720475305 0.09288333333333333 -0.7621973333333332
1721956236 0.09478366666666665 -0.7623523333333333
1723437167 0.09452933333333331 -0.7635229999999998
1724918098 0.09193233333333334 -0.7649213333333332
1726399029 0.09207166666666666 -0.7638243333333332
1727879960 0.08892433333333334 -0.7618273333333333
1729360891 0.09577866666666668 -0.7629183333333334
1730841822 0.096355 -0.7658
1732322753 0.09439900000000001 -0.764122
1733803684 0.09182499999999999 -0.7637103333333333
1735284615 0.09214766666666666 -0.7614596666666666
1736765546 0.09052366666666667 -0.7596793333333333
1738246477 0.09144766666666666 -0.756058
1739727408 0.08744933333333334 -0.7549653333333333
1741208339 0.08966333333333333 -0.7524616666666667
1742689270 0.08933033333333334 -0.748677
1744170201 0.08551533333333333 -0.7477663333333334
1745651132 0.086228 -0.7506329999999999
1747132063 0.08432866666666668 -0.752916
1748612994 0.08743233333333333 -0.7556433333333332
1750093925 0.08442566666666665 -0.7593353333333333
1751574856 0.08529199999999999 -0.7598236666666667
1753055787 0.086112 -0.7617683333333334
1754536718 0.08497633333333332 -0.7611123333333333
1756017649 0.08450799999999999 -0.763865
1757498580 0.08474766666666667 -0.7655913333333333
1758979511 0.08455733333333333 -0.765062
1760460442 0.08565733333333332 -0.765853
1761941373 0.08259866666666665 -0.765876
1763422304 0.08352533333333334 -0.762605
1764903235 0.085393 -0.7604016666666666
1766384166 0.08176333333333333 -0.7618303333333333
1767865097 0.08255833333333334 -0.7577213333333332
1769346028 0.08125666666666666 -0.7562926666666666
1770826959 0.08194133333333332 -0.7534566666666667
1772307890 0.07956566666666666 -0.7494256666666665
1773788821 0.07654666666666667 -0.7472813333333335
1775269752 0.07926166666666665 -0.7497306666666665
1776750683 0.07758166666666666 -0.7522473333333333
1778231614 0.07752433333333332 -0.7532749999999999
1779712545 0.07740999999999999 -0.7579750000000001
1781193476 0.07479733333333333 -0.7591063333333332
1782674407 0.07684133333333333 -0.7616336666666667
1784155338 0.07560733333333333 -0.762411
1785636269 0.07380333333333333 -0.7633846666666666
1787117200 0.080258 -0.7645293333333332
1788598131 0.07708833333333333 -0.7652746666666667
1790079062 0.07849866666666666 -0.7634016666666665
1791559993 0.07536233333333332 -0.7616893333333332
1793040924 0.07503433333333333 -0.7614533333333333
1794521855 0.07669333333333334 -0.7606080000000001
1796002786 0.07733366666666666 -0.7578779999999999
1797483717 0.07563266666666665 -0.756598
1798964648 0.07456433333333332 -0.754041
1800445579 0.07488133333333333 -0.7507259999999999
1801926510 0.075818 -0.747789
1803407441 0.07292466666666667 -0.7445203333333335
1804888372 0.075473 -0.744542
1806369303 0.070379 -0.745703
1807850234 0.07169266666666665 -0.752198
1809331165 0.072767 -0.7536933333333332
1810812096 0.07021266666666667 -0.7544276666666666
1812293027 0.07015666666666666 -0.7580709999999999
1813773958 0.06842499999999999 -0.7594476666666666
1815254889 0.070142 -0.7595989999999999
1816735820 0.068464 -0.7588546666666667
1818216751 0.06616933333333333 -0.7604856666666666
1819697682 0.068599 -0.7621373333333334
1821178613 0.06867399999999999 -0.7610226666666666
1822659544 0.065052 -0.7587566666666667
1824140475 0.065692 -0.7596459999999998
1825621406 0.06236 -0.761296
1827102337 0.06631466666666666 -0.7549806666666666
1828583268 0.064528 -0.7540276666666667
1830064199 0.06337899999999999 -0.7502199999999999
1831545130 0.07863933333333334 -0.7711653333333333
1833026061 0.05418066666666667 -0.7461793333333333
1834506992 0.05812333333333334 -0.7463343333333332
1835987923 0.057772 -0.7481216666666667
1837468854 0.05944333333333333 -0.7498619999999999
1838949785 0.05650999999999999 -0.7528579999999999
1840430716 0.06067466666666667 -0.756363
1841911647 0.058907333333333325 -0.759131
1843392578 0.05691266666666667 -0.7568043333333333
1844873509 0.057966666666666666 -0.759973
1846354440 0.05649033333333332 -0.7593723333333333
1847835371 0.05603466666666666 -0.761167
1849316302 0.058490333333333325 -0.7614813333333332
1850797233 0.057559 -0.7622549999999999
1852278164 0.05936933333333333 -0.7605136666666665
1853759095 0.05700699999999999 -0.7589106666666666
1855240026 0.061337333333333334 -0.7579133333333333
1856720957 0.057951333333333334 -0.7549466666666667
1858201888 0.055282333333333336 -0.751989
1859682819 0.05906533333333333 -0.7508006666666667
1861163750 0.05831533333333333 -0.7479293333333332
1862644681 0.05746633333333333 -0.7450473333333334
1864125612 0.05560266666666666 -0.7418716666666667
1865606543 0.05739133333333333 -0.745535
1867087474 0.05656733333333333 -0.7487556666666666
1868568405 0.05420133333333333 -0.750091
1870049336 0.054184666666666666 -0.7526846666666667
1871530267 0.052809999999999996 -0.756182
1873011198 0.058451666666666666 -0.7574123333333334
1874492129 0.05546333333333334 -0.7585596666666667
1875973060 0.055396 -0.7594193333333333
1877453991 0.05041566666666667 -0.7672343333333332
1878934922 0.05485733333333333 -0.7607933333333332
1880415853 0.055117 -0.7610633333333334
1881896784 0.053299333333333324 -0.7597419999999999
1883377715 0.05441866666666667 -0.7600603333333332
1884858646 0.05272066666666667 -0.7585183333333334
1886339577 0.054395 -0.757347
1887820508 0.05059666666666666 -0.7538830000000001
1889301439 0.05185133333333333 -0.7515483333333333
1890782370 0.05315333333333333 -0.7498376666666666
1892263301 0.048842333333333335 -0.7471456666666667
1893744232 0.049957 -0.743671
1895225163 0.04926033333333333 -0.7466353333333333
1896706094 0.05051766666666666 -0.7485746666666666
1898187025 0.049044000000000004 -0.7524233333333333
1899667956 0.047124 -0.7522703333333334
1901148887 0.044944 -0.7544386666666667
1902629818 0.04460599999999999 -0.7550106666666665
1904110749 0.048125666666666664 -0.7555293333333333
1905591680 0.04435633333333333 -0.7616133333333333
1907072611 0.044188000000000005 -0.7557776666666666
1908553542 0.04273666666666666 -0.7565593333333333
1910034473 0.043929333333333334 -0.754034
1911515404 0.04288 -0.7554686666666666
1912996335 0.039100666666666666 -0.7543439999999999
1914477266 0.04055466666666666 -0.7509563333333333
1915958197 0.03339399999999999 -0.7494299999999999
1917439128 0.036433 -0.7476493333333334
1918920059 0.03491233333333333 -0.7437463333333333
1920400990 0.03498933333333333 -0.7401116666666666
1921881921 0.035033666666666664 -0.7392019999999999
1923362852 0.029930666666666664 -0.7358746666666667
1924843783 0.031035999999999998 -0.7383833333333334
1926324714 0.028465999999999998 -0.7397696666666667
1927805645 0.029063999999999996 -0.744726
1929286576 0.030739333333333334 -0.745811
1930767507 0.027304333333333333 -0.7490036666666666
1932248438 0.029475 -0.75088
1933729369 0.028444333333333335 -0.7510683333333334
1935210300 0.028749999999999998 -0.752497
1936691231 0.02821133333333333 -0.7526736666666666
1938172162 0.025757333333333333 -0.7522543333333332
1939653093 0.02800133333333333 -0.752367
1941134024 0.030094 -0.752095
1942614955 0.02606033333333333 -0.7511779999999999
1944095886 0.027724 -0.751303
1945576817 0.025421666666666665 -0.7499656666666665
1947057748 0.027057666666666664 -0.7461646666666666
1948538679 0.025580666666666668 -0.7459946666666666
1950019610 0.025767666666666664 -0.742448
1951500541 0.025086999999999998 -0.739619
1952981472 0.024923666666666667 -0.7370216666666667
1954462403 0.027818333333333334 -0.7363969999999999
1955943334 0.02409 -0.7406813333333334
1957424265 0.022611333333333334 -0.7423223333333333
1958905196 0.023257 -0.745555
1960386127 0.023614666666666666 -0.7461139999999999
1961867058 0.017573333333333333 -0.7483709999999999
1963347989 0.024328999999999996 -0.7488493333333333
1964828920 0.022965 -0.751811
1966309851 0.022833333333333334 -0.7505919999999999
1967790782 0.025137333333333334 -0.749908
1969271713 0.018038666666666665 -0.752434
1970752644 0.021730666666666665 -0.751219
1972233575 0.031148 -0.7521573333333333
1973714506 0.037218 -0.7610016666666666
1975195437 0.017728666666666663 -0.7456549999999998
1976676368 0.019642666666666662 -0.7446893333333333
1978157299 0.020035999999999998 -0.7423599999999999
1979638230 0.02123733333333333 -0.7400913333333332
1981119161 0.017504 -0.7376523333333334
1982600092 0.014513666666666668 -0.7352123333333332
1984081023 0.017265999999999997 -0.733873
1985561954 0.013823333333333333 -0.7377126666666666
1987042885 0.017876999999999997 -0.7405073333333334
1988523816 0.021351 -0.7428213333333333
1990004747 0.01786 -0.7435266666666667
1991485678 0.015229333333333333 -0.7470873333333332
1992966609 0.019452666666666667 -0.7463243333333331
1994447540 0.013617333333333332 -0.748723
1995928471 0.017203666666666666 -0.7481853333333334
1997409402 0.01615533333333333 -0.748217
1998890333 0.013474666666666666 -0.7493420000000001
2000371264 0.01542633333333333 -0.7497076666666667
2001852195 0.018866333333333332 -0.7487213333333333
2003333126 0.01796033333333333 -0.7470169999999998
2004814057 0.018724 -0.7458746666666667
2006294988 0.017786333333333335 -0.7435449999999999
2007775919 0.016357999999999998 -0.742532
2009256850 0.016833333333333332 -0.7392026666666667
2010737781 0.012615333333333334 -0.73861
2012218712 0.007510333333333332 -0.7326333333333332
2013699643 0.0065706666666666665 -0.7307436666666667
2015180574 0.0054849999999999986 -0.7334890000000001
2016661505 0.003753 -0.7368629999999998
2018142436 0.0058119999999999995 -0.7379049999999998
2019623367 0.004600333333333333 -0.7403853333333332
2021104298 0.004162333333333333 -0.741995
2022585229 0.005654333333333332 -0.7421729999999999
2024066160 0.00209 -0.7436656666666668
2025547091 0.004853333333333333 -0.7429146666666666
2027028022 0.002641666666666667 -0.7424483333333334
2028508953 0.0013966666666666667 -0.7466383333333333
2029989884 0.004601666666666667 -0.7428543333333333
2031470815 0.000852 -0.743407
2032951746 0.00048733333333333316 -0.7413613333333333
2034432677 0.0029249999999999996 -0.7404293333333333
2035913608 0.0046 -0.7381829999999999
2037394539 0.00033733333333333326 -0.7356206666666667
2038875470 0.0030729999999999998 -0.7343656666666667
2040356401 0.0040019999999999995 -0.7309726666666667
2041837332 -0.001774333333333333 -0.728898
2043318263 -0.0020113333333333333 -0.725997
2044799194 -0.0012286666666666665 -0.7290296666666667
2046280125 -0.001993 -0.732254
2047761056 -0.004659333333333333 -0.7343189999999999
2049241987 -0.0051066666666666665 -0.7354023333333333
2050722918 -0.002561666666666667 -0.7377226666666666
2052203849 -0.004202666666666666 -0.7402479999999999
2053684780 -0.006581 -0.7401356666666665
2055165711 -0.005737 -0.7395099999999999
2056646642 -0.004835333333333333 -0.7407243333333332
2058127573 -0.004421 -0.7405573333333333
2059608504 -0.005408 -0.7403593333333333
2061089435 -0.010091333333333332 -0.7400603333333333
2062570366 -0.0064670000000000005 -0.7398509999999999
2064051297 -0.0058063333333333335 -0.737946
2065532228 -0.004499666666666667 -0.7354179999999999
2067013159 -0.007647999999999999 -0.7356486666666666
2068494090 -0.011216666666666666 -0.7311433333333334
2069975021 -0.007292666666666667 -0.7307769999999999
2071455952 -0.011860666666666667 -0.7265966666666667
2072936883 -0.011311666666666666 -0.7215973333333334
2074417814 -0.011352666666666665 -0.7273259999999999
2075898745 -0.011609333333333333 -0.7307846666666666
2077379676 -0.012090333333333331 -0.732529
2078860607 -0.013618 -0.7344076666666668
2080341538 -0.014927666666666667 -0.7364476666666666
2081822469 -0.012711333333333333 -0.739308
2083303400 -0.013467333333333333 -0.7412076666666667
2084784331 -0.012990999999999999 -0.741571
2086265262 -0.009687333333333333 -0.74376
2087746193 -0.010391666666666667 -0.7437473333333333
2089227124 -0.012205 -0.7439433333333333
2090708055 -0.009790333333333333 -0.7435616666666666
2092188986 -0.012365999999999999 -0.7429223333333332
2093669917 -0.012287 -0.741984
2095150848 -0.010580333333333334 -0.7403443333333334
2096631779 -0.009832666666666667 -0.738625
2098112710 -0.009722333333333333 -0.736583
2099593641 -0.0061389999999999995 -0.7338796666666667
2101074572 -0.011292 -0.7303863333333332
2102555503 -0.010957333333333333 -0.7276913333333335
2104036434 -0.011320666666666666 -0.7299673333333333
2105517365 -0.008475333333333331 -0.7329049999999999
2106998296 -0.010275 -0.735801
2108479227 -0.011515 -0.7355383333333334
2109960158 -0.013428666666666667 -0.7391193333333332
2111441089 -0.013118666666666667 -0.7395366666666666
2112922020 -0.011433333333333332 -0.7398476666666666
2114402951 -0.023451666666666666 -0.7492276666666666
2115883882 -0.013197999999999998 -0.740875
2117364813 -0.012556666666666667 -0.7407993333333331
2118845744 -0.015325333333333333 -0.7406536666666665
2120326675 -0.014253999999999998 -0.7382106666666666
2121807606 -0.016515333333333333 -0.7411253333333333
2123288537 -0.010507333333333334 -0.738248
2124769468 -0.014747666666666666 -0.7365043333333332
2126250399 -0.014753333333333334 -0.733551
2127731330 -0.017737 -0.7317476666666667
2129212261 -0.014138999999999999 -0.7274376666666665
2130693192 -0.018939333333333332 -0.7270293333333333
2132174123 -0.017906 -0.723522
2133655054 -0.021878666666666664 -0.7222113333333333
2135135985 -0.020499666666666666 -0.724213
2136616916 -0.020568666666666666 -0.7291183333333333
2138097847 -0.021212666666666664 -0.731303
2139578778 -0.018772999999999998 -0.7309993333333332
2141059709 -0.021743666666666665 -0.7321203333333333
2142540640 -0.01894133333333333 -0.7340566666666666
2144021571 -0.020649333333333332 -0.734038
2145502502 -0.022852666666666667 -0.7362443333333333
2146983433 -0.022421666666666663 -0.7337346666666666
2148464364 -0.025988333333333336 -0.7299629999999999
2149945295 -0.018932333333333332 -0.7342549999999999
2151426226 -0.018531 -0.7321679999999999
2152907157 -0.023022666666666667 -0.7312293333333333
2154388088 -0.023019666666666667 -0.730321
2155869019 -0.01958666666666667 -0.7302736666666665
2157349950 -0.021448333333333333 -0.7258873333333332
2158830881 -0.021902666666666668 -0.723858
2160311812 -0.01941033333333333 -0.7183173333333333
2161792743 -0.022329666666666664 -0.715903
2163273674 -0.018891666666666668 -0.7150173333333332
2164754605 -0.020500333333333332 -0.7195276666666666
2166235536 -0.02278933333333333 -0.722428
2167716467 -0.024973666666666665 -0.7237516666666666
2169197398 -0.026131 -0.7260766666666667
2170678329 -0.02567033333333333 -0.7292203333333332
2172159260 -0.02751833333333333 -0.7303483333333333
2173640191 -0.026767000000000003 -0.7301536666666666
2175121122 -0.025580999999999996 -0.7328863333333332
2176602053 -0.03660066666666666 -0.7341516666666666
2178082984 -0.02704933333333333 -0.7335379999999999
2179563915 -0.026529 -0.7333773333333333
2181044846 -0.02858333333333333 -0.7322933333333334
2182525777 -0.028406999999999995 -0.730464
2184006708 -0.028266666666666666 -0.7316563333333332
2185487639 -0.02697433333333333 -0.7297096666666666
2186968570 -0.030224333333333332 -0.728434
2188449501 -0.029803999999999997 -0.7274339999999999
2189930432 -0.028884666666666663 -0.7247299999999999
2191411363 -0.028315 -0.7237356666666666
2192892294 -0.030560666666666667 -0.7203496666666666
2194373225 -0.027333999999999997 -0.7227266666666666
2195854156 -0.031865 -0.7261313333333332
2197335087 -0.0339 -0.7260676666666666
2198816018 -0.03170033333333333 -0.7292256666666665
2200296949 -0.034232 -0.728092
2201777880 -0.036634 -0.7319413333333333
2203258811 -0.03389166666666667 -0.732335
2204739742 -0.03111766666666666 -0.7337293333333333
2206220673 -0.033612 -0.7336206666666666
2207701604 -0.034145666666666664 -0.7340356666666668
2209182535 -0.030113 -0.7326836666666666
2210663466 -0.030663333333333334 -0.7318723333333335
2212144397 -0.02913933333333333 -0.731738
2213625328 -0.032125333333333325 -0.7290033333333332
2215106259 -0.03208866666666667 -0.7291123333333333
2216587190 -0.03529866666666666 -0.7222806666666666
2218068121 -0.031222666666666666 -0.7234780000000001
2219549052 -0.03597266666666667 -0.7209183333333332
2221029983 -0.028367666666666666 -0.7171003333333333
2222510914 -0.03724566666666666 -0.716216
2223991845 -0.02827933333333333 -0.719003
2225472776 -0.038258 -0.7197176666666666
2226953707 -0.030605 -0.7230570000000001
2228434638 -0.04005633333333333 -0.7247366666666666
2229915569 -0.032674999999999996 -0.7259823333333333
2231396500 -0.04238199999999999 -0.7244663333333332
2232877431 -0.034136 -0.7289456666666667
2234358362 -0.038536333333333325 -0.727252
2235839293 -0.03383699999999999 -0.7296969999999999
2237320224 -0.043417333333333336 -0.7281053333333333
2238801155 -0.035678 -0.73025
2240282086 -0.041895666666666664 -0.728576
2241763017 -0.034999666666666665 -0.7274039999999999
2243243948 -0.042517 -0.7254646666666666
2244724879 -0.035912999999999994 -0.726763
2246205810 -0.04207266666666666 -0.7234366666666667
2247686741 -0.04190433333333333 -0.724652
2249167672 -0.04481299999999999 -0.7191133333333333
2250648603 -0.034610666666666665 -0.718089
2252129534 -0.046112999999999994 -0.7152456666666667
2253610465 -0.039095 -0.7191443333333334
2255091396 -0.042388999999999996 -0.7170196666666666
2256572327 -0.04088033333333333 -0.7220693333333333
2258053258 -0.04115033333333333 -0.7250466666666666
2259534189 -0.0377 -0.72625
2261015120 -0.04578366666666667 -0.7239853333333334
2262496051 -0.03844966666666667 -0.7270239999999999
2263976982 -0.04242933333333333 -0.7285016666666666
2265457913 -0.03886099999999999 -0.7275746666666666
2266938844 -0.04055400000000001 -0.7264446666666666
2268419775 -0.043005666666666664 -0.725259
2269900706 -0.037136 -0.7240443333333333
2271381637 -0.05355233333333333 -0.7160253333333333
2272862568 -0.037958 -0.72495
2274343499 -0.038878666666666666 -0.7226629999999999
2275824430 -0.040367 -0.7231373333333333
2277305361 -0.04155933333333333 -0.7184206666666666
2278786292 -0.040047 -0.720107
2280267223 -0.03965966666666666 -0.7146536666666666
2281748154 -0.040109000000000006 -0.712745
2283229085 -0.03965266666666667 -0.7133016666666667
2284710016 -0.036030999999999994 -0.7148249999999999
2286190947 -0.042575 -0.7169773333333334
2287671878 -0.044139333333333336 -0.7157119999999999
2289152809 -0.034636 -0.717327
2290633740 -0.04306966666666666 -0.719712
2292114671 -0.040487333333333334 -0.7218013333333332
2293595602 -0.04144166666666666 -0.7216186666666667
2295076533 -0.043195 -0.7224809999999999
2296557464 -0.040573 -0.7218056666666667
2298038395 -0.04436366666666667 -0.723986
2299519326 -0.039499 -0.7213036666666667
2301000257 -0.040037666666666666 -0.72105
2302481188 -0.04330966666666667 -0.7209996666666667
2303962119 -0.05258666666666667 -0.71814
2305443050 -0.04521066666666666 -0.7183076666666667
2306923981 -0.04901266666666666 -0.714925
2308404912 -0.04518666666666666 -0.7162656666666667
2309885843 -0.041156 -0.7128676666666667
2311366774 -0.047098666666666664 -0.706063
2312847705 -0.047501 -0.7083963333333332
2314328636 -0.04749833333333334 -0.713434
2315809567 -0.049292 -0.717732
2317290498 -0.04710299999999999 -0.7172293333333333
2318771429 -0.048702999999999996 -0.7166439999999998
2320252360 -0.04434266666666667 -0.7177499999999999
2321733291 -0.047838 -0.719862
2323214222 -0.049774 -0.7205749999999999
2324695153 -0.04633333333333334 -0.7196583333333333
2326176084 -0.04627099999999999 -0.720745
2327657015 -0.04638799999999999 -0.7219490000000001
2329137946 -0.04941733333333333 -0.7210406666666667
2330618877 -0.05637199999999999 -0.7199913333333333
2332099808 -0.047529333333333326 -0.7190816666666666
2333580739 -0.05605833333333333 -0.7182673333333334
2335061670 -0.049948666666666655 -0.7146886666666665
2336542601 -0.07534933333333334 -0.681632
2338023532 -0.054447 -0.709723
2339504463 -0.05490266666666666 -0.7093919999999999
2340985394 -0.05436966666666666 -0.7090283333333334
2342466325 -0.057415 -0.7070053333333333
2343947256 -0.055117 -0.7070263333333333
2345428187 -0.053190666666666664 -0.7103039999999999
2346909118 -0.057736333333333334 -0.7132776666666667
2348390049 -0.05390433333333333 -0.7160786666666665
2349870980 -0.055876999999999996 -0.7175546666666667
2351351911 -0.05640133333333333 -0.7172346666666667
2352832842 -0.058033 -0.7221146666666667
2354313773 -0.061242 -0.7231973333333334
2355794704 -0.05961933333333333 -0.7223173333333334
2357275635 -0.059733666666666664 -0.7239073333333332
2358756566 -0.061937 -0.72411
2360237497 -0.060136 -0.7223986666666666
2361718428 -0.059400999999999995 -0.7202820000000001
2363199359 -0.06079966666666667 -0.7181233333333333
2364680290 -0.06569199999999999 -0.717976
2366161221 -0.06189800000000001 -0.7192606666666667
2367642152 -0.06285333333333333 -0.7114276666666666
2369123083 -0.06863666666666667 -0.714035
2370604014 -0.06815399999999999 -0.7101863333333333
2372084945 -0.060284000000000004 -0.7078289999999999
2373565876 -0.06671166666666667 -0.7106773333333334
2375046807 -0.06121633333333333 -0.7109573333333332
2376527738 -0.06720766666666667 -0.7158756666666666
2378008669 -0.06383033333333332 -0.7185433333333333
2379489600 -0.06619966666666666 -0.719772
2380970531 -0.07042566666666666 -0.7236876666666667
2382451462 -0.069745 -0.722584
2383932393 -0.06698 -0.7216383333333334
2385413324 -0.06517966666666666 -0.7221996666666666
2386894255 -0.06908166666666667 -0.7221029999999999
2388375186 -0.06551966666666667 -0.7254683333333333
2389856117 -0.070082 -0.7238443333333333
2391337048 -0.069656 -0.7231073333333333
2392817979 -0.06345133333333333 -0.7203643333333334
2394298910 -0.067047 -0.7179253333333333
2395779841 -0.06734266666666666 -0.7165053333333333
2397260772 -0.06963233333333332 -0.7144106666666667
2398741703 -0.07225233333333332 -0.7090356666666666
2400222634 -0.067061 -0.7051726666666666
2401703565 -0.06938333333333332 -0.704615
2403184496 -0.06951266666666667 -0.7072113333333334
2404665427 -0.07051299999999999 -0.7101433333333333
2406146358 -0.07016666666666667 -0.7140523333333333
2407627289 -0.07190033333333333 -0.713666
2409108220 -0.075207 -0.7145716666666667
2410589151 -0.070691 -0.7171136666666666
2412070082 -0.071934 -0.7168596666666667
2413551013 -0.072353 -0.7197553333333332
2415031944 -0.0731 -0.7183026666666665
2416512875 -0.07181466666666667 -0.7178303333333332
2417993806 -0.07176533333333333 -0.7188019999999998
2419474737 -0.07386333333333334 -0.7172499999999999
2420955668 -0.07475366666666666 -0.7186093333333333
2422436599 -0.07420466666666667 -0.716893
2423917530 -0.076024 -0.6849936666666665
2425398461 -0.07189899999999999 -0.7141983333333333
2426879392 -0.07137966666666667 -0.7093696666666667
2428360323 -0.07060933333333333 -0.7117423333333333
2429841254 -0.06843033333333333 -0.7044126666666666
2431322185 -0.07115333333333333 -0.7042593333333333
2432803116 -0.06903833333333333 -0.7021426666666667
2434284047 -0.07845633333333332 -0.7044156666666668
2435764978 -0.071728 -0.7089216666666666
2437245909 -0.07089366666666666 -0.7096053333333333
2438726840 -0.07161466666666666 -0.7121443333333333
2440207771 -0.07490233333333332 -0.7141033333333332
2441688702 -0.073409 -0.7143896666666667
2443169633 -0.07332133333333332 -0.7153006666666666
2444650564 -0.07964466666666667 -0.713679
2446131495 -0.07575533333333333 -0.7147743333333333
2447612426 -0.07830533333333334 -0.7156846666666665
2449093357 -0.074626 -0.713759
2450574288 -0.08422833333333332 -0.7152406666666666
2452055219 -0.08316399999999999 -0.710765
2453536150 -0.08005166666666666 -0.7077536666666666
2455017081 -0.08693666666666666 -0.7071026666666667
2456498012 -0.08450633333333332 -0.705033
2457978943 -0.08771866666666667 -0.7033066666666667
2459459874 -0.08659166666666665 -0.6992066666666666
2460940805 -0.08778933333333333 -0.6954593333333332
2462421736 -0.086267 -0.69445
2463902667 -0.08802633333333333 -0.6988443333333333
2465383598 -0.08473166666666666 -0.7007516666666667
2466864529 -0.08413666666666665 -0.7034720000000001
2468345460 -0.08402899999999999 -0.706591
2469826391 -0.08657566666666666 -0.7075899999999999
2471307322 -0.086484 -0.7080486666666667
2472788253 -0.08754633333333334 -0.7087983333333333
2474269184 -0.08379133333333333 -0.7114683333333334
2475750115 -0.08450433333333332 -0.710711
2477231046 -0.08187166666666666 -0.712074
2478711977 -0.08005833333333331 -0.709024
2480192908 -0.08232733333333332 -0.7112863333333334
2481673839 -0.079499 -0.70923
2483154770 -0.078185 -0.7083086666666667
2484635701 -0.07741566666666666 -0.7063786666666667
2486116632 -0.07876899999999999 -0.703803
2487597563 -0.076227 -0.6976976666666667
2489078494 -0.07578066666666666 -0.6997106666666666
2490559425 -0.07828633333333333 -0.6952846666666666
2492040356 -0.07481933333333332 -0.6931780000000001
2493521287 -0.07984833333333333 -0.6972573333333332
2495002218 -0.08138399999999998 -0.6978893333333334
2496483149 -0.07662066666666667 -0.6987156666666667
2497964080 -0.08027566666666666 -0.7014086666666666
2499445011 -0.08143399999999998 -0.7016276666666666
2500925942 -0.07955466666666666 -0.7016003333333334
2502406873 -0.08130199999999999 -0.7030779999999999
2503887804 -0.08233133333333333 -0.7040109999999999
2505368735 -0.08057866666666666 -0.7045269999999999
2506849666 -0.08328833333333333 -0.7056256666666665
2508330597 -0.080802 -0.7038466666666665
2509811528 -0.08136766666666667 -0.6998506666666666
2511292459 -0.083152 -0.7001216666666666
2512773390 -0.08413499999999999 -0.6992426666666667
2514254321 -0.08501366666666665 -0.6982023333333333
2515735252 -0.08586966666666665 -0.696021
2517216183 -0.08219566666666667 -0.6938276666666666
2518697114 -0.08650833333333333 -0.6896703333333334
2520178045 -0.090124 -0.6890826666666667
2521658976 -0.086845 -0.6829543333333332
2523139907 -0.08828066666666667 -0.687508
2524620838 -0.088551 -0.6912759999999999
2526101769 -0.09223066666666666 -0.6909226666666666
2527582700 -0.093281 -0.697165
2529063631 -0.09096533333333331 -0.6990046666666667
2530544562 -0.09408 -0.7036006666666667
2532025493 -0.09404366666666665 -0.701041
2533506424 -0.09507966666666667 -0.70418
2534987355 -0.09497833333333333 -0.7043986666666666
2536468286 -0.09915666666666667 -0.7067256666666666
2537949217 -0.09905199999999999 -0.7051053333333333
2539430148 -0.09979066666666665 -0.7076406666666666
2540911079 -0.10185033333333332 -0.7044626666666667
2542392010 -0.09855866666666666 -0.7071153333333333
2543872941 -0.09831333333333332 -0.7080803333333333
2545353872 -0.09849033333333332 -0.7055929999999999
2546834803 -0.09937033333333334 -0.7063729999999999
2548315734 -0.10062299999999999 -0.7066736666666666
2549796665 -0.098037 -0.7034349999999999
2551277596 -0.10419400000000001 -0.6991633333333334
2552758527 -0.09958966666666666 -0.7034386666666667
2554239458 -0.10013033333333332 -0.7057879999999999
2555720389 -0.09820866666666667 -0.7061769999999999
2557201320 -0.10064566666666666 -0.710378
2558682251 -0.09749966666666665 -0.7105843333333333
2560163182 -0.10019166666666668 -0.7156543333333333
2561644113 -0.10026566666666666 -0.7130139999999999
2563125044 -0.10333566666666667 -0.7113973333333333
2564605975 -0.09729266666666667 -0.7103773333333333
2566086906 -0.10208033333333333 -0.7098610000000001
2567567837 -0.09855 -0.7084966666666667
2569048768 -0.10215266666666667 -0.7079526666666667
2570529699 -0.09528666666666666 -0.7106146666666666
2572010630 -0.09539900000000001 -0.7093966666666667
2573491561 -0.09575933333333332 -0.7087416666666666
2574972492 -0.10126966666666666 -0.7055596666666666
2576453423 -0.09421366666666667 -0.7037243333333333
2577934354 -0.09710999999999999 -0.69855
2579415285 -0.09524766666666667 -0.6981753333333334
2580896216 -0.10074466666666666 -0.6933126666666666
2582377147 -0.09376966666666667 -0.6915606666666667
2583858078 -0.09552933333333331 -0.6948393333333334
2585339009 -0.09951466666666665 -0.6957646666666666
2586819940 -0.09667933333333334 -0.6973509999999999
2588300871 -0.09634433333333332 -0.7010646666666667
2589781802 -0.09915633333333332 -0.6992463333333334
2591262733 -0.09812 -0.7028296666666667
2592743664 -0.098118 -0.7024469999999999
2594224595 -0.09349566666666666 -0.7018816666666666
2595705526 -0.092619 -0.7002363333333333
2597186457 -0.09537033333333333 -0.6998893333333333
2598667388 -0.09816833333333333 -0.6980203333333332
2600148319 -0.09562899999999999 -0.6967016666666666
2601629250 -0.099512 -0.6949863333333333
2603110181 -0.09960733333333334 -0.6923170000000001
2604591112 -0.09528166666666667 -0.6901133333333332
2606072043 -0.09659366666666666 -0.6880966666666667
2607552974 -0.09764933333333334 -0.6869053333333334
2609033905 -0.10048499999999999 -0.6827206666666666
2610514836 -0.09948166666666666 -0.6793553333333332
2611995767 -0.10381133333333332 -0.6782130000000001
2613476698 -0.101167 -0.6801119999999999
2614957629 -0.10135633333333334 -0.6846343333333333
2616438560 -0.09849 -0.6865733333333333
2617919491 -0.09856833333333333 -0.6913306666666665
2619400422 -0.10603699999999999 -0.6882380000000001
2620881353 -0.09989033333333332 -0.6872566666666666
2622362284 -0.10585066666666666 -0.6848893333333332
2623843215 -0.10172333333333333 -0.6901553333333333
2625324146 -0.10047099999999999 -0.6938466666666666
2626805077 -0.10810533333333334 -0.6851186666666665
2628286008 -0.09952466666666666 -0.69024
2629766939 -0.10458233333333333 -0.6890506666666667
2631247870 -0.10517166666666666 -0.6875353333333332
2632728801 -0.10437666666666665 -0.6927339999999998
2634209732 -0.10497166666666666 -0.686009
2635690663 -0.10447833333333334 -0.686169
2637171594 -0.10952833333333334 -0.6848013333333333
2638652525 -0.106305 -0.6810196666666666
2640133456 -0.10790566666666668 -0.679408
2641614387 -0.10714566666666667 -0.6762626666666667
2643095318 -0.11072066666666665 -0.6815163333333333
2644576249 -0.11172499999999999 -0.6818903333333333
2646057180 -0.11208133333333332 -0.6842066666666666
2647538111 -0.11307166666666665 -0.6852013333333333
2649019042 -0.11278866666666666 -0.6893546666666666
2650499973 -0.11094366666666666 -0.6918713333333334
2651980904 -0.11435666666666666 -0.6914886666666666
2653461835 -0.11157866666666667 -0.6945366666666667
2654942766 -0.10749433333333332 -0.6948423333333333
2656423697 -0.11172699999999999 -0.6956706666666667
2657904628 -0.10929366666666665 -0.6958909999999998
2659385559 -0.11311600000000001 -0.6928383333333332
2660866490 -0.10686633333333331 -0.6974366666666666
2662347421 -0.10709233333333334 -0.6926646666666666
2663828352 -0.111523 -0.6926549999999999
2665309283 -0.106012 -0.6936609999999999
2666790214 -0.11106666666666666 -0.6904779999999999
2668271145 -0.10917966666666667 -0.68896
2669752076 -0.11287466666666665 -0.6827086666666666
2671233007 -0.11027899999999999 -0.6847986666666667
2672713938 -0.11042866666666665 -0.6869759999999998
2674194869 -0.10811233333333332 -0.6883893333333333
2675675800 -0.105543 -0.6939256666666667
2677156731 -0.11355233333333332 -0.6932396666666666
2678637662 -0.10887566666666666 -0.6979813333333333
2680118593 -0.107098 -0.702045
2681599524 -0.104874 -0.6988496666666666
2683080455 -0.09679499999999999 -0.7009166666666666
2684561386 -0.10127966666666666 -0.7024290000000001
2686042317 -0.099431 -0.6998503333333332
2687523248 -0.09969166666666665 -0.6987763333333332
2689004179 -0.09077766666666666 -0.69916
2690485110 -0.09805666666666665 -0.6993886666666667
2691966041 -0.09225866666666667 -0.6976829999999998
2693446972 -0.091191 -0.6936126666666667
2694927903 -0.09795566666666666 -0.6911753333333334
2696408834 -0.09774766666666665 -0.6897813333333334
2697889765 -0.09426399999999999 -0.686248
2699370696 -0.09203033333333333 -0.6833089999999999
2700851627 -0.08930033333333333 -0.682352
2702332558 -0.09879966666666665 -0.6804256666666666
2703813489 -0.09212599999999999 -0.6841883333333333
2705294420 -0.097101 -0.6845703333333333
2706775351 -0.09961466666666666 -0.6845456666666667
2708256282 -0.09759899999999999 -0.6906323333333333
2709737213 -0.09608666666666667 -0.6917929999999999
2711218144 -0.095622 -0.688242
2712699075 -0.10021966666666667 -0.6882613333333333
2714180006 -0.10020966666666667 -0.6936163333333332
2715660937 -0.09905266666666668 -0.6914066666666666
2717141868 -0.103089 -0.6931783333333332
2718622799 -0.104396 -0.6886783333333334
2720103730 -0.09530166666666667 -0.723413
2721584661 -0.099491 -0.6904683333333332
2723065592 -0.10523866666666666 -0.691508
2724546523 -0.11115933333333333 -0.684487
2726027454 -0.10472300000000001 -0.6844166666666666
2727508385 -0.11172166666666666 -0.6823883333333334
2728989316 -0.11334933333333333 -0.6764046666666667
2730470247 -0.11396133333333332 -0.6756166666666666
2731951178 -0.11233866666666666 -0.6731373333333333
2733432109 -0.11356766666666668 -0.6800206666666666
2734913040 -0.11901633333333334 -0.6830653333333332
2736393971 -0.11327566666666666 -0.6814830000000001
2737874902 -0.11397299999999999 -0.6868293333333334
2739355833 -0.11945866666666667 -0.683477
2740836764 -0.11617666666666666 -0.686509
2742317695 -0.11394699999999999 -0.6908329999999998
2743798626 -0.11375366666666666 -0.6874763333333332
2745279557 -0.11866033333333333 -0.6871166666666666
2746760488 -0.12040333333333333 -0.68753
2748241419 -0.12416666666666666 -0.690174
2749722350 -0.12099433333333333 -0.6915796666666667
2751203281 -0.12591 -0.6903166666666666
2752684212 -0.12109733333333333 -0.6873433333333333
2754165143 -0.12695666666666663 -0.6893846666666665
2755646074 -0.123316 -0.6851839999999998
2757127005 -0.11359 -0.6818916666666667
2758607936 -0.11964133333333334 -0.6783566666666667
2760088867 -0.12214399999999999 -0.6759023333333333
2761569798 -0.11859466666666665 -0.6797046666666665
2763050729 -0.11984799999999998 -0.6781123333333332
2764531660 -0.12158433333333332 -0.6856119999999999
2766012591 -0.12226066666666666 -0.6886583333333333
2767493522 -0.11943433333333332 -0.6852986666666667
2768974453 -0.12015100000000001 -0.692164
2770455384 -0.11459033333333335 -0.6915339999999999
2771936315 -0.11816633333333333 -0.6943206666666667
2773417246 -0.09195700000000001 -0.6848923333333332
2774898177 -0.122399 -0.6950903333333331
2776379108 -0.11901866666666666 -0.6917426666666666
2777860039 -0.11643700000000001 -0.6921536666666667
2779340970 -0.11373066666666667 -0.6936626666666666
2780821901 -0.11417499999999998 -0.688599
2782302832 -0.11439633333333332 -0.6881566666666666
2783783763 -0.11232500000000001 -0.6884363333333333
2785264694 -0.114783 -0.6862806666666668
2786745625 -0.11103366666666666 -0.680453
2788226556 -0.11364199999999998 -0.6807133333333334
2789707487 -0.11058766666666667 -0.674283
2791188418 -0.11104100000000001 -0.6738796666666668
2792669349 -0.10711499999999999 -0.6743426666666666
2794150280 -0.11746466666666666 -0.6777366666666668
2795631211 -0.11325833333333332 -0.6824486666666667
2797112142 -0.11452833333333334 -0.6816923333333333
2798593073 -0.11607133333333333 -0.6821053333333333
2800074004 -0.11855733333333332 -0.689434
2801554935 -0.11657633333333334 -0.6858740000000001
2803035866 -0.11999299999999999 -0.6848546666666666
2804516797 -0.11566033333333332 -0.688013
2805997728 -0.12023433333333333 -0.6902226666666667
2807478659 -0.12003766666666667 -0.6877526666666667
2808959590 -0.11535399999999998 -0.6887673333333333
2810440521 -0.11605333333333334 -0.6853106666666666
2811921452 -0.11400899999999999 -0.6867886666666667
2813402383 -0.11539666666666666 -0.6875579999999999
2814883314 -0.12126899999999999 -0.683654
2816364245 -0.11564533333333334 -0.6783896666666666
2817845176 -0.12131366666666667 -0.6795046666666666
2819326107 -0.11300066666666667 -0.6745306666666666
2820807038 -0.11553033333333332 -0.678673
2822287969 -0.11917066666666666 -0.6780146666666665
2823768900 -0.118554 -0.6838810000000001
2825249831 -0.121836 -0.6809213333333333
2826730762 -0.12012166666666665 -0.684714
2828211693 -0.12135066666666668 -0.6872583333333333
2829692624 -0.12298500000000001 -0.6883463333333333
2831173555 -0.11618666666666666 -0.6889816666666666
2832654486 -0.11816199999999999 -0.6937453333333332
2834135417 -0.121925 -0.6906610000000001
2835616348 -0.11819066666666667 -0.6872066666666666
2837097279 -0.12217033333333333 -0.6915023333333332
2838578210 -0.12315133333333333 -0.6924569999999999
2840059141 -0.122171 -0.6877416666666667
2841540072 -0.11985133333333332 -0.6851743333333333
2843021003 -0.12110066666666666 -0.6865009999999999
2844501934 -0.11729433333333333 -0.6848163333333332
2845982865 -0.11805 -0.680739
2847463796 -0.12134933333333332 -0.6786453333333333
2848944727 -0.11721 -0.6778343333333333
2850425658 -0.12013966666666667 -0.6710396666666667
2851906589 -0.122029 -0.6710343333333333
2853387520 -0.11923299999999999 -0.6726386666666666
2854868451 -0.11969166666666665 -0.6788013333333334
2856349382 -0.12247033333333332 -0.6762593333333333
2857830313 -0.11911633333333334 -0.6772233333333333
2859311244 -0.12123399999999998 -0.6788593333333333
2860792175 -0.11850966666666665 -0.6842103333333333
2862273106 -0.12259433333333333 -0.6814703333333334
2863754037 -0.12318433333333334 -0.6814436666666667
2865234968 -0.12556666666666666 -0.6819916666666666
2866715899 -0.12257499999999999 -0.6784386666666666
2868196830 -0.124535 -0.6742636666666666
2869677761 -0.11457766666666666 -0.657054
2871158692 -0.12443566666666667 -0.6765889999999999
2872639623 -0.1259953333333333 -0.6698689999999999
2874120554 -0.12602533333333332 -0.6691953333333333
2875601485 -0.12427666666666666 -0.6668553333333334
2877082416 -0.12473800000000002 -0.6615053333333334
2878563347 -0.1278183333333333 -0.6611383333333334
2880044278 -0.125517 -0.6586829999999999
2881525209 -0.128431 -0.6593209999999999
2883006140 -0.12659566666666666 -0.6633006666666666
2884487071 -0.1270903333333333 -0.6635070000000001
2885968002 -0.13099833333333333 -0.6669579999999999
2887448933 -0.12739133333333333 -0.6718033333333333
2888929864 -0.12877999999999998 -0.6699746666666666
2890410795 -0.12706733333333334 -0.6742743333333332
2891891726 -0.129539 -0.6753126666666667
2893372657 -0.12719066666666667 -0.6765203333333334
2894853588 -0.124784 -0.6762613333333333
2896334519 -0.12939666666666666 -0.6764263333333332
2897815450 -0.12789766666666663 -0.6758460000000001
2899296381 -0.12405166666666667 -0.6786153333333333
2900777312 -0.122274 -0.6765893333333333
2902258243 -0.12694966666666666 -0.6750406666666666
2903739174 -0.1262273333333333 -0.6748233333333333
2905220105 -0.12311866666666667 -0.6723399999999999
2906701036 -0.12234999999999999 -0.6687186666666666
2908181967 -0.122004 -0.6701966666666667
2909662898 -0.120841 -0.6670029999999999
2911143829 -0.12145233333333333 -0.6698083333333333
2912624760 -0.12332766666666667 -0.6696963333333332
2914105691 -0.12214033333333332 -0.6715083333333333
2915586622 -0.12306866666666667 -0.6729646666666667
2917067553 -0.12337433333333334 -0.6759919999999999
2918548484 -0.12582933333333332 -0.6760403333333334
2920029415 -0.1253433333333333 -0.67211
2921510346 -0.12633399999999997 -0.675786
2922991277 -0.12955866666666666 -0.6713229999999999
2924472208 -0.12637933333333332 -0.6645886666666666
2925953139 -0.13008566666666666 -0.6741919999999999
2927434070 -0.13000133333333333 -0.6723163333333333
2928915001 -0.13303133333333333 -0.6693076666666666
2930395932 -0.13057766666666665 -0.6686799999999999
2931876863 -0.1304213333333333 -0.6703576666666666
2933357794 -0.13370666666666667 -0.6667656666666666
2934838725 -0.13599866666666666 -0.6640156666666666
2936319656 -0.136069 -0.6609153333333333
2937800587 -0.13729933333333333 -0.6582093333333333
2939281518 -0.135327 -0.6572819999999999
2940762449 -0.13780366666666666 -0.6580169999999999
2942243380 -0.14018566666666665 -0.6567379999999999
2943724311 -0.14172433333333334 -0.6609716666666665
2945205242 -0.139494 -0.6630513333333333
2946686173 -0.139676 -0.662403
2948167104 -0.14044299999999998 -0.6649833333333333
2949648035 -0.14298666666666665 -0.664739
2951128966 -0.134374 -0.6673296666666666
2952609897 -0.139659 -0.667891
2954090828 -0.13780933333333334 -0.6704659999999999
2955571759 -0.13672633333333334 -0.6694269999999999
2957052690 -0.13804666666666668 -0.6670909999999999
2958533621 -0.13625299999999999 -0.6660839999999999
2960014552 -0.13371099999999997 -0.6641553333333333
2961495483 -0.138576 -0.6611416666666666
2962976414 -0.13331033333333334 -0.6587983333333334
2964457345 -0.13237833333333332 -0.6588353333333333
2965938276 -0.13430466666666666 -0.6584673333333333
2967419207 -0.135098 -0.6540426666666666
2968900138 -0.13333999999999996 -0.6518449999999999
2970381069 -0.13021699999999997 -0.6442359999999999
2971862000 -0.131021 -0.6533646666666666
2973342931 -0.13543666666666668 -0.6533169999999999
2974823862 -0.13470466666666664 -0.6563039999999999
2976304793 -0.140339 -0.6555343333333333
2977785724 -0.13252066666666665 -0.6622723333333332
2979266655 -0.13592300000000002 -0.6592009999999999
2980747586 -0.13423833333333332 -0.6634503333333333
2982228517 -0.13546199999999997 -0.6586986666666667
2983709448 -0.13658766666666666 -0.6614289999999999
2985190379 -0.13395533333333332 -0.665729
2986671310 -0.13694033333333333 -0.6615086666666666
2988152241 -0.13259766666666664 -0.6628656666666666
2989633172 -0.13225599999999998 -0.6617973333333333
2991114103 -0.133398 -0.657049
2992595034 -0.13117766666666664 -0.6591626666666667
2994075965 -0.131548 -0.6540239999999999
2995556896 -0.13101833333333335 -0.6532833333333332
2997037827 -0.132464 -0.6503816666666666
2998518758 -0.13184600000000002 -0.6524613333333333
2999999689 -0.13258566666666666 -0.6454126666666667
