# HZ S RI R 50
10000000 0.41314733333333337 -0.012451333333333332
11480931 0.4135853333333333 -0.013990666666666667
12961862 0.41423866666666664 -0.014553
14442793 0.41437599999999997 -0.015594333333333332
15923724 0.4155683333333333 -0.017577
17404655 0.41561866666666664 -0.01815766666666667
18885586 0.416636 -0.019738
20366517 0.4163296666666666 -0.020859666666666665
21847448 0.41638733333333333 -0.021757666666666665
23328379 0.41724300000000003 -0.02263133333333333
24809310 0.4164043333333334 -0.02295033333333333
26290241 0.41726166666666664 -0.024612000000000002
27771172 0.41666600000000004 -0.025057666666666662
29252103 0.43210899999999997 -0.015346
30733034 0.41470199999999996 -0.02798133333333333
32213965 0.41489466666666663 -0.029258666666666662
33694896 0.41400400000000004 -0.029254000000000002
35175827 0.41367966666666667 -0.02301333333333333
36656758 0.4119236666666667 -0.03446733333333333
38137689 0.41040866666666664 -0.031266999999999996
39618620 0.40877600000000003 -0.03184066666666666
41099551 0.4103556666666666 -0.030307333333333332
42580482 0.4114753333333333 -0.034798333333333334
44061413 0.411376 -0.04385499999999999
45542344 0.413586 -0.032639666666666664
47023275 0.41471 -0.03871233333333333
48504206 0.41582033333333335 -0.029025333333333334
49985137 0.414114 -0.04048966666666667
51466068 0.4151566666666667 -0.044134999999999994
52946999 0.4148693333333333 -0.04806533333333333
54427930 0.4153876666666667 -0.046468999999999996
55908861 0.416895 -0.041755999999999995
57389792 0.4174013333333333 -0.03801533333333333
58870723 0.414859 -0.05083833333333333
60351654 0.415379 -0.04383133333333333
61832585 0.41503066666666666 -0.04473566666666666
63313516 0.413176 -0.046720333333333336
64794447 0.4121493333333333 -0.046030666666666664
66275378 0.4078886666666666 -0.061335
67756309 0.4054946666666666 -0.06594033333333332
69237240 0.40814966666666663 -0.048594
70718171 0.40978899999999996 -0.038713
72199102 0.40311499999999995 -0.07707633333333333
73680033 0.4106333333333333 -0.05244633333333333
75160964 0.4157956666666667 -0.025242
76641895 0.41208433333333333 -0.05434599999999999
78122826 0.41296599999999994 -0.055914
79603757 0.4184386666666667 -0.030219
81084688 0.421276 -0.006952333333333333
82565619 0.41447966666666664 -0.056361
84046550 0.414373 -0.06025033333333333
85527481 0.4109206666666666 -0.07351033333333332
87008412 0.413636 -0.06166433333333333
88489343 0.410987 -0.07203466666666666
89970274 0.4107223333333333 -0.070502
91451205 0.41195999999999994 -0.06453866666666666
92932136 0.409862 -0.06871666666666666
94413067 0.4104823333333333 -0.05983999999999999
95893998 0.4084273333333333 -0.06651966666666666
97374929 0.40701566666666666 -0.06580933333333333
98855860 0.40487933333333326 -0.06706133333333332
100336791 0.4050846666666666 -0.06884199999999999
101817722 0.4056666666666667 -0.07136766666666666
103298653 0.40747199999999995 -0.072252
104779584 0.4090533333333333 -0.07260833333333333
106260515 0.409872 -0.07402966666666666
107741446 0.4105293333333333 -0.07545299999999999
109222377 0.411203 -0.075666
110703308 0.41193100000000005 -0.07734533333333334
112184239 0.41145233333333336 -0.07815433333333333
113665170 0.41153400000000007 -0.07885033333333333
115146101 0.41146533333333335 -0.07928199999999999
116627032 0.4127653333333333 -0.08047966666666667
118107963 0.41171633333333335 -0.08042633333333334
119588894 0.4104923333333333 -0.08185166666666667
121069825 0.40961566666666666 -0.081899
122550756 0.40957599999999994 -0.08291899999999999
124031687 0.40797633333333333 -0.08304666666666667
125512618 0.40675533333333336 -0.083288
126993549 0.404976 -0.08513499999999999
128474480 0.4038076666666667 -0.08568733333333334
129955411 0.4023143333333333 -0.08586733333333332
131436342 0.40482766666666664 -0.08748
132917273 0.40570633333333334 -0.08897233333333333
134398204 0.40753466666666666 -0.09095533333333333
135879135 0.40244100000000005 -0.09333833333333333
137360066 0.4034603333333333 -0.09498266666666666
138840997 0.4044283333333333 -0.09556566666666666
140321928 0.40519233333333327 -0.09641433333333332
141802859 0.40571466666666667 -0.09754566666666667
143283790 0.4064553333333333 -0.09847133333333333
144764721 0.4067316666666666 -0.09927666666666665
146245652 0.4065033333333333 -0.0998083333333333
147726583 0.406319 -0.10056833333333333
149207514 0.406005 -0.10085833333333334
150688445 0.4056046666666666 -0.10192366666666666
152169376 0.40534666666666663 -0.10214433333333331
153650307 0.40388333333333337 -0.103305
155131238 0.403362 -0.10335833333333333
156612169 0.40190333333333333 -0.10393533333333334
158093100 0.4000566666666666 -0.10459466666666667
159574031 0.39854066666666665 -0.10454833333333333
161054962 0.39942500000000003 -0.106489
162535893 0.4012173333333333 -0.107622
164016824 0.402246 -0.10915899999999998
165497755 0.40317366666666665 -0.11025866666666667
166978686 0.40469866666666665 -0.11094966666666667
168459617 0.40432733333333326 -0.11217033333333333
169940548 0.40540766666666667 -0.113151
171421479 0.40535566666666667 -0.11412166666666668
172902410 0.4059216666666666 -0.11484799999999998
174383341 0.4060073333333333 -0.11565066666666665
175864272 0.40578766666666666 -0.115807
177345203 0.40374833333333326 -0.11920699999999998
178826134 0.40390966666666667 -0.11791499999999999
180307065 0.40238699999999994 -0.12045166666666665
181787996 0.4021426666666666 -0.11854533333333334
183268927 0.400829 -0.12017266666666666
184749858 0.39956400000000003 -0.12007666666666666
186230789 0.39791033333333337 -0.12080833333333332
187711720 0.39610666666666666 -0.12159166666666665
189192651 0.3942013333333333 -0.12198533333333333
190673582 0.3951793333333333 -0.12397766666666667
192154513 0.3963446666666666 -0.12531499999999998
193635444 0.39877866666666667 -0.12658933333333333
195116375 0.4013586666666667 -0.123609
196597306 0.39940699999999996 -0.12895366666666666
198078237 0.40037700000000004 -0.1299803333333333
199559168 0.40106099999999995 -0.13113566666666665
201040099 0.40092533333333336 -0.132041
202521030 0.40115766666666663 -0.13245366666666664
204001961 0.400777 -0.13315566666666667
205482892 0.4002633333333333 -0.13399666666666665
206963823 0.40044099999999994 -0.13532866666666665
208444754 0.4001433333333333 -0.135312
209925685 0.3991133333333333 -0.13592866666666667
211406616 0.3979086666666667 -0.136324
212887547 0.3968663333333333 -0.1376413333333333
214368478 0.3954396666666667 -0.138115
215849409 0.393575 -0.13914100000000001
217330340 0.3916556666666667 -0.139279
218811271 0.3895263333333333 -0.14024599999999998
220292202 0.39030966666666667 -0.14129099999999997
221773133 0.3913993333333333 -0.1428573333333333
223254064 0.39272700000000005 -0.14450166666666664
224734995 0.39375699999999997 -0.14556366666666667
226215926 0.3949096666666667 -0.14657299999999998
227696857 0.39512099999999994 -0.148061
229177788 0.3961193333333333 -0.14891633333333332
230658719 0.3964203333333334 -0.15041533333333335
232139650 0.39630799999999994 -0.15126333333333333
233620581 0.3936613333333333 -0.15604033333333334
235101512 0.39642066666666664 -0.15220766666666666
236582443 0.39582966666666664 -0.15344999999999998
238063374 0.395047 -0.15399766666666664
239544305 0.3945363333333334 -0.1543223333333333
241025236 0.3929923333333333 -0.15499266666666667
242506167 0.3922796666666667 -0.15544866666666665
243987098 0.39038699999999993 -0.156247
245468029 0.3894356666666666 -0.15662766666666664
246948960 0.3868446666666667 -0.15744133333333332
248429891 0.3850166666666666 -0.157652
249910822 0.3849876666666666 -0.15888433333333332
251391753 0.3863983333333333 -0.16110966666666665
252872684 0.387331 -0.1622783333333333
254353615 0.3889803333333333 -0.16372133333333333
255834546 0.38804266666666665 -0.1669723333333333
257315477 0.390029 -0.16642133333333334
258796408 0.38982433333333333 -0.1688673333333333
260277339 0.39216199999999996 -0.16632333333333332
261758270 0.39002633333333336 -0.17183666666666664
263239201 0.392659 -0.16771133333333332
264720132 0.389672 -0.17360333333333333
266201063 0.39212933333333333 -0.169569
267681994 0.3889616666666667 -0.17469333333333337
269162925 0.39047733333333334 -0.17062533333333332
270643856 0.3868193333333333 -0.17581466666666667
272124787 0.38828166666666664 -0.1718253333333333
273605718 0.3842979999999999 -0.17664833333333332
275086649 0.3851536666666666 -0.17226599999999997
276567580 0.3809796666666666 -0.17756266666666667
278048511 0.38155933333333336 -0.173565
279529442 0.377823 -0.1790673333333333
281010373 0.3814456666666667 -0.17616733333333334
282491304 0.38039 -0.18291033333333334
283972235 0.3838436666666666 -0.17996099999999998
285453166 0.3824003333333333 -0.18579033333333334
286934097 0.3857193333333333 -0.1825716666666667
288415028 0.383511 -0.18779966666666664
289895959 0.387125 -0.18492333333333333
291376890 0.3835663333333333 -0.1903183333333333
292857821 0.38687933333333335 -0.18666766666666668
294338752 0.38435699999999995 -0.191294
295819683 0.38603433333333326 -0.18822699999999998
297300614 0.3827133333333333 -0.19364166666666666
298781545 0.38437699999999997 -0.1894286666666667
300262476 0.38103566666666666 -0.19415699999999997
301743407 0.38272699999999993 -0.19004133333333334
303224338 0.37993299999999997 -0.19276466666666664
304705269 0.37830366666666665 -0.193029
306186200 0.3760516666666667 -0.19298833333333332
307667131 0.3747046666666667 -0.1935353333333333
309148062 0.3721946666666667 -0.19369033333333333
310628993 0.3741633333333333 -0.19543666666666665
312109924 0.3747563333333333 -0.19826100000000002
313590855 0.37602566666666665 -0.1992253333333333
315071786 0.3771056666666666 -0.20053266666666664
316552717 0.377843 -0.20149266666666668
318033648 0.3789863333333333 -0.20264766666666667
319514579 0.37892 -0.20423966666666665
320995510 0.37971333333333335 -0.20580933333333332
322476441 0.3796343333333333 -0.20676466666666665
323957372 0.37936166666666665 -0.207761
325438303 0.3793563333333333 -0.20798033333333332
326919234 0.3782723333333333 -0.20919099999999996
328400165 0.37709533333333334 -0.20909066666666667
329881096 0.3765503333333333 -0.20947433333333332
331362027 0.376256 -0.20961866666666665
332842958 0.37522433333333327 -0.20947833333333332
334323889 0.37343 -0.21016666666666667
335804820 0.3713316666666666 -0.21134733333333333
337285751 0.36963233333333334 -0.21083733333333332
338766682 0.36796566666666664 -0.21047033333333331
340247613 0.36828299999999997 -0.21269699999999997
341728544 0.37007966666666664 -0.21452133333333334
343209475 0.3699326666666667 -0.21693366666666664
344690406 0.37035399999999996 -0.21820966666666666
346171337 0.3716703333333333 -0.21958633333333333
347652268 0.372425 -0.220763
349133199 0.3722216666666667 -0.22183633333333333
350614130 0.372711 -0.22323066666666663
352095061 0.372191 -0.22495099999999996
353575992 0.3725306666666667 -0.22535866666666665
355056923 0.37224599999999997 -0.22513899999999998
356537854 0.3716713333333333 -0.226247
358018785 0.3705223333333333 -0.226427
359499716 0.3701173333333333 -0.22704666666666665
360980647 0.3689536666666666 -0.22776333333333332
362461578 0.3672606666666667 -0.22782033333333332
363942509 0.368914 -0.22472733333333333
365423440 0.36409566666666665 -0.22808333333333333
366904371 0.36220433333333335 -0.22774866666666665
368385302 0.3601376666666667 -0.22794899999999998
369866233 0.3595623333333333 -0.22955666666666666
371347164 0.3605236666666667 -0.23152599999999995
372828095 0.36260766666666666 -0.23343799999999998
374309026 0.362313 -0.23481533333333332
375789957 0.36360766666666666 -0.23623699999999997
377270888 0.3639216666666667 -0.238284
378751819 0.3648349999999999 -0.238491
380232750 0.36473033333333327 -0.24045266666666665
381713681 0.3642696666666666 -0.24102733333333332
383194612 0.36446599999999996 -0.24205266666666664
384675543 0.36412 -0.24230200000000002
386156474 0.36376866666666663 -0.24270999999999998
387637405 0.36264933333333327 -0.24393366666666663
389118336 0.36179966666666663 -0.24334233333333333
390599267 0.3610253333333333 -0.24396600000000002
392080198 0.3614843333333333 -0.24188133333333334
393561129 0.3580176666666666 -0.24391600000000002
395042060 0.35671733333333333 -0.2440113333333333
396522991 0.35495299999999996 -0.243711
398003922 0.3533876666666667 -0.2434953333333333
399484853 0.3526563333333333 -0.245019
400965784 0.35363 -0.24727
402446715 0.35464166666666663 -0.24881733333333333
403927646 0.3552916666666667 -0.250372
405408577 0.35598533333333326 -0.252268
406889508 0.35602633333333333 -0.2534696666666667
408370439 0.35607599999999995 -0.2545226666666667
409851370 0.35693033333333335 -0.2564206666666667
411332301 0.35733266666666663 -0.25631566666666666
412813232 0.35675100000000004 -0.258026
414294163 0.35652399999999995 -0.25875099999999995
415775094 0.35572566666666666 -0.2586016666666666
417256025 0.35575433333333334 -0.25948066666666664
418736956 0.35479700000000003 -0.260289
420217887 0.3529563333333333 -0.25984433333333334
421698818 0.35194400000000003 -0.260306
423179749 0.35129199999999994 -0.25964166666666666
424660680 0.3497486666666667 -0.2603236666666666
426141611 0.3480696666666666 -0.26001599999999997
427622542 0.34705733333333333 -0.26020833333333326
429103473 0.3449756666666667 -0.25955966666666663
430584404 0.34574333333333335 -0.26206766666666664
432065335 0.346913 -0.26495633333333335
433546266 0.34768066666666664 -0.265812
435027197 0.34798533333333337 -0.26694699999999993
436508128 0.3484223333333333 -0.268603
437989059 0.34943833333333335 -0.2697233333333333
439469990 0.34875366666666663 -0.2707443333333333
440950921 0.3490306666666666 -0.27215899999999993
442431852 0.34943166666666664 -0.27310799999999996
443912783 0.34857866666666665 -0.27357966666666667
445393714 0.34854399999999996 -0.27414266666666665
446874645 0.347162 -0.27402466666666664
448355576 0.3463826666666666 -0.274624
449836507 0.346487 -0.27411766666666665
451317438 0.3443466666666667 -0.27507933333333334
452798369 0.34363866666666665 -0.2739506666666667
454279300 0.342028 -0.274528
455760231 0.339513 -0.2742523333333333
457241162 0.33814900000000003 -0.2740626666666666
458722093 0.33587100000000003 -0.27352833333333326
460203024 0.339637 -0.27405100000000004
461683955 0.33667566666666665 -0.27946499999999996
463164886 0.3411276666666666 -0.278111
464645817 0.337774 -0.2837273333333333
466126748 0.3424213333333333 -0.2806893333333333
467607679 0.3388399999999999 -0.2859696666666666
469088610 0.3426963333333333 -0.2837883333333333
470569541 0.33893966666666664 -0.28799
472050472 0.34268499999999996 -0.2867203333333333
473531403 0.33821199999999996 -0.2902563333333333
475012334 0.34270333333333336 -0.2868196666666666
476493265 0.3378116666666666 -0.29138699999999995
477974196 0.3410263333333333 -0.2866753333333333
479455127 0.3409466666666666 -0.28784966666666667
480936058 0.3388696666666666 -0.28773899999999997
482416989 0.338746 -0.28778799999999993
483897920 0.336549 -0.2877753333333333
485378851 0.33458299999999996 -0.2878596666666667
486859782 0.33341266666666663 -0.286801
488340713 0.3121643333333333 -0.27870566666666663
489821644 0.33273299999999995 -0.28886866666666666
491302575 0.333277 -0.29038333333333327
492783506 0.3379456666666667 -0.289053
494264437 0.3326363333333333 -0.29561666666666664
495745368 0.33271233333333333 -0.29749866666666663
497226299 0.3330836666666666 -0.2984633333333333
498707230 0.333424 -0.3002436666666667
500188161 0.33307966666666666 -0.30097599999999997
501669092 0.3336053333333333 -0.3014093333333333
503150023 0.333496 -0.30233299999999996
504630954 0.3325903333333333 -0.3025563333333333
506111885 0.332385 -0.303259
507592816 0.33172633333333335 -0.30329766666666663
509073747 0.3296526666666666 -0.303215
510554678 0.3294283333333333 -0.30364366666666665
512035609 0.3279903333333333 -0.30348966666666666
513516540 0.327002 -0.30333166666666667
514997471 0.3248563333333333 -0.3022853333333333
516478402 0.3230573333333333 -0.3025953333333333
517959333 0.320914 -0.3022853333333333
519440264 0.3211466666666667 -0.3039206666666666
520921195 0.3217656666666666 -0.30553966666666665
522402126 0.3229236666666666 -0.30703366666666665
523883057 0.32322266666666666 -0.308856
525363988 0.32364133333333334 -0.3105786666666666
526844919 0.3246906666666667 -0.31206199999999995
528325850 0.3237946666666667 -0.3137763333333333
529806781 0.3249873333333333 -0.31405066666666664
531287712 0.32361566666666663 -0.31491
532768643 0.32362233333333335 -0.31561399999999995
534249574 0.32345966666666665 -0.316125
535730505 0.32262066666666667 -0.31688733333333335
537211436 0.3219106666666667 -0.31826899999999997
538692367 0.3217853333333333 -0.3165206666666667
540173298 0.32038833333333333 -0.3172696666666666
541654229 0.31898299999999996 -0.3164963333333333
543135160 0.31752800000000003 -0.316886
544616091 0.3160943333333333 -0.31656
546097022 0.3140303333333333 -0.3164153333333333
547577953 0.312603 -0.3155326666666667
549058884 0.31124766666666664 -0.316827
550539815 0.31250333333333336 -0.319017
552020746 0.31284999999999996 -0.3209276666666666
553501677 0.313577 -0.32323166666666664
554982608 0.313658 -0.325136
556463539 0.31421599999999994 -0.3258506666666666
557944470 0.31439466666666666 -0.32788333333333336
559425401 0.3158213333333333 -0.3283733333333333
560906332 0.3160063333333333 -0.32836999999999994
562387263 0.31569433333333335 -0.33082899999999993
563868194 0.314729 -0.3309816666666667
565349125 0.3139523333333333 -0.3322333333333333
566830056 0.314407 -0.3312733333333333
568310987 0.3128073333333333 -0.33220099999999997
569791918 0.312709 -0.33216366666666663
571272849 0.310422 -0.33180533333333334
572753780 0.3086923333333333 -0.331901
574234711 0.3080053333333333 -0.33096333333333333
575715642 0.30624966666666664 -0.3307686666666667
577196573 0.30406399999999995 -0.330088
578677504 0.30372066666666664 -0.3308756666666667
580158435 0.30371966666666667 -0.3331453333333333
581639366 0.3044123333333333 -0.33463766666666667
583120297 0.3053353333333333 -0.3374783333333333
584601228 0.30554233333333325 -0.33820933333333336
586082159 0.306274 -0.33953866666666666
587563090 0.30610933333333334 -0.34101566666666666
589044021 0.3055903333333333 -0.34246566666666667
590524952 0.3057083333333333 -0.3433083333333333
592005883 0.30625966666666665 -0.343338
593486814 0.3061586666666667 -0.343842
594967745 0.3053566666666666 -0.34425666666666666
596448676 0.30485199999999996 -0.34436333333333335
597929607 0.30376566666666666 -0.34434566666666666
599410538 0.30267733333333335 -0.3449663333333333
600891469 0.3014806666666666 -0.3446973333333333
602372400 0.29991066666666666 -0.3440953333333333
603853331 0.2986403333333333 -0.3428993333333333
605334262 0.2967993333333333 -0.34192
606815193 0.29524833333333333 -0.3422139999999999
608296124 0.2930413333333333 -0.340966
609777055 0.2940563333333333 -0.3432833333333334
611257986 0.294777 -0.346421
612738917 0.29482733333333333 -0.34710399999999997
614219848 0.295135 -0.3505183333333333
615700779 0.29611333333333334 -0.35156699999999996
617181710 0.29601433333333327 -0.353031
618662641 0.296774 -0.353831
620143572 0.29640099999999997 -0.3558863333333333
621624503 0.295921 -0.357023
623105434 0.29523499999999997 -0.35678066666666663
624586365 0.29486066666666666 -0.35755933333333334
626067296 0.29424233333333333 -0.3575363333333333
627548227 0.3042606666666666 -0.354558
629029158 0.29306366666666667 -0.35788566666666666
630510089 0.29241266666666665 -0.35810499999999995
631991020 0.2907603333333333 -0.357414
633471951 0.2887833333333333 -0.35770766666666665
634952882 0.28758633333333333 -0.35636333333333337
636433813 0.2861653333333333 -0.35587833333333335
637914744 0.283531 -0.35509033333333334
639395675 0.26886066666666664 -0.35237566666666664
640876606 0.285271 -0.3590166666666666
642357537 0.28559433333333334 -0.3614093333333333
643838468 0.285591 -0.36335433333333333
645319399 0.28690666666666664 -0.36407833333333334
646800330 0.286647 -0.36627366666666666
648281261 0.2866033333333333 -0.367084
649762192 0.28713866666666665 -0.36748733333333333
651243123 0.28592266666666666 -0.36883199999999994
652724054 0.28605133333333327 -0.36879399999999996
654204985 0.2862 -0.369248
655685916 0.2851063333333333 -0.3707583333333333
657166847 0.2841996666666667 -0.36939199999999994
658647778 0.283585 -0.36890133333333336
660128709 0.28322433333333336 -0.36903800000000003
661609640 0.28200000000000003 -0.3684693333333333
663090571 0.2803173333333333 -0.36719799999999997
664571502 0.27837366666666663 -0.36647799999999997
666052433 0.27728200000000003 -0.3665383333333333
667533364 0.275312 -0.36430133333333325
669014295 0.2757213333333333 -0.365923
670495226 0.2761663333333333 -0.3688546666666666
671976157 0.27615466666666666 -0.37104633333333326
673457088 0.27537233333333333 -0.37334
674938019 0.2761876666666666 -0.37437566666666666
676418950 0.2770953333333333 -0.37444
677899881 0.2788723333333333 -0.3759146666666667
679380812 0.277132 -0.37792999999999993
680861743 0.27831633333333333 -0.3787123333333333
682342674 0.2758313333333333 -0.3798426666666666
683823605 0.2777596666666666 -0.37921066666666664
685304536 0.27510299999999993 -0.380603
686785467 0.27687633333333334 -0.379555
688266398 0.2712573333333333 -0.38131866666666664
689747329 0.27538166666666664 -0.37909333333333334
691228260 0.26930466666666664 -0.381108
692709191 0.27249100000000004 -0.37845599999999996
694190122 0.2674163333333333 -0.3797896666666667
695671053 0.26991733333333334 -0.3763696666666666
697151984 0.26459866666666665 -0.377993
698632915 0.26679166666666665 -0.377462
700113846 0.26347499999999996 -0.38149299999999997
701594777 0.2676316666666666 -0.3819756666666666
703075708 0.26303899999999997 -0.38627100000000003
704556639 0.26791533333333334 -0.3851983333333333
706037570 0.26421799999999995 -0.388248
707518501 0.2687596666666666 -0.38702299999999995
708999432 0.26234266666666667 -0.3914369999999999
710480363 0.2674586666666666 -0.3899433333333333
711961294 0.26109899999999997 -0.39304033333333327
713442225 0.26649833333333334 -0.39199966666666664
714923156 0.26303166666666666 -0.3922913333333333
716404087 0.26337333333333335 -0.39151566666666665
717885018 0.25890799999999997 -0.393903
719365949 0.26424 -0.39138799999999996
720846880 0.2583126666666667 -0.39278733333333327
722327811 0.2608006666666666 -0.39044799999999996
723808742 0.25450566666666663 -0.39191633333333337
725289673 0.2574686666666666 -0.3889653333333333
726770604 0.24899233333333332 -0.39107499999999995
728251535 0.25380633333333336 -0.3892683333333333
729732466 0.2551906666666666 -0.39135600000000004
731213397 0.25543866666666665 -0.39314666666666664
732694328 0.25314766666666666 -0.3959626666666667
734175259 0.2538293333333333 -0.39840833333333336
735656190 0.2542176666666667 -0.39916699999999994
737137121 0.253569 -0.4010836666666666
738618052 0.25377633333333327 -0.4022003333333333
740098983 0.25427133333333335 -0.4026143333333333
741579914 0.2536216666666667 -0.40376
743060845 0.2531513333333333 -0.4035626666666666
744541776 0.25295133333333336 -0.4040586666666667
746022707 0.25242733333333334 -0.40433433333333335
747503638 0.25237066666666663 -0.40359799999999996
748984569 0.2510933333333333 -0.404064
750465500 0.25064766666666666 -0.4029403333333333
751946431 0.24861733333333336 -0.4022836666666666
753427362 0.24830833333333335 -0.4014676666666666
754908293 0.245355 -0.401559
756389224 0.24454900000000002 -0.399864
757870155 0.24388166666666666 -0.3992266666666667
759351086 0.243722 -0.4012486666666666
760832017 0.24530433333333335 -0.4037913333333333
762312948 0.245801 -0.4057529999999999
763793879 0.24541966666666665 -0.40707799999999994
765274810 0.24473833333333334 -0.40881899999999993
766755741 0.24515533333333334 -0.41009999999999996
768236672 0.24523366666666668 -0.4115846666666667
769717603 0.24486133333333332 -0.41167
771198534 0.24478266666666665 -0.412715
772679465 0.2446633333333333 -0.4134593333333334
774160396 0.243653 -0.41436366666666663
775641327 0.243911 -0.41400266666666663
777122258 0.24254199999999998 -0.414867
778603189 0.24425866666666668 -0.41138966666666665
780084120 0.24631466666666668 -0.4101396666666667
781565051 0.24503533333333333 -0.41106299999999996
783045982 0.24264866666666665 -0.41047633333333333
784526913 0.24154766666666666 -0.40982199999999996
786007844 0.24029633333333333 -0.40837299999999993
787488775 0.2380503333333333 -0.4074756666666666
788969706 0.23801366666666668 -0.4097556666666667
790450637 0.24008733333333335 -0.4122333333333333
791931568 0.239968 -0.4142386666666667
793412499 0.23957966666666664 -0.4160973333333333
794893430 0.23888899999999996 -0.41886266666666666
796374361 0.23964333333333335 -0.4193536666666667
797855292 0.23917000000000002 -0.4208776666666667
799336223 0.23952466666666666 -0.4214693333333333
800817154 0.239496 -0.42251700000000003
802298085 0.23830999999999997 -0.4232823333333333
803779016 0.23226966666666665 -0.4248766666666666
805259947 0.23168566666666668 -0.4252733333333333
806740878 0.23074566666666665 -0.42543833333333336
808221809 0.2304483333333333 -0.425488
809702740 0.22907933333333333 -0.42425566666666664
811183671 0.22898633333333332 -0.4237736666666666
812664602 0.226934 -0.4231473333333334
814145533 0.2260823333333333 -0.422679
815626464 0.22499866666666662 -0.4212243333333333
817107395 0.22263466666666668 -0.420401
818588326 0.22443866666666668 -0.4214883333333333
820069257 0.222553 -0.4243773333333333
821550188 0.223561 -0.42670199999999997
823031119 0.22387466666666667 -0.4283083333333333
824512050 0.22445666666666667 -0.4300196666666666
825992981 0.22463099999999997 -0.431462
827473912 0.22308633333333333 -0.433171
828954843 0.22399033333333332 -0.43334933333333325
830435774 0.23302533333333333 -0.43595966666666663
831916705 0.2230133333333333 -0.43476366666666666
833397636 0.223763 -0.43451833333333334
834878567 0.22279300000000002 -0.43550633333333333
836359498 0.22320033333333333 -0.434146
837840429 0.22114933333333334 -0.4346793333333333
839321360 0.22052233333333332 -0.43491766666666665
840802291 0.219472 -0.4337006666666666
842283222 0.21795566666666666 -0.43273933333333336
843764153 0.217792 -0.4319993333333333
845245084 0.21699466666666667 -0.43141300000000005
846726015 0.21453166666666668 -0.4292623333333333
848206946 0.21432966666666664 -0.430403
849687877 0.21429566666666666 -0.4328236666666667
851168808 0.214946 -0.434566
852649739 0.2130433333333333 -0.436939
854130670 0.21538366666666667 -0.438511
855611601 0.21511233333333335 -0.4404683333333333
857092532 0.21389466666666662 -0.44157133333333337
858573463 0.21444599999999997 -0.442341
860054394 0.21543166666666663 -0.44231599999999993
861535325 0.21430466666666664 -0.44434766666666664
863016256 0.21423566666666663 -0.444045
864497187 0.21397566666666662 -0.4441353333333333
865978118 0.21378 -0.444135
867459049 0.2118193333333333 -0.4435606666666666
868939980 0.21158766666666665 -0.44300566666666663
870420911 0.21004233333333333 -0.44283966666666663
871901842 0.20959966666666666 -0.4412843333333334
873382773 0.20810033333333333 -0.44050733333333325
874863704 0.206845 -0.438672
876344635 0.20531266666666664 -0.4371966666666667
877825566 0.20445333333333332 -0.43820366666666666
879306497 0.20433099999999998 -0.440923
880787428 0.20444966666666664 -0.4431973333333333
882268359 0.2044253333333333 -0.4443633333333333
883749290 0.20470666666666665 -0.44631766666666667
885230221 0.20577633333333334 -0.44858133333333333
886711152 0.20435833333333334 -0.4496226666666666
888192083 0.20401799999999998 -0.45073566666666665
889673014 0.20452099999999998 -0.45165900000000003
891153945 0.20397999999999997 -0.4525493333333333
892634876 0.20305433333333334 -0.45272466666666666
894115807 0.202529 -0.4545323333333333
895596738 0.20186933333333335 -0.4537353333333334
897077669 0.20173833333333335 -0.45336899999999997
898558600 0.20064299999999996 -0.4533796666666666
900039531 0.20015066666666664 -0.4518293333333333
901520462 0.19941066666666665 -0.451498
903001393 0.19837766666666667 -0.450475
904482324 0.19765733333333335 -0.44907433333333335
905963255 0.195924 -0.4481883333333333
907444186 0.196572 -0.44773899999999994
908925117 0.19490999999999997 -0.4495446666666667
910406048 0.19645866666666667 -0.451418
911886979 0.1950523333333333 -0.45475999999999994
913367910 0.19627633333333333 -0.455338
914848841 0.19553833333333331 -0.45633866666666667
916329772 0.19452599999999998 -0.45858899999999997
917810703 0.19492899999999996 -0.4599103333333333
919291634 0.19600033333333333 -0.460329
920772565 0.19485366666666662 -0.4597883333333333
922253496 0.19469266666666665 -0.4608136666666667
923734427 0.194819 -0.46104100000000003
925215358 0.19433533333333333 -0.46212600000000004
926696289 0.19243433333333332 -0.46171933333333326
928177220 0.19308266666666665 -0.46104033333333333
929658151 0.19120866666666664 -0.459841
931139082 0.19258933333333333 -0.4582153333333333
932620013 0.18995433333333334 -0.45710999999999996
934100944 0.1893103333333333 -0.456651
935581875 0.18919200000000003 -0.45457966666666666
937062806 0.18709266666666663 -0.45390566666666665
938543737 0.18713933333333332 -0.4549626666666667
940024668 0.18738666666666665 -0.457623
941505599 0.18705 -0.45977499999999993
942986530 0.18731166666666668 -0.46152033333333337
944467461 0.18553866666666666 -0.46411199999999997
945948392 0.18672499999999997 -0.46502133333333334
947429323 0.185778 -0.4661106666666666
948910254 0.186525 -0.4666966666666666
950391185 0.1858243333333333 -0.46785999999999994
951872116 0.18657066666666666 -0.467797
953353047 0.18670733333333334 -0.468588
954833978 0.185001 -0.4690793333333333
956314909 0.18577566666666667 -0.4688446666666667
957795840 0.18386899999999998 -0.46846733333333335
959276771 0.18406933333333333 -0.467201
960757702 0.18397599999999997 -0.46719933333333336
962238633 0.18212866666666666 -0.466468
963719564 0.18103599999999997 -0.46486066666666664
965200495 0.18038400000000002 -0.46255333333333337
966681426 0.17932266666666666 -0.46238433333333334
968162357 0.179283 -0.4648173333333333
969643288 0.1786563333333333 -0.466604
971124219 0.17949366666666666 -0.4674986666666666
972605150 0.17907866666666666 -0.4700133333333333
974086081 0.17837599999999998 -0.471197
975567012 0.17887 -0.4727476666666667
977047943 0.17632966666666663 -0.474778
978528874 0.17839266666666664 -0.47445933333333334
980009805 0.17749366666666666 -0.47574133333333335
981490736 0.1774663333333333 -0.4763246666666666
982971667 0.17789433333333332 -0.4763036666666667
984452598 0.176785 -0.4767923333333333
985933529 0.17679999999999998 -0.47642866666666667
987414460 0.175871 -0.475383
988895391 0.17484766666666665 -0.4752973333333333
990376322 0.17527166666666666 -0.4744683333333333
991857253 0.17434666666666665 -0.47336333333333336
993338184 0.17193533333333333 -0.47202299999999997
994819115 0.17172533333333334 -0.4712416666666666
996300046 0.17015866666666668 -0.470268
997780977 0.16979933333333333 -0.47095933333333334
999261908 0.16993933333333333 -0.4731966666666666
1000742839 0.16948433333333335 -0.474289
1002223770 0.16957633333333333 -0.476046
1003704701 0.169657 -0.4784816666666667
1005185632 0.1683113333333333 -0.48024633333333333
1006666563 0.16957566666666662 -0.480777
1008147494 0.16857133333333332 -0.48170333333333326
1009628425 0.1687 -0.48194933333333334
1011109356 0.168412 -0.48280900000000004
1012590287 0.1674233333333333 -0.48352033333333333
1014071218 0.16597833333333334 -0.4837636666666667
1015552149 0.16730666666666666 -0.48287233333333335
1017033080 0.16544733333333334 -0.482947
1018514011 0.166014 -0.48163566666666663
1019994942 0.16483466666666663 -0.481325
1021475873 0.16441966666666666 -0.4808486666666666
1022956804 0.1629 -0.47933566666666666
1024437735 0.16105566666666665 -0.4782823333333333
1025918666 0.15987833333333334 -0.4766603333333333
1027399597 0.15816466666666665 -0.47796333333333335
1028880528 0.1593113333333333 -0.47953633333333334
1030361459 0.159895 -0.48144466666666663
1031842390 0.16014199999999998 -0.4836456666666667
1033323321 0.15902366666666665 -0.4846406666666666
1034804252 0.16313499999999997 -0.485313
1036285183 0.15887466666666666 -0.48687966666666666
1037766114 0.15934566666666666 -0.4879906666666667
1039247045 0.15802299999999997 -0.4890323333333333
1040727976 0.16131033333333333 -0.48833666666666664
1042208907 0.15792366666666666 -0.48958599999999997
1043689838 0.16057566666666664 -0.4886146666666667
1045170769 0.15436 -0.4897123333333333
1046651700 0.159389 -0.4887953333333333
1048132631 0.15351833333333334 -0.4892356666666666
1049613562 0.15728999999999999 -0.4869703333333333
1051094493 0.15077733333333332 -0.48743099999999995
1052575424 0.15583866666666665 -0.4839593333333333
1054056355 0.14790766666666666 -0.484608
1055537286 0.15384766666666666 -0.48216200000000004
1057018217 0.14936066666666667 -0.48140900000000003
1058499148 0.14944033333333331 -0.4849113333333333
1059980079 0.14983633333333335 -0.48632600000000004
1061461010 0.14963433333333334 -0.4889873333333333
1062941941 0.15003533333333333 -0.48946
1064422872 0.14984733333333333 -0.4913693333333333
1065903803 0.14932366666666666 -0.4924643333333333
1067384734 0.149215 -0.4946506666666666
1068865665 0.14933633333333332 -0.4938483333333333
1070346596 0.15031533333333336 -0.494384
1071827527 0.1487093333333333 -0.49487233333333336
1073308458 0.1488143333333333 -0.494524
1074789389 0.14718966666666666 -0.47386466666666666
1076270320 0.14901799999999998 -0.4939263333333333
1077751251 0.14968033333333333 -0.4936433333333333
1079232182 0.151173 -0.49240766666666663
1080713113 0.148032 -0.49093433333333336
1082194044 0.14726233333333333 -0.489555
1083674975 0.14668399999999998 -0.48859433333333335
1085155906 0.145129 -0.4859423333333333
1086636837 0.14925233333333332 -0.48498699999999995
1088117768 0.14290833333333333 -0.4882043333333333
1089598699 0.14214 -0.49219633333333335
1091079630 0.14535366666666663 -0.49302499999999994
1092560561 0.14337466666666665 -0.494813
1094041492 0.14349499999999998 -0.49605999999999995
1095522423 0.144591 -0.4968093333333333
1097003354 0.14414633333333332 -0.49879133333333336
1098484285 0.14098833333333333 -0.49952700000000005
1099965216 0.14321599999999998 -0.5011233333333333
1101446147 0.138767 -0.5010479999999999
1102927078 0.138519 -0.5012746666666665
1104408009 0.138173 -0.5002946666666666
1105888940 0.13739866666666667 -0.5012173333333333
1107369871 0.136428 -0.5000173333333333
1108850802 0.13569066666666665 -0.49923266666666666
1110331733 0.135101 -0.49854033333333336
1111812664 0.13353266666666666 -0.497297
1113293595 0.13418733333333333 -0.49623333333333336
1114774526 0.13218566666666667 -0.4941326666666666
1116255457 0.130242 -0.49362966666666663
1117736388 0.12977033333333332 -0.49537433333333336
1119217319 0.12953966666666666 -0.49842533333333333
1120698250 0.12962966666666667 -0.5011063333333333
1122179181 0.12949466666666667 -0.5016913333333333
1123660112 0.1284013333333333 -0.5023779999999999
1125141043 0.127977 -0.5042583333333333
1126621974 0.12725866666666666 -0.5055933333333333
1128102905 0.125432 -0.5085196666666667
1129583836 0.12646533333333332 -0.5065823333333334
1131064767 0.12711633333333333 -0.5067873333333333
1132545698 0.12646366666666667 -0.5067436666666666
1134026629 0.12457833333333332 -0.5072136666666667
1135507560 0.12687166666666666 -0.5070873333333333
1136988491 0.12472066666666666 -0.5053446666666667
1138469422 0.12345466666666666 -0.5047216666666667
1139950353 0.123387 -0.5038253333333333
1141431284 0.12161499999999999 -0.501833
1142912215 0.12027066666666666 -0.5007783333333333
1144393146 0.11902199999999999 -0.5000183333333332
1145874077 0.117515 -0.4978593333333333
1147355008 0.11618966666666666 -0.499255
1148835939 0.11761233333333333 -0.502335
1150316870 0.116079 -0.504276
1151797801 0.11716966666666667 -0.5060353333333333
1153278732 0.11523566666666665 -0.5078169999999999
1154759663 0.11553366666666666 -0.5094936666666665
1156240594 0.11495166666666667 -0.5115286666666666
1157721525 0.115424 -0.5115919999999999
1159202456 0.11596200000000001 -0.5127523333333333
1160683387 0.11485033333333333 -0.5128493333333333
1162164318 0.11457333333333333 -0.5128893333333333
1163645249 0.11399499999999999 -0.5136663333333333
1165126180 0.11383933333333332 -0.5135706666666666
1166607111 0.11476233333333333 -0.5127173333333332
1168088042 0.11309799999999999 -0.5128133333333333
1169568973 0.11287366666666666 -0.5109779999999999
1171049904 0.11272299999999999 -0.5105376666666667
1172530835 0.11000166666666666 -0.5086339999999999
1174011766 0.110935 -0.5085789999999999
1175492697 0.10941599999999999 -0.505516
1176973628 0.10899066666666665 -0.5061739999999999
1178454559 0.10957366666666668 -0.5083736666666666
1179935490 0.10715833333333331 -0.510868
1181416421 0.10852066666666667 -0.5125276666666667
1182897352 0.10674033333333333 -0.514519
1184378283 0.10664733333333333 -0.5155749999999999
1185859214 0.107157 -0.516234
1187340145 0.10820133333333333 -0.5176633333333333
1188821076 0.10788933333333334 -0.5187096666666666
1190302007 0.106631 -0.5182263333333332
1191782938 0.10760466666666665 -0.5183553333333333
1193263869 0.10716033333333333 -0.5197609999999999
1194744800 0.10637966666666665 -0.5185553333333333
1196225731 0.10562633333333334 -0.5170423333333333
1197706662 0.106051 -0.5168519999999999
1199187593 0.10446833333333333 -0.5158816666666666
1200668524 0.10372366666666667 -0.515752
1202149455 0.10285033333333334 -0.5135363333333334
1203630386 0.10124166666666667 -0.5114616666666667
1205111317 0.10006999999999999 -0.509499
1206592248 0.10213433333333333 -0.5087546666666667
1208073179 0.10069333333333333 -0.5113163333333333
1209554110 0.09879333333333334 -0.5138333333333334
1211035041 0.09972466666666666 -0.5159556666666667
1212515972 0.09741799999999998 -0.5180813333333334
1213996903 0.09792733333333332 -0.5196593333333334
1215477834 0.09800333333333333 -0.5211326666666666
1216958765 0.09723099999999998 -0.5208959999999999
1218439696 0.09825566666666666 -0.5224783333333333
1219920627 0.09928266666666666 -0.5224646666666667
1221401558 0.09676433333333334 -0.5233776666666667
1222882489 0.09593633333333332 -0.523116
1224363420 0.09667899999999999 -0.5224386666666666
1225844351 0.099014 -0.5234236666666666
1227325282 0.09523066666666666 -0.5216729999999999
1228806213 0.09380033333333333 -0.5195686666666666
1230287144 0.09330499999999999 -0.5197123333333332
1231768075 0.09340366666666666 -0.5180323333333332
1233249006 0.09145533333333333 -0.516411
1234729937 0.09067366666666667 -0.5132916666666666
1236210868 0.09037466666666667 -0.5144046666666666
1237691799 0.090043 -0.5161373333333332
1239172730 0.08926766666666666 -0.5188396666666666
1240653661 0.089011 -0.51942
1242134592 0.088332 -0.5222323333333333
1243615523 0.08845133333333334 -0.5233663333333333
1245096454 0.08619966666666667 -0.5243136666666667
1246577385 0.083425 -0.526141
1248058316 0.08472666666666664 -0.526606
1249539247 0.08667433333333333 -0.526598
1251020178 0.08624666666666667 -0.5273446666666667
1252501109 0.08574066666666665 -0.5273429999999999
1253982040 0.08569533333333332 -0.5273939999999999
1255462971 0.085829 -0.5267536666666666
1256943902 0.08456533333333333 -0.5267073333333333
1258424833 0.083704 -0.523949
1259905764 0.08398333333333333 -0.5227723333333333
1261386695 0.08419966666666667 -0.5226716666666666
1262867626 0.08251266666666668 -0.5211003333333333
1264348557 0.082937 -0.5183773333333332
1265829488 0.08110966666666665 -0.5180663333333333
1267310419 0.07969599999999999 -0.521033
1268791350 0.08049233333333333 -0.5230766666666666
1270272281 0.08118133333333333 -0.5238646666666666
1271753212 0.07991066666666666 -0.5257596666666666
1273234143 0.08008399999999999 -0.5272526666666667
1274715074 0.07828733333333333 -0.5288036666666667
1276196005 0.07921733333333332 -0.5294246666666667
1277676936 0.07948833333333333 -0.5315246666666666
1279157867 0.07939733333333333 -0.5286113333333333
1280638798 0.07870333333333332 -0.5329453333333333
1282119729 0.08020766666666668 -0.5326686666666667
1283600660 0.07865666666666667 -0.532387
1285081591 0.07359866666666666 -0.535767
1286562522 0.07781966666666665 -0.5310113333333334
1288043453 0.07832433333333333 -0.5314553333333334
1289524384 0.07671133333333333 -0.5301866666666666
1291005315 0.07864 -0.5294616666666667
1292486246 0.07585633333333333 -0.527694
1293967177 0.07524866666666666 -0.5263866666666666
1295448108 0.07278633333333333 -0.5244353333333333
1296929039 0.07418733333333333 -0.5261443333333333
1298409970 0.07394833333333334 -0.5284563333333333
1299890901 0.073239 -0.5308763333333333
1301371832 0.07392766666666667 -0.53208
1302852763 0.071826 -0.5329493333333333
1304333694 0.073263 -0.534241
1305814625 0.07306766666666666 -0.5352723333333333
1307295556 0.071072 -0.536211
1308776487 0.07065866666666666 -0.536861
1310257418 0.07069066666666665 -0.5355446666666667
1311738349 0.07041133333333334 -0.5375766666666666
1313219280 0.06994 -0.5372663333333334
1314700211 0.07135966666666665 -0.537113
1316181142 0.06841733333333333 -0.5364926666666666
1317662073 0.068061 -0.535847
1319143004 0.06848499999999999 -0.53583
1320623935 0.06895799999999999 -0.5328816666666666
1322104866 0.06697033333333333 -0.5322683333333333
1323585797 0.06567433333333333 -0.531255
1325066728 0.06658599999999999 -0.5293013333333333
1326547659 0.065159 -0.5298756666666666
1328028590 0.06390699999999999 -0.5316063333333332
1329509521 0.06425233333333333 -0.5339893333333332
1330990452 0.06347033333333332 -0.535526
1332471383 0.06629033333333334 -0.5347216666666667
1333952314 0.06655699999999999 -0.5386883333333332
1335433245 0.06398833333333333 -0.538833
1336914176 0.06398066666666666 -0.5399499999999999
1338395107 0.06598366666666666 -0.5404613333333332
1339876038 0.06333433333333334 -0.5411009999999999
1341356969 0.06464033333333333 -0.5417006666666666
1342837900 0.06573733333333333 -0.542106
1344318831 0.064071 -0.5398216666666666
1345799762 0.06480466666666665 -0.5407096666666665
1347280693 0.062586 -0.53952
1348761624 0.062885 -0.5381009999999999
1350242555 0.061351666666666665 -0.5379263333333333
1351723486 0.06216033333333333 -0.5370126666666667
1353204417 0.059728666666666666 -0.533952
1354685348 0.059985 -0.5306806666666666
1356166279 0.059709 -0.531789
1357647210 0.061022 -0.5344793333333332
1359128141 0.06131066666666666 -0.5358866666666666
1360609072 0.05946566666666667 -0.5385003333333334
1362090003 0.057602 -0.5399229999999999
1363570934 0.05957066666666667 -0.5416656666666666
1365051865 0.05911833333333333 -0.5424083333333334
1366532796 0.05769933333333333 -0.5443676666666666
1368013727 0.06376433333333333 -0.5447333333333333
1369494658 0.059467 -0.5445306666666666
1370975589 0.05743966666666667 -0.545203
1372456520 0.059472 -0.5440206666666666
1373937451 0.045836666666666664 -0.5334053333333333
1375418382 0.05814233333333333 -0.5434956666666666
1376899313 0.055050999999999996 -0.5440683333333334
1378380244 0.058913333333333325 -0.5426676666666667
1379861175 0.05434233333333333 -0.541899
1381342106 0.052996333333333326 -0.5406563333333333
1382823037 0.05292633333333333 -0.5390983333333332
1384303968 0.052437333333333336 -0.5364099999999999
1385784899 0.05142133333333333 -0.5358346666666667
1387265830 0.050062333333333334 -0.5385216666666667
1388746761 0.05134233333333333 -0.540933
1390227692 0.04981999999999999 -0.5424869999999999
1391708623 0.049949 -0.5441646666666666
1393189554 0.05132966666666666 -0.5457009999999999
1394670485 0.05095 -0.5472873333333333
1396151416 0.049816 -0.5477166666666666
1397632347 0.050811999999999996 -0.5487183333333332
1399113278 0.04935666666666666 -0.5491793333333332
1400594209 0.04893533333333333 -0.5492233333333333
1402075140 0.048926666666666674 -0.5484826666666667
1403556071 0.04945033333333333 -0.5486616666666666
1405037002 0.049655000000000005 -0.548054
1406517933 0.049111999999999996 -0.5480336666666666
1407998864 0.04674799999999999 -0.5467759999999999
1409479795 0.046328666666666664 -0.544503
1410960726 0.046308999999999996 -0.5431
1412441657 0.045928 -0.5406103333333333
1413922588 0.04343666666666666 -0.540157
1415403519 0.04144033333333333 -0.5378983333333334
1416884450 0.04199866666666666 -0.5399056666666666
1418365381 0.041533999999999995 -0.5420876666666666
1419846312 0.041919 -0.5451739999999999
1421327243 0.04214233333333334 -0.5477793333333333
1422808174 0.04195633333333333 -0.54776
1424289105 0.04181633333333332 -0.5505663333333334
1425770036 0.041679333333333325 -0.5519813333333332
1427250967 0.04079466666666666 -0.5536616666666667
1428731898 0.04257533333333333 -0.5529783333333333
1430212829 0.041139666666666665 -0.5539543333333332
1431693760 0.042339666666666664 -0.553937
1433174691 0.042161333333333335 -0.5531439999999999
1434655622 0.042147000000000004 -0.5529629999999999
1436136553 0.04211399999999999 -0.5529763333333333
1437617484 0.03957133333333333 -0.5507276666666666
1439098415 0.04009633333333333 -0.549744
1440579346 0.039518 -0.5476113333333333
1442060277 0.03964033333333333 -0.5480006666666666
1443541208 0.036053 -0.5441743333333333
1445022139 0.03863833333333333 -0.5421213333333332
1446503070 0.03671233333333333 -0.5431143333333333
1447984001 0.03690333333333333 -0.5468986666666666
1449464932 0.034817999999999995 -0.5493506666666665
1450945863 0.035416666666666666 -0.5509526666666666
1452426794 0.034817333333333325 -0.5528966666666666
1453907725 0.036573666666666664 -0.5544953333333333
1455388656 0.035720666666666664 -0.5557466666666666
1456869587 0.035719999999999995 -0.5558686666666666
1458350518 0.03467766666666667 -0.5566636666666667
1459831449 0.033104999999999996 -0.556508
1461312380 0.032279333333333333 -0.557137
1462793311 0.03380933333333333 -0.5565789999999999
1464274242 0.032946666666666666 -0.5568286666666666
1465755173 0.033763666666666664 -0.5563236666666667
1467236104 0.034618666666666666 -0.5550356666666667
1468717035 0.03249833333333333 -0.551744
1470197966 0.03273633333333333 -0.5509293333333334
1471678897 0.03079 -0.5500136666666666
1473159828 0.030588666666666667 -0.5473893333333333
1474640759 0.027505999999999996 -0.5451919999999999
1476121690 0.028874666666666663 -0.5460786666666666
1477602621 0.027769999999999996 -0.5491916666666665
1479083552 0.027178333333333332 -0.5512429999999999
1480564483 0.025963 -0.5521113333333334
1482045414 0.025475666666666667 -0.5548223333333333
1483526345 0.026281 -0.5561236666666667
1485007276 0.025666666666666664 -0.5566856666666666
1486488207 0.02586933333333333 -0.5588383333333333
1487969138 0.025725666666666664 -0.559696
1489450069 0.02634333333333333 -0.5594143333333333
1490931000 0.024593666666666666 -0.559428
1492411931 0.02808633333333333 -0.55884
1493892862 0.02557633333333333 -0.5588996666666667
1495373793 0.026276666666666663 -0.5573166666666666
1496854724 0.023420999999999997 -0.5563203333333333
1498335655 0.024950666666666666 -0.554291
1499816586 0.022783666666666664 -0.5528
1501297517 0.022671666666666663 -0.5509853333333332
1502778448 0.021765666666666662 -0.5486059999999999
1504259379 0.020684666666666664 -0.5461503333333333
1505740310 0.021743 -0.546494
1507221241 0.021070333333333333 -0.5481573333333333
1508702172 0.019619666666666667 -0.5508353333333333
1510183103 0.021068999999999997 -0.5519593333333332
1511664034 0.019969999999999998 -0.5541716666666666
1513144965 0.018395666666666664 -0.5564003333333333
1514625896 0.017485999999999998 -0.5562006666666666
1516106827 0.019556333333333332 -0.5584973333333334
1517587758 0.017753666666666668 -0.5579909999999999
1519068689 0.016869333333333333 -0.559588
1520549620 0.017903666666666665 -0.5591096666666666
1522030551 0.017350666666666667 -0.5586703333333333
1523511482 0.016634666666666666 -0.5566333333333333
1524992413 0.01741 -0.5574096666666667
1526473344 0.015427 -0.5562640000000001
1527954275 0.014327666666666666 -0.554852
1529435206 0.015143666666666666 -0.5543549999999999
1530916137 0.015602333333333331 -0.5502596666666666
1532397068 0.014539666666666668 -0.5487826666666666
1533877999 0.014042666666666665 -0.5470889999999999
1535358930 0.014464333333333333 -0.5461513333333332
1536839861 0.009736666666666666 -0.5484016666666667
1538320792 0.011555 -0.551823
1539801723 0.009779666666666666 -0.5530373333333333
1541282654 0.007525333333333333 -0.5543486666666666
1542763585 0.009345000000000001 -0.5562366666666666
1544244516 0.009909999999999999 -0.5575673333333333
1545725447 0.009328666666666667 -0.5597633333333333
1547206378 0.009453333333333334 -0.5595976666666667
1548687309 0.009471333333333333 -0.5607666666666666
1550168240 0.006437999999999999 -0.5611636666666666
1551649171 0.006778666666666666 -0.5613833333333333
1553130102 0.007436999999999999 -0.5603716666666666
1554611033 0.008565 -0.5599379999999999
1556091964 0.007267666666666667 -0.5598129999999999
1557572895 0.007379999999999999 -0.5579539999999998
1559053826 0.007124333333333333 -0.5569116666666667
1560534757 0.008371333333333335 -0.5548139999999999
1562015688 0.004013333333333332 -0.5530426666666666
1563496619 0.006336333333333333 -0.550958
1564977550 0.007009 -0.549098
1566458481 0.005932666666666667 -0.5508286666666666
1567939412 0.004047333333333333 -0.5539023333333333
1569420343 0.0038443333333333333 -0.5557276666666666
1570901274 0.004133666666666666 -0.556981
1572382205 0.003297666666666666 -0.5587226666666666
1573863136 0.0015296666666666666 -0.560338
1575344067 0.0008093333333333333 -0.5606963333333334
1576824998 0.0019193333333333332 -0.5620970000000001
1578305929 -0.012778 -0.5572666666666666
1579786860 -0.000894 -0.563143
1581267791 0.0008730000000000001 -0.5634983333333332
1582748722 7.633333333333334e-05 -0.5632543333333333
1584229653 0.002545 -0.561991
1585710584 -0.0012906666666666667 -0.5618843333333333
1587191515 -0.00047133333333333337 -0.5607233333333334
1588672446 0.0005356666666666666 -0.559089
1590153377 -0.002265333333333333 -0.5575593333333333
1591634308 -0.001183 -0.5554189999999999
1593115239 -0.0025193333333333335 -0.5532293333333334
1594596170 -0.002856333333333333 -0.551453
1596077101 -0.003061 -0.553005
1597558032 -0.003748333333333333 -0.5555446666666667
1599038963 -0.003665333333333333 -0.558047
1600519894 -0.006148000000000001 -0.5582793333333332
1602000825 -0.006515 -0.5603913333333332
1603481756 -0.006953999999999999 -0.560952
1604962687 -0.008452999999999999 -0.562004
1606443618 -0.006923 -0.5625186666666666
1607924549 -0.009767666666666664 -0.5628623333333334
1609405480 -0.008133000000000001 -0.5624549999999999
1610886411 -0.009252 -0.563269
1612367342 -0.009318 -0.5625096666666667
1613848273 -0.010183999999999999 -0.562063
1615329204 -0.011629666666666665 -0.5614556666666666
1616810135 -0.007671000000000001 -0.559093
1618291066 -0.011524000000000001 -0.5581656666666667
1619771997 -0.011262999999999999 -0.5579259999999999
1621252928 -0.012321666666666665 -0.5553403333333332
1622733859 -0.011833333333333331 -0.553489
1624214790 -0.014238999999999998 -0.5502363333333333
1625695721 -0.015098666666666666 -0.5513333333333332
1627176652 -0.013160666666666668 -0.5541173333333334
1628657583 -0.016133666666666664 -0.5558329999999999
1630138514 -0.016054666666666665 -0.5581313333333333
1631619445 -0.015200666666666664 -0.5599926666666666
1633100376 -0.014379 -0.561121
1634581307 -0.014936333333333333 -0.5624609999999999
1636062238 -0.016487666666666664 -0.5632853333333334
1637543169 -0.016067666666666664 -0.564298
1639024100 -0.016334 -0.5646423333333332
1640505031 -0.016212999999999998 -0.5633366666666666
1641985962 -0.016836 -0.5637
1643466893 -0.014884333333333333 -0.5634436666666667
1644947824 -0.016495333333333334 -0.5642916666666666
1646428755 -0.016744 -0.5611273333333333
1647909686 -0.017800333333333335 -0.5619386666666666
1649390617 -0.017334 -0.5605656666666665
1650871548 -0.016876999999999996 -0.5583573333333333
1652352479 -0.020821666666666665 -0.554908
1653833410 -0.019280666666666665 -0.5544699999999999
1655314341 -0.01466 -0.5554699999999999
1656795272 -0.018997 -0.5564873333333333
1658276203 -0.009912333333333332 -0.5597946666666667
1659757134 -0.017856 -0.5612073333333333
1661238065 -0.011935666666666666 -0.5637303333333333
1662718996 -0.017535 -0.5646683333333333
1664199927 -0.012748666666666667 -0.5665913333333333
1665680858 -0.018432999999999998 -0.5659669999999999
1667161789 -0.011482333333333334 -0.5694526666666666
1668642720 -0.019076666666666665 -0.5685466666666668
1670123651 -0.015135333333333334 -0.5697643333333333
1671604582 -0.028067333333333333 -0.5661703333333333
1673085513 -0.011860333333333334 -0.5692283333333333
1674566444 -0.022445333333333334 -0.5424773333333333
1676047375 -0.01436033333333333 -0.5676423333333332
1677528306 -0.022125 -0.5656503333333333
1679009237 -0.014828333333333332 -0.5654489999999999
1680490168 -0.023329999999999997 -0.5618323333333333
1681971099 -0.014568 -0.5622206666666666
1683452030 -0.023689999999999996 -0.5586549999999999
1684932961 -0.018310666666666663 -0.5612396666666666
1686413892 -0.024239 -0.5607816666666666
1687894823 -0.01632 -0.5649923333333333
1689375754 -0.015792 -0.5670386666666666
1690856685 -0.018443 -0.5679763333333333
1692337616 -0.01883 -0.5710763333333333
1693818547 -0.017514333333333333 -0.5716559999999999
1695299478 -0.018410999999999997 -0.5731766666666667
1696780409 -0.019809666666666663 -0.5731466666666667
1698261340 -0.015514666666666666 -0.574544
1699742271 -0.021040000000000003 -0.572952
1701223202 -0.02252866666666667 -0.573655
1702704133 -0.021163333333333333 -0.5721579999999999
1704185064 -0.023116333333333336 -0.572006
1705665995 -0.023381666666666665 -0.5709783333333334
1707146926 -0.023453 -0.5695823333333333
1708627857 -0.025195666666666665 -0.5676893333333333
1710108788 -0.026173000000000002 -0.5688283333333334
1711589719 -0.023153999999999997 -0.5654219999999999
1713070650 -0.02470566666666666 -0.5633859999999999
1714551581 -0.02370033333333333 -0.5608026666666667
1716032512 -0.026186 -0.563464
1717513443 -0.027616999999999996 -0.5679423333333333
1718994374 -0.02510133333333333 -0.5677359999999999
1720475305 -0.028660333333333333 -0.5708456666666666
1721956236 -0.028133 -0.5728853333333332
1723437167 -0.026911666666666667 -0.5731253333333333
1724918098 -0.027226 -0.5754446666666666
1726399029 -0.025902666666666664 -0.5745903333333333
1727879960 -0.030547666666666667 -0.568994
1729360891 -0.027278333333333335 -0.5767543333333334
1730841822 -0.02628933333333333 -0.5746256666666667
1732322753 -0.027108333333333335 -0.5737196666666666
1733803684 -0.027128000000000003 -0.5740419999999999
1735284615 -0.02828766666666667 -0.5731583333333333
1736765546 -0.028061999999999997 -0.57285
1738246477 -0.026922333333333333 -0.5715593333333333
1739727408 -0.025584666666666665 -0.5695236666666665
1741208339 -0.02966733333333333 -0.565725
1742689270 -0.02930933333333333 -0.5655723333333332
1744170201 -0.029242666666666667 -0.5619416666666666
1745651132 -0.030288 -0.5655563333333333
1747132063 -0.028843666666666663 -0.566944
1748612994 -0.03162966666666667 -0.5685193333333333
1750093925 -0.03142433333333333 -0.5702529999999999
1751574856 -0.030892999999999997 -0.5718696666666667
1753055787 -0.03308733333333333 -0.5734443333333333
1754536718 -0.029835333333333332 -0.5755033333333333
1756017649 -0.03202733333333333 -0.5758996666666667
1757498580 -0.03341466666666666 -0.5781736666666666
1758979511 -0.032605333333333326 -0.577502
1760460442 -0.033 -0.5756399999999999
1761941373 -0.033279333333333334 -0.576252
1763422304 -0.03131333333333333 -0.5755293333333333
1764903235 -0.034304666666666664 -0.5740183333333333
1766384166 -0.03265666666666667 -0.5728463333333332
1767865097 -0.034371 -0.5716166666666667
1769346028 -0.03286699999999999 -0.5700683333333333
1770826959 -0.03430799999999999 -0.5688623333333332
1772307890 -0.03363166666666666 -0.565797
1773788821 -0.03617033333333333 -0.5631189999999999
1775269752 -0.035540999999999996 -0.5634336666666666
1776750683 -0.037632 -0.5668536666666667
1778231614 -0.034414 -0.5705499999999999
1779712545 -0.035478333333333334 -0.5723659999999999
1781193476 -0.035902666666666666 -0.573588
1782674407 -0.03620366666666667 -0.5755336666666666
1784155338 -0.038668666666666664 -0.5766843333333334
1785636269 -0.03968933333333333 -0.576219
1787117200 -0.03756166666666666 -0.5783486666666666
1788598131 -0.038331333333333335 -0.5782036666666667
1790079062 -0.03771133333333333 -0.576885
1791559993 -0.035983333333333326 -0.5781526666666666
1793040924 -0.03561466666666667 -0.576673
1794521855 -0.035603333333333334 -0.5775809999999999
1796002786 -0.035007666666666666 -0.5755306666666666
1797483717 -0.03494133333333333 -0.5744106666666666
1798964648 -0.03469833333333333 -0.5715913333333332
1800445579 -0.03546066666666667 -0.5705236666666667
1801926510 -0.03602033333333333 -0.5666833333333333
1803407441 -0.03332399999999999 -0.5653349999999999
1804888372 -0.03709099999999999 -0.5632436666666666
1806369303 -0.03340733333333333 -0.5673563333333332
1807850234 -0.035510999999999994 -0.5695136666666667
1809331165 -0.034807 -0.5728086666666666
1810812096 -0.031942 -0.5753923333333333
1812293027 -0.036717 -0.5745676666666666
1813773958 -0.038828666666666664 -0.5756169999999999
1815254889 -0.037804000000000004 -0.5787133333333332
1816735820 -0.03852966666666667 -0.5773196666666666
1818216751 -0.037026666666666666 -0.5771319999999999
1819697682 -0.04061033333333333 -0.5770853333333332
1821178613 -0.041390333333333335 -0.5788306666666667
1822659544 -0.040204 -0.5520769999999999
1824140475 -0.046029 -0.5719239999999999
1825621406 -0.038933999999999996 -0.5754496666666666
1827102337 -0.040423333333333325 -0.5752936666666667
1828583268 -0.03964499999999999 -0.5721206666666667
1830064199 -0.042499666666666665 -0.571633
1831545130 -0.04400966666666667 -0.5700993333333333
1833026061 -0.04337366666666666 -0.566271
1834506992 -0.04591566666666667 -0.566329
1835987923 -0.04544533333333334 -0.5694879999999999
1837468854 -0.046102333333333335 -0.571245
1838949785 -0.04544566666666666 -0.574764
1840430716 -0.046685000000000004 -0.5751516666666667
1841911647 -0.044826333333333336 -0.5760196666666666
1843392578 -0.045641333333333325 -0.5772423333333333
1844873509 -0.04670966666666666 -0.5793876666666666
1846354440 -0.04510666666666666 -0.5801186666666667
1847835371 -0.047794666666666666 -0.5791783333333334
1849316302 -0.043685 -0.5807053333333332
1850797233 -0.04377533333333333 -0.5793846666666665
1852278164 -0.04022633333333332 -0.580986
1853759095 -0.04690966666666666 -0.578459
1855240026 -0.045734 -0.5762913333333333
1856720957 -0.041691000000000006 -0.5754193333333333
1858201888 -0.046023666666666664 -0.574434
1859682819 -0.045832333333333336 -0.5716953333333332
1861163750 -0.048523 -0.5693086666666667
1862644681 -0.04520833333333333 -0.5673966666666667
1864125612 -0.04478133333333334 -0.5659646666666667
1865606543 -0.04480666666666667 -0.5680766666666666
1867087474 -0.047307666666666665 -0.5713053333333332
1868568405 -0.04839433333333333 -0.5738736666666666
1870049336 -0.046662666666666665 -0.5761643333333333
1871530267 -0.048421666666666655 -0.5750523333333333
1873011198 -0.050476999999999994 -0.5763603333333334
1874492129 -0.050442999999999995 -0.5789066666666667
1875973060 -0.03490033333333333 -0.5969603333333333
1877453991 -0.046472 -0.5830193333333333
1878934922 -0.04618566666666666 -0.5818173333333334
1880415853 -0.04837266666666666 -0.5814969999999999
1881896784 -0.045422 -0.5812456666666665
1883377715 -0.046987 -0.579664
1884858646 -0.045219999999999996 -0.581
1886339577 -0.047304 -0.5776373333333333
1887820508 -0.047112999999999995 -0.5771576666666666
1889301439 -0.046841333333333325 -0.5760213333333333
1890782370 -0.04657533333333333 -0.5732956666666666
1892263301 -0.045794 -0.5723159999999999
1893744232 -0.04901566666666666 -0.5689613333333333
1895225163 -0.049909666666666665 -0.5705856666666667
1896706094 -0.04903133333333333 -0.5729519999999999
1898187025 -0.054725 -0.574371
1899667956 -0.05523733333333334 -0.5757059999999999
1901148887 -0.05491433333333333 -0.5758336666666666
1902629818 -0.05403166666666667 -0.5775756666666666
1904110749 -0.05658866666666666 -0.5773249999999999
1905591680 -0.05033766666666667 -0.5799703333333333
1907072611 -0.05654566666666666 -0.5793593333333332
1908553542 -0.05622433333333333 -0.5783493333333334
1910034473 -0.05393100000000001 -0.5782619999999999
1911515404 -0.056907 -0.5786179999999999
1912996335 -0.05760766666666667 -0.5755443333333333
1914477266 -0.057939 -0.5758696666666666
1915958197 -0.057278333333333334 -0.5737796666666666
1917439128 -0.058580999999999994 -0.572631
1918920059 -0.05838966666666666 -0.5707523333333333
1920400990 -0.061793999999999995 -0.5690266666666666
1921881921 -0.059252 -0.5665769999999999
1923362852 -0.06244366666666666 -0.5646713333333333
1924843783 -0.06337633333333333 -0.56416
1926324714 -0.06478966666666666 -0.5664873333333333
1927805645 -0.062298 -0.5695919999999999
1929286576 -0.063202 -0.5706996666666666
1930767507 -0.06311499999999999 -0.5716913333333333
1932248438 -0.066978 -0.5752903333333333
1933729369 -0.06170199999999999 -0.575717
1935210300 -0.06461333333333333 -0.5764753333333333
1936691231 -0.06729266666666667 -0.5773309999999999
1938172162 -0.06675233333333333 -0.5767853333333333
1939653093 -0.06409733333333334 -0.577801
1941134024 -0.06809833333333333 -0.5767866666666667
1942614955 -0.06393099999999999 -0.577251
1944095886 -0.06608833333333333 -0.576234
1945576817 -0.06614133333333333 -0.5749353333333334
1947057748 -0.06419166666666666 -0.5733073333333333
1948538679 -0.06709666666666665 -0.5710089999999999
1950019610 -0.06564666666666666 -0.5695983333333333
1951500541 -0.06607733333333334 -0.5680506666666666
1952981472 -0.06790833333333332 -0.5654323333333333
1954462403 -0.06646333333333333 -0.5664933333333333
1955943334 -0.06756033333333333 -0.5687293333333332
1957424265 -0.06611766666666666 -0.5701843333333333
1958905196 -0.068764 -0.5725889999999999
1960386127 -0.070859 -0.5734846666666666
1961867058 -0.06653133333333333 -0.5760143333333333
1963347989 -0.06870433333333333 -0.5782223333333333
1964828920 -0.06789233333333333 -0.5779669999999999
1966309851 -0.06859333333333333 -0.5767883333333332
1967790782 -0.06731533333333334 -0.5783823333333333
1969271713 -0.07047166666666667 -0.5783226666666665
1970752644 -0.06499466666666666 -0.582906
1972233575 -0.07083766666666666 -0.5779873333333333
1973714506 -0.06932666666666666 -0.5769183333333332
1975195437 -0.06861933333333334 -0.575027
1976676368 -0.069698 -0.573912
1978157299 -0.06903166666666666 -0.5724903333333333
1979638230 -0.06865733333333332 -0.5699126666666666
1981119161 -0.0702 -0.56897
1982600092 -0.07007066666666667 -0.5667443333333333
1984081023 -0.06973133333333334 -0.5661913333333333
1985561954 -0.07134599999999999 -0.5677696666666666
1987042885 -0.071583 -0.570009
1988523816 -0.07154533333333332 -0.5715383333333333
1990004747 -0.07358533333333334 -0.573507
1991485678 -0.07664133333333334 -0.5757423333333334
1992966609 -0.07149333333333333 -0.5772839999999999
1994447540 -0.071769 -0.5777506666666666
1995928471 -0.07131666666666665 -0.5782886666666667
1997409402 -0.07358666666666666 -0.5784113333333334
1998890333 -0.07404533333333332 -0.5777539999999999
2000371264 -0.07253333333333334 -0.5786119999999999
2001852195 -0.07570433333333333 -0.5765469999999999
2003333126 -0.07295199999999999 -0.5781893333333333
2004814057 -0.07721299999999999 -0.5744623333333332
2006294988 -0.07063933333333333 -0.5739546666666666
2007775919 -0.07987133333333332 -0.5717639999999999
2009256850 -0.072102 -0.5707353333333334
2010737781 -0.08138133333333333 -0.5681676666666666
2012218712 -0.07561966666666667 -0.5668006666666666
2013699643 -0.08105633333333333 -0.5630556666666666
2015180574 -0.07608499999999999 -0.5677573333333333
2016661505 -0.08243133333333333 -0.568272
2018142436 -0.07503733333333332 -0.5722816666666667
2019623367 -0.08272066666666666 -0.5728453333333333
2021104298 -0.07878866666666667 -0.5756279999999999
2022585229 -0.08136433333333333 -0.5742590000000001
2024066160 -0.078481 -0.5789230000000001
2025547091 -0.08461733333333334 -0.576546
2027028022 -0.07782333333333333 -0.577401
2028508953 -0.084069 -0.5750143333333333
2029989884 -0.07886266666666666 -0.5794446666666666
2031470815 -0.08338566666666666 -0.574114
2032951746 -0.07796399999999999 -0.5759529999999999
2034432677 -0.08450266666666667 -0.5731543333333333
2035913608 -0.07826066666666666 -0.5755833333333333
2037394539 -0.08515833333333334 -0.5709506666666666
2038875470 -0.07842866666666666 -0.5697843333333333
2040356401 -0.08297566666666667 -0.5669056666666666
2041837332 -0.07993 -0.5674956666666666
2043318263 -0.08125733333333332 -0.561913
2044799194 -0.07796733333333333 -0.5665323333333332
2046280125 -0.084534 -0.5665419999999999
2047761056 -0.08379666666666666 -0.5693889999999999
2049241987 -0.08537566666666666 -0.5726183333333333
2050722918 -0.08547933333333332 -0.5723423333333333
2052203849 -0.08798566666666666 -0.5750033333333333
2053684780 -0.08596666666666666 -0.5750436666666667
2055165711 -0.087367 -0.5766506666666666
2056646642 -0.08767833333333333 -0.5772539999999999
2058127573 -0.0858 -0.576265
2059608504 -0.08870499999999999 -0.5763536666666665
2061089435 -0.08835166666666666 -0.576775
2062570366 -0.08817799999999999 -0.5758106666666666
2064051297 -0.08780733333333332 -0.5747329999999999
2065532228 -0.088756 -0.5743896666666667
2067013159 -0.087362 -0.5723339999999999
2068494090 -0.08890133333333333 -0.5704226666666665
2069975021 -0.08782066666666666 -0.5684326666666666
2071455952 -0.09044233333333332 -0.5657813333333332
2072936883 -0.08948633333333333 -0.5631066666666666
2074417814 -0.09026200000000001 -0.5638233333333332
2075898745 -0.091248 -0.568417
2077379676 -0.091211 -0.571088
2078860607 -0.092916 -0.572593
2080341538 -0.09153299999999999 -0.574531
2081822469 -0.09126599999999999 -0.5773276666666667
2083303400 -0.092669 -0.5793926666666667
2084784331 -0.091892 -0.581471
2086265262 -0.09213266666666667 -0.5791006666666667
2087746193 -0.093022 -0.5813536666666665
2089227124 -0.090441 -0.5833283333333333
2090708055 -0.09245966666666666 -0.579414
2092188986 -0.08843933333333333 -0.5804616666666667
2093669917 -0.090263 -0.5803873333333334
2095150848 -0.08835033333333334 -0.5800406666666666
2096631779 -0.086491 -0.5792673333333334
2098112710 -0.08759966666666666 -0.5780293333333333
2099593641 -0.087832 -0.576241
2101074572 -0.08855533333333333 -0.5724793333333332
2102555503 -0.087839 -0.570093
2104036434 -0.08509533333333333 -0.5710553333333334
2105517365 -0.08722866666666665 -0.5738409999999999
2106998296 -0.09004399999999999 -0.5770723333333333
2108479227 -0.089417 -0.5774966666666668
2109960158 -0.08990733333333334 -0.5771286666666666
2111441089 -0.09117166666666666 -0.579724
2112922020 -0.09152233333333333 -0.5798466666666666
2114402951 -0.08659533333333333 -0.5765676666666667
2115883882 -0.09167866666666666 -0.5810476666666666
2117364813 -0.094107 -0.5820253333333333
2118845744 -0.09300966666666667 -0.58071
2120326675 -0.09134333333333333 -0.5827326666666667
2121807606 -0.09361533333333334 -0.581121
2123288537 -0.09236433333333334 -0.580647
2124769468 -0.08895733333333333 -0.5798626666666666
2126250399 -0.08673900000000001 -0.5824653333333334
2127731330 -0.08984166666666667 -0.5770213333333333
2129212261 -0.09198466666666667 -0.5735330000000001
2130693192 -0.09053566666666665 -0.5740813333333332
2132174123 -0.09304366666666666 -0.5704733333333333
2133655054 -0.090617 -0.5721333333333334
2135135985 -0.09331400000000001 -0.5725526666666667
2136616916 -0.09138399999999999 -0.5738366666666666
2138097847 -0.09312 -0.5762393333333333
2139578778 -0.09392266666666667 -0.5765023333333332
2141059709 -0.09435233333333333 -0.578101
2142540640 -0.09640166666666666 -0.5824889999999999
2144021571 -0.09537533333333333 -0.5827136666666666
2145502502 -0.09274033333333333 -0.581155
2146983433 -0.09465599999999999 -0.5818563333333333
2148464364 -0.09451799999999999 -0.5806846666666666
2149945295 -0.09568366666666667 -0.580336
2151426226 -0.09524633333333334 -0.5776049999999999
2152907157 -0.09367199999999999 -0.578158
2154388088 -0.09306866666666665 -0.5776636666666667
2155869019 -0.09301766666666667 -0.5763536666666667
2157349950 -0.09557266666666667 -0.5736623333333333
2158830881 -0.091929 -0.5720286666666665
2160311812 -0.09607399999999999 -0.5702236666666667
2161792743 -0.09430766666666668 -0.5675673333333333
2163273674 -0.09567466666666669 -0.5650043333333334
2164754605 -0.094337 -0.5705323333333332
2166235536 -0.09381133333333332 -0.5731463333333333
2167716467 -0.098221 -0.571951
2169197398 -0.09822866666666666 -0.5732096666666666
2170678329 -0.10066133333333334 -0.577709
2172159260 -0.09820833333333334 -0.5778523333333333
2173640191 -0.098335 -0.5800583333333333
2175121122 -0.09732933333333334 -0.580754
2176602053 -0.08797333333333335 -0.604905
2178082984 -0.101463 -0.5792636666666666
2179563915 -0.09782133333333333 -0.5828226666666666
2181044846 -0.10196299999999998 -0.5811186666666666
2182525777 -0.09961333333333333 -0.5790903333333333
2184006708 -0.10277166666666666 -0.5792216666666667
2185487639 -0.10173666666666666 -0.576946
2186968570 -0.10257899999999999 -0.5762726666666667
2188449501 -0.102598 -0.5763560000000001
2189930432 -0.09904233333333334 -0.5743123333333333
2191411363 -0.10276933333333334 -0.572279
2192892294 -0.10195266666666666 -0.5687606666666667
2194373225 -0.10142933333333333 -0.573574
2195854156 -0.10349466666666665 -0.5737726666666667
2197335087 -0.102413 -0.580396
2198816018 -0.10253166666666666 -0.5776779999999999
2200296949 -0.10324666666666665 -0.5805206666666667
2201777880 -0.10414633333333334 -0.5802973333333333
2203258811 -0.10567733333333332 -0.5829446666666667
2204739742 -0.10652933333333332 -0.5823896666666666
2206220673 -0.10333300000000001 -0.5845516666666666
2207701604 -0.10608766666666665 -0.5832713333333333
2209182535 -0.10254933333333333 -0.5840146666666667
2210663466 -0.10283333333333333 -0.5842276666666666
2212144397 -0.101821 -0.5825969999999999
2213625328 -0.10442233333333334 -0.5819936666666666
2215106259 -0.10151333333333332 -0.5825306666666666
2216587190 -0.10039066666666666 -0.5798723333333333
2218068121 -0.10172166666666665 -0.5770286666666666
2219549052 -0.10242933333333333 -0.5769996666666666
2221029983 -0.10199166666666666 -0.5734199999999999
2222510914 -0.10296033333333333 -0.5709716666666667
2223991845 -0.105037 -0.5706473333333333
2225472776 -0.104271 -0.5732079999999999
2226953707 -0.10118666666666666 -0.5785403333333333
2228434638 -0.10659999999999999 -0.5768063333333333
2229915569 -0.10602566666666666 -0.579852
2231396500 -0.10694566666666666 -0.5791906666666666
2232877431 -0.10646 -0.5806713333333333
2234358362 -0.10837633333333332 -0.5820313333333332
2235839293 -0.10709433333333332 -0.5820386666666666
2237320224 -0.10967566666666667 -0.5825229999999999
2238801155 -0.10738699999999998 -0.5851596666666666
2240282086 -0.10980833333333331 -0.5816156666666666
2241763017 -0.104722 -0.5828336666666667
2243243948 -0.11086133333333333 -0.5805353333333333
2244724879 -0.11094066666666665 -0.578885
2246205810 -0.11033566666666667 -0.578822
2247686741 -0.10774799999999998 -0.577247
2249167672 -0.109958 -0.57488
2250648603 -0.11364966666666666 -0.572335
2252129534 -0.11548533333333333 -0.5688936666666666
2253610465 -0.11086866666666667 -0.5716806666666666
2255091396 -0.11103433333333332 -0.5733253333333334
2256572327 -0.11373699999999999 -0.5764003333333333
2258053258 -0.10793133333333334 -0.5771869999999999
2259534189 -0.11043133333333333 -0.5779376666666667
2261015120 -0.11324133333333333 -0.5794969999999999
2262496051 -0.11288933333333331 -0.5792053333333333
2263976982 -0.11129566666666665 -0.5797776666666667
2265457913 -0.111292 -0.5819893333333332
2266938844 -0.108392 -0.5839353333333333
2268419775 -0.11281300000000001 -0.581666
2269900706 -0.11027833333333333 -0.5833346666666667
2271381637 -0.11146033333333334 -0.5787836666666666
2272862568 -0.10829333333333332 -0.581062
2274343499 -0.10765466666666668 -0.5811443333333333
2275824430 -0.10646533333333333 -0.5787083333333333
2277305361 -0.11317133333333332 -0.5777366666666667
2278786292 -0.110008 -0.5719236666666667
2280267223 -0.10335433333333333 -0.5748706666666666
2281748154 -0.11514999999999999 -0.566877
2283229085 -0.10792866666666667 -0.5710643333333333
2284710016 -0.10713933333333332 -0.5729376666666667
2286190947 -0.11045266666666667 -0.5725373333333333
2287671878 -0.109072 -0.5767623333333332
2289152809 -0.10822433333333333 -0.5774143333333333
2290633740 -0.11359566666666666 -0.5789996666666666
2292114671 -0.10767633333333333 -0.5802256666666665
2293595602 -0.10774133333333333 -0.5817286666666666
2295076533 -0.10810733333333333 -0.5806266666666666
2296557464 -0.110384 -0.580927
2298038395 -0.10720533333333333 -0.5822756666666666
2299519326 -0.11315733333333333 -0.581454
2301000257 -0.10800833333333333 -0.579981
2302481188 -0.11491966666666667 -0.576902
2303962119 -0.10999666666666666 -0.5800123333333334
2305443050 -0.11827833333333333 -0.5757233333333334
2306923981 -0.11425666666666667 -0.574208
2308404912 -0.11147933333333333 -0.572116
2309885843 -0.11225366666666665 -0.57192
2311366774 -0.11699099999999998 -0.5684899999999999
2312847705 -0.11179866666666667 -0.5689746666666666
2314328636 -0.11594066666666665 -0.5703996666666666
2315809567 -0.11794233333333333 -0.5720186666666667
2317290498 -0.11443366666666667 -0.5721756666666666
2318771429 -0.11388433333333332 -0.5774166666666666
2320252360 -0.11402733333333333 -0.5791706666666667
2321733291 -0.11641866666666667 -0.5800133333333333
2323214222 -0.13496166666666665 -0.554681
2324695153 -0.11594433333333333 -0.5795376666666666
2326176084 -0.10953133333333333 -0.5802456666666667
2327657015 -0.11525966666666666 -0.5812566666666666
2329137946 -0.11415233333333333 -0.5804163333333332
2330618877 -0.11056233333333332 -0.5789733333333333
2332099808 -0.117283 -0.5804389999999999
2333580739 -0.11477766666666667 -0.5760379999999999
2335061670 -0.11420466666666665 -0.5751493333333333
2336542601 -0.11738566666666667 -0.5745483333333332
2338023532 -0.11472 -0.5736133333333333
2339504463 -0.11821099999999998 -0.5706746666666667
2340985394 -0.11910333333333334 -0.5698286666666667
2342466325 -0.120566 -0.5674113333333334
2343947256 -0.11976266666666666 -0.5679373333333333
2345428187 -0.12228766666666668 -0.5713226666666666
2346909118 -0.12308599999999999 -0.5730466666666666
2348390049 -0.12163333333333333 -0.573943
2349870980 -0.12493866666666667 -0.5782136666666666
2351351911 -0.12592533333333333 -0.5764883333333333
2352832842 -0.12092833333333333 -0.5787633333333333
2354313773 -0.122943 -0.581369
2355794704 -0.12658399999999997 -0.580903
2357275635 -0.12115 -0.5804253333333333
2358756566 -0.12116833333333332 -0.5819403333333333
2360237497 -0.12068566666666666 -0.5804386666666665
2361718428 -0.12311133333333332 -0.5793793333333332
2363199359 -0.124973 -0.579506
2364680290 -0.12797766666666666 -0.5809953333333333
2366161221 -0.12628966666666666 -0.5777950000000001
2367642152 -0.127378 -0.5767046666666666
2369123083 -0.12698899999999996 -0.5736276666666665
2370604014 -0.12689199999999998 -0.572936
2372084945 -0.124912 -0.5712473333333332
2373565876 -0.13204766666666667 -0.5725966666666666
2375046807 -0.12967166666666666 -0.5748273333333334
2376527738 -0.12802266666666667 -0.577082
2378008669 -0.132066 -0.5775413333333332
2379489600 -0.13236333333333333 -0.5794246666666667
2380970531 -0.1310083333333333 -0.5819259999999999
2382451462 -0.130308 -0.581676
2383932393 -0.12840599999999996 -0.5818846666666666
2385413324 -0.12722533333333333 -0.5834839999999999
2386894255 -0.12916399999999997 -0.5836106666666666
2388375186 -0.12903299999999998 -0.5856596666666666
2389856117 -0.13218266666666667 -0.5820706666666666
2391337048 -0.12796833333333332 -0.5817156666666667
2392817979 -0.12755233333333332 -0.5787826666666667
2394298910 -0.132521 -0.5799679999999998
2395779841 -0.12959566666666666 -0.5782213333333333
2397260772 -0.12788066666666667 -0.5753663333333333
2398741703 -0.12981399999999998 -0.571389
2400222634 -0.13126666666666664 -0.5724486666666666
2401703565 -0.13185033333333332 -0.5672276666666667
2403184496 -0.13239566666666666 -0.5702673333333332
2404665427 -0.134111 -0.5719869999999999
2406146358 -0.132691 -0.5722113333333333
2407627289 -0.12995633333333334 -0.5761993333333333
2409108220 -0.13121966666666665 -0.5744543333333333
2410589151 -0.13337933333333332 -0.579452
2412070082 -0.133987 -0.5792949999999999
2413551013 -0.13405599999999998 -0.5834619999999999
2415031944 -0.13507933333333333 -0.5798393333333333
2416512875 -0.13729433333333332 -0.5829526666666666
2417993806 -0.13464900000000002 -0.5779986666666665
2419474737 -0.15091533333333332 -0.5680186666666667
2420955668 -0.13467766666666664 -0.6088106666666666
2422436599 -0.135686 -0.5789179999999999
2423917530 -0.13284200000000002 -0.5765096666666666
2425398461 -0.13598133333333332 -0.5754579999999999
2426879392 -0.135505 -0.5746643333333332
2428360323 -0.1310906666666667 -0.5729703333333334
2429841254 -0.13530633333333333 -0.5708586666666666
2431322185 -0.13376366666666664 -0.56867
2432803116 -0.13541566666666666 -0.5670099999999999
2434284047 -0.13570366666666667 -0.5693343333333333
2435764978 -0.13595266666666664 -0.5726856666666666
2437245909 -0.136617 -0.571142
2438726840 -0.136536 -0.5743876666666665
2440207771 -0.13728666666666667 -0.5732086666666666
2441688702 -0.13776766666666665 -0.5768409999999999
2443169633 -0.13933199999999998 -0.5804193333333334
2444650564 -0.14002599999999998 -0.577557
2446131495 -0.1395303333333333 -0.5792579999999999
2447612426 -0.14016299999999998 -0.5769849999999999
2449093357 -0.13901766666666665 -0.576721
2450574288 -0.1418883333333333 -0.5771086666666667
2452055219 -0.1411923333333333 -0.5746253333333333
2453536150 -0.14256 -0.5746199999999999
2455017081 -0.13990433333333332 -0.5718393333333333
2456498012 -0.139876 -0.571566
2457978943 -0.14177166666666666 -0.568559
2459459874 -0.14120366666666667 -0.5657896666666666
2460940805 -0.14017366666666664 -0.5637693333333332
2462421736 -0.14287599999999998 -0.563947
2463902667 -0.14201 -0.5669713333333333
2465383598 -0.14078766666666664 -0.569132
2466864529 -0.1434393333333333 -0.5714453333333334
2468345460 -0.14082066666666665 -0.5723126666666667
2469826391 -0.14173166666666664 -0.5757786666666667
2471307322 -0.14241266666666666 -0.5746723333333333
2472788253 -0.14347166666666666 -0.5759433333333333
2474269184 -0.14618499999999998 -0.5682783333333333
2475750115 -0.140639 -0.5765149999999999
2477231046 -0.140238 -0.576364
2478711977 -0.12769966666666666 -0.5872166666666666
2480192908 -0.13879199999999997 -0.5764183333333334
2481673839 -0.136344 -0.5757653333333332
2483154770 -0.137629 -0.5767696666666666
2484635701 -0.13466499999999998 -0.574044
2486116632 -0.12883166666666668 -0.573901
2487597563 -0.13584866666666667 -0.5712696666666666
2489078494 -0.13482166666666665 -0.5671326666666666
2490559425 -0.132516 -0.564057
2492040356 -0.13102799999999998 -0.5640413333333334
2493521287 -0.13235199999999997 -0.5637803333333333
2495002218 -0.13522866666666666 -0.5666629999999999
2496483149 -0.13568233333333332 -0.5688493333333333
2497964080 -0.13340233333333334 -0.5727193333333334
2499445011 -0.14021566666666666 -0.5689446666666667
2500925942 -0.1397503333333333 -0.5704233333333333
2502406873 -0.13771866666666666 -0.5698426666666667
2503887804 -0.13909433333333332 -0.5735766666666666
2505368735 -0.13722066666666666 -0.5720126666666666
2506849666 -0.139654 -0.5721263333333333
2508330597 -0.14014266666666667 -0.5716996666666666
2509811528 -0.13911033333333334 -0.5726823333333333
2511292459 -0.14058833333333332 -0.5682713333333334
2512773390 -0.1389183333333333 -0.5685256666666666
2514254321 -0.14049799999999998 -0.5676523333333332
2515735252 -0.141861 -0.566255
2517216183 -0.13552099999999997 -0.5660943333333333
2518697114 -0.14013133333333333 -0.5632849999999999
2520178045 -0.1433296666666667 -0.5608113333333333
2521658976 -0.14063166666666665 -0.5596019999999999
2523139907 -0.14372200000000002 -0.5606789999999999
2524620838 -0.142346 -0.5610673333333334
2526101769 -0.1429873333333333 -0.5646466666666666
2527582700 -0.14887833333333333 -0.5668306666666666
2529063631 -0.147278 -0.5676153333333334
2530544562 -0.14579833333333334 -0.573312
2532025493 -0.14814166666666664 -0.5712446666666666
2533506424 -0.1503383333333333 -0.573147
2534987355 -0.151605 -0.5763516666666666
2536468286 -0.14984966666666666 -0.5757856666666666
2537949217 -0.15245766666666666 -0.5759583333333333
2539430148 -0.14934633333333333 -0.5766833333333332
2540911079 -0.15635933333333332 -0.5766303333333334
2542392010 -0.15166866666666667 -0.5782180000000001
2543872941 -0.156076 -0.5752953333333333
2545353872 -0.156776 -0.5732363333333332
2546834803 -0.15430066666666664 -0.5734073333333334
2548315734 -0.15409499999999998 -0.5730339999999999
2549796665 -0.15256966666666666 -0.5733853333333332
2551277596 -0.1520763333333333 -0.5719926666666666
2552758527 -0.15491966666666668 -0.5746089999999999
2554239458 -0.15458166666666667 -0.5750126666666666
2555720389 -0.15584899999999996 -0.576185
2557201320 -0.15675899999999998 -0.5796343333333334
2558682251 -0.15517066666666665 -0.5735333333333332
2560163182 -0.15394833333333335 -0.5814806666666668
2561644113 -0.15232066666666666 -0.5837479999999999
2563125044 -0.15619133333333332 -0.5795489999999999
2564605975 -0.15624666666666664 -0.5839693333333332
2566086906 -0.15617266666666665 -0.5809946666666667
2567567837 -0.152031 -0.5824423333333333
2569048768 -0.15457866666666664 -0.5826273333333334
2570529699 -0.16548666666666667 -0.5793736666666667
2572010630 -0.15224666666666667 -0.5812133333333334
2573491561 -0.14673666666666665 -0.5769233333333333
2574972492 -0.15405866666666668 -0.57362
2576453423 -0.148629 -0.5772726666666667
2577934354 -0.150251 -0.5711026666666666
2579415285 -0.151122 -0.5723666666666667
2580896216 -0.15043366666666663 -0.5734819999999999
2582377147 -0.15142033333333332 -0.5723986666666667
2583858078 -0.15063166666666666 -0.569596
2585339009 -0.15095733333333333 -0.5716636666666666
2586819940 -0.15149066666666666 -0.5717826666666667
2588300871 -0.149136 -0.5776983333333333
2589781802 -0.15009033333333333 -0.5748953333333332
2591262733 -0.15108699999999997 -0.5758246666666667
2592743664 -0.15237866666666666 -0.5784756666666666
2594224595 -0.15065433333333333 -0.5749723333333333
2595705526 -0.151694 -0.5734226666666666
2597186457 -0.15052633333333332 -0.5777813333333333
2598667388 -0.15214366666666662 -0.5697739999999999
2600148319 -0.15113466666666664 -0.5720653333333333
2601629250 -0.15086666666666665 -0.5715346666666666
2603110181 -0.15501066666666666 -0.5697963333333333
2604591112 -0.14796166666666666 -0.5720483333333333
2606072043 -0.15210233333333334 -0.5646666666666667
2607552974 -0.14898833333333333 -0.5641316666666667
2609033905 -0.14970766666666663 -0.5631869999999999
2610514836 -0.15306066666666665 -0.5606853333333333
2611995767 -0.154059 -0.5569753333333333
2613476698 -0.153255 -0.5621076666666667
2614957629 -0.15198233333333333 -0.562886
2616438560 -0.15648133333333333 -0.563475
2617919491 -0.1529643333333333 -0.5657913333333333
2619400422 -0.15265299999999998 -0.5675493333333332
2620881353 -0.15331666666666666 -0.5683516666666666
2622362284 -0.15531266666666665 -0.5697756666666667
2623843215 -0.155658 -0.5724546666666666
2625324146 -0.15600033333333332 -0.5660973333333332
2626805077 -0.15647866666666665 -0.5695533333333332
2628286008 -0.158184 -0.5688283333333333
2629766939 -0.157821 -0.565528
2631247870 -0.156936 -0.5669653333333333
2632728801 -0.15855999999999998 -0.5651409999999999
2634209732 -0.157159 -0.5672343333333333
2635690663 -0.163024 -0.5603426666666667
2637171594 -0.154123 -0.5669986666666667
2638652525 -0.15983466666666668 -0.5615086666666667
2640133456 -0.15275 -0.5624589999999999
2641614387 -0.16057966666666668 -0.556625
2643095318 -0.15608666666666665 -0.5634159999999999
2644576249 -0.16400599999999999 -0.5617596666666667
2646057180 -0.15646366666666667 -0.569113
2647538111 -0.170188 -0.563021
2649019042 -0.15635133333333331 -0.5707526666666667
2650499973 -0.16455933333333334 -0.5704813333333334
2651980904 -0.155298 -0.577495
2653461835 -0.16343766666666665 -0.569955
2654942766 -0.1558 -0.5763006666666666
2656423697 -0.16521366666666665 -0.5748696666666666
2657904628 -0.15658633333333333 -0.5774603333333334
2659385559 -0.16298533333333334 -0.5742583333333333
2660866490 -0.15518466666666664 -0.5750109999999999
2662347421 -0.1597183333333333 -0.5724983333333333
2663828352 -0.15835233333333332 -0.5763589999999998
2665309283 -0.1616193333333333 -0.5724743333333333
2666790214 -0.15808433333333333 -0.5714303333333333
2668271145 -0.160074 -0.5660913333333333
2669752076 -0.15418666666666664 -0.5697623333333333
2671233007 -0.16493233333333332 -0.564956
2672713938 -0.15763433333333332 -0.5718313333333334
2674194869 -0.16604366666666664 -0.5707646666666666
2675675800 -0.14644833333333335 -0.5797896666666666
2677156731 -0.15820266666666666 -0.5722926666666666
2678637662 -0.15505599999999997 -0.5825016666666666
2680118593 -0.15953066666666665 -0.5811393333333333
2681599524 -0.146826 -0.5872629999999999
2683080455 -0.15908699999999998 -0.5811059999999999
2684561386 -0.14724466666666663 -0.58697
2686042317 -0.14697266666666667 -0.5860626666666666
2687523248 -0.14861433333333332 -0.5826793333333332
2689004179 -0.14933833333333335 -0.5826813333333334
2690485110 -0.14187433333333332 -0.582463
2691966041 -0.14740766666666666 -0.5782123333333333
2693446972 -0.1442923333333333 -0.5773579999999999
2694927903 -0.142899 -0.5779076666666666
2696408834 -0.1399953333333333 -0.5739713333333334
2697889765 -0.14565299999999998 -0.5681703333333332
2699370696 -0.14470933333333336 -0.5676359999999999
2700851627 -0.144262 -0.5672159999999999
2702332558 -0.1489113333333333 -0.5670336666666667
2703813489 -0.14448766666666665 -0.5682456666666666
2705294420 -0.1434273333333333 -0.5700336666666665
2706775351 -0.15271366666666664 -0.5743256666666667
2708256282 -0.14457133333333333 -0.5739239999999999
2709737213 -0.1455263333333333 -0.5758816666666666
2711218144 -0.15211966666666665 -0.5743976666666666
2712699075 -0.150486 -0.5778653333333332
2714180006 -0.15072866666666665 -0.5742586666666667
2715660937 -0.14959733333333333 -0.575513
2717141868 -0.15405766666666665 -0.5734986666666666
2718622799 -0.1742973333333333 -0.552886
2720103730 -0.1543223333333333 -0.573647
2721584661 -0.15260033333333334 -0.5790403333333334
2723065592 -0.15119133333333334 -0.5726156666666666
2724546523 -0.15959466666666666 -0.569583
2726027454 -0.155709 -0.5707376666666666
2727508385 -0.15267066666666665 -0.5674303333333334
2728989316 -0.15851066666666666 -0.5627169999999999
2730470247 -0.15935333333333335 -0.5618563333333333
2731951178 -0.165856 -0.5671173333333333
2733432109 -0.15974266666666664 -0.5678583333333332
2734913040 -0.16203233333333333 -0.5677293333333333
2736393971 -0.1598943333333333 -0.5679836666666667
2737874902 -0.16220833333333332 -0.5702543333333332
2739355833 -0.168172 -0.5727166666666667
2740836764 -0.16562333333333334 -0.573893
2742317695 -0.166806 -0.5737123333333334
2743798626 -0.16262466666666664 -0.5745356666666667
2745279557 -0.16887633333333332 -0.5778563333333333
2746760488 -0.16564133333333333 -0.57824
2748241419 -0.16884866666666665 -0.578699
2749722350 -0.16213866666666668 -0.5736593333333333
2751203281 -0.16719699999999998 -0.5743309999999999
2752684212 -0.16763 -0.5762243333333333
2754165143 -0.16855633333333334 -0.5737223333333333
2755646074 -0.16735733333333336 -0.5694523333333332
2757127005 -0.16345866666666667 -0.5705149999999999
2758607936 -0.16718166666666667 -0.5644203333333333
2760088867 -0.16362566666666664 -0.564785
2761569798 -0.16313133333333332 -0.5605296666666667
2763050729 -0.16557899999999998 -0.5699876666666667
2764531660 -0.16400533333333334 -0.5715356666666667
2766012591 -0.17043333333333335 -0.573963
2767493522 -0.163825 -0.5718599999999999
2768974453 -0.165075 -0.5741723333333333
2770455384 -0.17030133333333333 -0.5764586666666666
2771936315 -0.17482899999999996 -0.572646
2773417246 -0.16153866666666666 -0.5791756666666666
2774898177 -0.167117 -0.5764493333333333
2776379108 -0.15449166666666664 -0.581887
2777860039 -0.162859 -0.5761256666666666
2779340970 -0.15762500000000002 -0.5773246666666667
2780821901 -0.16448566666666667 -0.5790169999999999
2782302832 -0.16303866666666667 -0.5762496666666665
2783783763 -0.1629213333333333 -0.5732679999999999
2785264694 -0.15497499999999997 -0.5724356666666666
2786745625 -0.15541699999999997 -0.5709453333333334
2788226556 -0.15964433333333333 -0.568727
2789707487 -0.1588426666666667 -0.5640276666666666
2791188418 -0.15848633333333334 -0.5660096666666666
2792669349 -0.15761766666666666 -0.563779
2794150280 -0.15995966666666667 -0.566459
2795631211 -0.1574023333333333 -0.5675243333333333
2797112142 -0.163238 -0.5676436666666667
2798593073 -0.160243 -0.570322
2800074004 -0.16594299999999998 -0.5760116666666667
2801554935 -0.16684499999999997 -0.5756446666666666
2803035866 -0.163542 -0.5725456666666666
2804516797 -0.16272233333333333 -0.5760883333333333
2805997728 -0.16673799999999997 -0.5775286666666666
2807478659 -0.16159799999999996 -0.5709036666666667
2808959590 -0.16452666666666665 -0.5732303333333332
2810440521 -0.16348433333333334 -0.5719526666666666
2811921452 -0.16412633333333332 -0.5728923333333333
2813402383 -0.158821 -0.5740846666666667
2814883314 -0.1612593333333333 -0.5712066666666666
2816364245 -0.16207466666666667 -0.5699836666666667
2817845176 -0.16590066666666664 -0.5674663333333332
2819326107 -0.159887 -0.5626196666666666
2820807038 -0.1586783333333333 -0.5710443333333333
2822287969 -0.16129866666666665 -0.5710353333333333
2823768900 -0.166157 -0.5720146666666667
2825249831 -0.16842866666666667 -0.57352
2826730762 -0.16461466666666663 -0.580218
2828211693 -0.16655533333333333 -0.5762126666666667
2829692624 -0.1653903333333333 -0.576492
2831173555 -0.16548833333333335 -0.5834796666666666
2832654486 -0.16351699999999997 -0.5781593333333334
2834135417 -0.16238333333333332 -0.580675
2835616348 -0.16372066666666665 -0.5834663333333332
2837097279 -0.16436633333333334 -0.5758243333333333
2838578210 -0.16388133333333332 -0.5765366666666667
2840059141 -0.16642966666666664 -0.5777076666666666
2841540072 -0.16713533333333333 -0.5803736666666667
2843021003 -0.16183833333333333 -0.5742213333333333
2844501934 -0.16833466666666666 -0.574186
2845982865 -0.16129233333333332 -0.571212
2847463796 -0.16357533333333332 -0.5682756666666666
2848944727 -0.16234733333333332 -0.569877
2850425658 -0.163188 -0.5646503333333334
2851906589 -0.16649533333333333 -0.5644233333333333
2853387520 -0.1660623333333333 -0.5656736666666666
2854868451 -0.1643 -0.5695543333333333
2856349382 -0.16186033333333333 -0.5693226666666666
2857830313 -0.16613699999999998 -0.5709230000000001
2859311244 -0.16459066666666666 -0.5738013333333334
2860792175 -0.16453766666666664 -0.5777563333333333
2862273106 -0.16756833333333332 -0.5702683333333334
2863754037 -0.1656043333333333 -0.5703829999999999
2865234968 -0.16939133333333328 -0.5700176666666666
2866715899 -0.16707133333333335 -0.5690363333333333
2868196830 -0.16768266666666665 -0.5700396666666667
2869677761 -0.169431 -0.5672196666666666
2871158692 -0.16744000000000003 -0.5636329999999999
2872639623 -0.16834733333333332 -0.562582
2874120554 -0.16918533333333333 -0.5596176666666666
2875601485 -0.16942866666666667 -0.5591783333333333
2877082416 -0.1706203333333333 -0.5582143333333334
2878563347 -0.17043366666666665 -0.5551246666666666
2880044278 -0.16722533333333334 -0.5523086666666666
2881525209 -0.17061266666666666 -0.5519626666666666
2883006140 -0.17291866666666666 -0.5554573333333332
2884487071 -0.17006266666666664 -0.558544
2885968002 -0.17272866666666667 -0.5608576666666666
2887448933 -0.17177699999999999 -0.562389
2888929864 -0.170981 -0.5628963333333333
2890410795 -0.1733903333333333 -0.5664686666666667
2891891726 -0.17395866666666665 -0.5675293333333333
2893372657 -0.16844166666666666 -0.5666033333333332
2894853588 -0.17176899999999998 -0.5682963333333333
2896334519 -0.16803566666666664 -0.570764
2897815450 -0.16930333333333336 -0.5700623333333333
2899296381 -0.17120799999999997 -0.5683503333333333
2900777312 -0.1697523333333333 -0.5685143333333333
2902258243 -0.16978266666666667 -0.5676593333333333
2903739174 -0.17075833333333335 -0.5672119999999999
2905220105 -0.1685813333333333 -0.5664853333333333
2906701036 -0.16809966666666665 -0.5631963333333333
2908181967 -0.166314 -0.563631
2909662898 -0.16529499999999997 -0.562198
2911143829 -0.16563133333333332 -0.560805
2912624760 -0.17007966666666666 -0.5611956666666666
2914105691 -0.168497 -0.563793
2915586622 -0.16785133333333335 -0.5632443333333332
2917067553 -0.170551 -0.565561
2918548484 -0.16649133333333332 -0.5664879999999999
2920029415 -0.17164133333333334 -0.5664546666666667
2921510346 -0.17253233333333334 -0.5686726666666666
2922991277 -0.17114366666666664 -0.5689439999999999
2924472208 -0.17104533333333333 -0.5679573333333333
2925953139 -0.172666 -0.5664053333333333
2927434070 -0.173361 -0.5655429999999999
2928915001 -0.17360166666666665 -0.5642383333333332
2930395932 -0.17383633333333331 -0.5623549999999999
2931876863 -0.17446433333333333 -0.563865
2933357794 -0.174925 -0.5607169999999999
2934838725 -0.17600300000000002 -0.5610506666666666
2936319656 -0.17324999999999996 -0.5580703333333332
2937800587 -0.17518666666666666 -0.5546699999999999
2939281518 -0.17715099999999998 -0.555731
2940762449 -0.17965366666666666 -0.5499666666666666
2942243380 -0.17982599999999999 -0.55457
2943724311 -0.180202 -0.5565833333333333
2945205242 -0.17917233333333332 -0.5566843333333333
2946686173 -0.1792693333333333 -0.5596716666666667
2948167104 -0.17830799999999997 -0.5617836666666667
2949648035 -0.17982966666666667 -0.5601193333333334
2951128966 -0.180793 -0.5593213333333333
2952609897 -0.18041533333333332 -0.5618733333333333
2954090828 -0.17954466666666669 -0.5629173333333333
2955571759 -0.18334633333333333 -0.5625673333333333
2957052690 -0.18106533333333333 -0.5611470000000001
2958533621 -0.17786033333333331 -0.5575563333333333
2960014552 -0.17504866666666666 -0.5612303333333333
2961495483 -0.17681099999999997 -0.5578896666666666
2962976414 -0.17732066666666668 -0.556476
2964457345 -0.17528866666666668 -0.5544013333333333
2965938276 -0.17416700000000002 -0.5541146666666666
2967419207 -0.17671833333333334 -0.5490646666666665
2968900138 -0.17387566666666665 -0.5464876666666667
2970381069 -0.17594933333333332 -0.5446713333333333
2971862000 -0.17220366666666664 -0.5482896666666666
2973342931 -0.1769683333333333 -0.5512556666666667
2974823862 -0.1762763333333333 -0.5556773333333334
2976304793 -0.175516 -0.5523976666666666
2977785724 -0.17640166666666662 -0.554821
2979266655 -0.17868900000000001 -0.556942
2980747586 -0.17405033333333333 -0.5584439999999999
2982228517 -0.17649699999999996 -0.5582213333333332
2983709448 -0.17561933333333335 -0.5556773333333332
2985190379 -0.177527 -0.5572463333333333
2986671310 -0.17848699999999998 -0.5561633333333332
2988152241 -0.17377333333333334 -0.5586719999999998
2989633172 -0.17212033333333335 -0.557547
2991114103 -0.17823100000000003 -0.5547266666666666
2992595034 -0.17309366666666665 -0.55158
2994075965 -0.17295466666666665 -0.5532183333333333
2995556896 -0.171344 -0.5565656666666666
2997037827 -0.1727783333333333 -0.5484159999999999
2998518758 -0.165841 -0.5520256666666665
2999999689 -0.170427 -0.5457106666666667
