# HZ S RI R 50
10000000 0.7767333333333332 -0.012001
11480931 0.7776993333333333 -0.014422666666666667
12961862 0.7782903333333332 -0.017138
14442793 0.7801003333333332 -0.019067
15923724 0.7820766666666668 -0.021375333333333333
17404655 0.7838536666666667 -0.023785
18885586 0.7857423333333333 -0.02587266666666667
20366517 0.7866326666666665 -0.028912333333333335
21847448 0.7878363333333334 -0.030263666666666664
23328379 0.7887106666666666 -0.031463
24809310 0.788785 -0.032094333333333336
26290241 0.789234 -0.034729666666666666
27771172 0.7892316666666666 -0.03578133333333333
29252103 0.7885313333333334 -0.03655666666666667
30733034 0.7871643333333332 -0.03661333333333333
32213965 0.7866256666666667 -0.03726233333333333
33694896 0.7845893333333334 -0.038287999999999996
35175827 0.7829713333333332 -0.023296333333333336
36656758 0.7799556666666666 -0.04928566666666666
38137689 0.7775713333333332 -0.040926
39618620 0.7751449999999999 -0.04141566666666666
41099551 0.7768409999999999 -0.03725266666666666
42580482 0.7790226666666666 -0.047238666666666665
44061413 0.7810573333333333 -0.06572433333333333
45542344 0.7839669999999999 -0.04123966666666666
47023275 0.783219 -0.06336033333333332
48504206 0.7881203333333333 -0.032223666666666664
49985137 0.7895620000000001 -0.049320333333333334
51466068 0.7902963333333333 -0.05934533333333333
52946999 0.7895066666666667 -0.06879333333333333
54427930 0.7902396666666667 -0.06246366666666667
55908861 0.7903773333333334 -0.06428599999999998
57389792 0.7902076666666666 -0.05567033333333333
58870723 0.7879476666666667 -0.08173533333333333
60351654 0.788354 -0.06689099999999999
61832585 0.7866753333333333 -0.06847133333333333
63313516 0.7841696666666667 -0.07105566666666666
64794447 0.7823233333333333 -0.07019566666666666
66275378 0.7761736666666668 -0.10000733333333334
67756309 0.7722906666666667 -0.10972933333333332
69237240 0.7736063333333334 -0.07255566666666666
70718171 0.7754200000000001 -0.052645333333333336
72199102 0.7688329999999999 -0.1305673333333333
73680033 0.7782383333333334 -0.08002266666666666
75160964 0.7836796666666667 -0.024679666666666662
76641895 0.7818109999999999 -0.08351233333333333
78122826 0.7830459999999999 -0.08540533333333333
79603757 0.7888090000000001 -0.03365833333333333
81084688 0.7901356666666667 0.013986666666666665
82565619 0.7850406666666667 -0.09095199999999999
84046550 0.7859219999999999 -0.091561
85527481 0.7845513333333334 -0.109758
87008412 0.785336 -0.09523999999999999
88489343 0.7806576666666666 -0.11391399999999999
89970274 0.7803386666666667 -0.11199466666666665
91451205 0.7806259999999999 -0.098915
92932136 0.7775683333333332 -0.10666266666666666
94413067 0.7781223333333332 -0.08923633333333332
95893998 0.7755616666666666 -0.101539
97374929 0.7722363333333333 -0.09973933333333332
98855860 0.7685453333333332 -0.10401633333333334
100336791 0.7689746666666666 -0.10588399999999999
101817722 0.771083 -0.10829266666666666
103298653 0.7727253333333334 -0.11038833333333332
104779584 0.774129 -0.11274566666666666
106260515 0.7756156666666666 -0.11465066666666665
107741446 0.7785136666666667 -0.11680666666666667
109222377 0.7790586666666666 -0.11711533333333332
110703308 0.7806479999999999 -0.11929233333333333
112184239 0.7806053333333332 -0.12069233333333332
113665170 0.780402 -0.12133699999999999
115146101 0.7800653333333332 -0.12290633333333331
116627032 0.7805126666666666 -0.12501766666666664
118107963 0.7797856666666667 -0.12594266666666665
119588894 0.7785203333333334 -0.12688
121069825 0.7770619999999999 -0.12765766666666667
122550756 0.7752406666666666 -0.12791133333333332
124031687 0.7737643333333333 -0.12922499999999998
125512618 0.7704966666666666 -0.13069066666666668
126993549 0.7690473333333334 -0.13118366666666664
128474480 0.7660473333333334 -0.13303733333333334
129955411 0.7640653333333334 -0.13377366666666665
131436342 0.767444 -0.13588
132917273 0.7702403333333333 -0.13820966666666668
134398204 0.7734576666666666 -0.13991299999999998
135879135 0.7627806666666667 -0.1476073333333333
137360066 0.7646103333333333 -0.14992499999999997
138840997 0.7668616666666666 -0.1512943333333333
140321928 0.7690376666666667 -0.15198733333333334
141802859 0.7694906666666667 -0.15392
143283790 0.7701223333333332 -0.15450999999999998
144764721 0.7701379999999999 -0.15609066666666666
146245652 0.7703193333333332 -0.15654366666666664
147726583 0.770511 -0.15803133333333333
149207514 0.7704086666666666 -0.158364
150688445 0.7690243333333333 -0.159022
152169376 0.767903 -0.159148
153650307 0.7656333333333333 -0.16032366666666667
155131238 0.7644149999999998 -0.161098
156612169 0.762105 -0.16181633333333334
158093100 0.7593703333333333 -0.16240699999999997
159574031 0.7573209999999999 -0.16297266666666665
161054962 0.7597356666666666 -0.16546999999999998
162535893 0.7628459999999999 -0.16674866666666666
164016824 0.7640333333333333 -0.169697
165497755 0.7654836666666667 -0.171395
166978686 0.7674413333333333 -0.17309
168459617 0.768655 -0.17476433333333333
169940548 0.7694923333333332 -0.175882
171421479 0.7693556666666665 -0.17731333333333332
172902410 0.7705453333333333 -0.17959533333333333
174383341 0.7705449999999999 -0.180199
175864272 0.7696796666666665 -0.18148066666666665
177345203 0.768534 -0.182855
178826134 0.7674643333333333 -0.18428899999999998
180307065 0.7661879999999999 -0.18469733333333332
181787996 0.7638526666666665 -0.18620133333333333
183268927 0.7616893333333332 -0.1865963333333333
184749858 0.7589750000000001 -0.18760066666666667
186230789 0.756297 -0.18958233333333332
187711720 0.7534876666666666 -0.19113633333333335
189192651 0.7497016666666667 -0.19257266666666667
190673582 0.7517853333333333 -0.19404
192154513 0.7541633333333333 -0.196881
193635444 0.7568316666666666 -0.19888066666666665
195116375 0.7581676666666667 -0.200013
196597306 0.7597903333333332 -0.20229533333333333
198078237 0.7611013333333334 -0.20329999999999998
199559168 0.7620229999999999 -0.20545433333333332
201040099 0.7630323333333333 -0.2069543333333333
202521030 0.7628559999999999 -0.20755366666666666
204001961 0.7627913333333334 -0.20922066666666667
205482892 0.7625096666666666 -0.21008366666666667
206963823 0.7615686666666666 -0.21101466666666668
208444754 0.7601336666666666 -0.21297133333333332
209925685 0.758859 -0.21349833333333335
211406616 0.756633 -0.215476
212887547 0.7539026666666666 -0.21631766666666666
214368478 0.7517596666666666 -0.21690366666666666
215849409 0.7496656666666666 -0.21766866666666665
217330340 0.7450366666666667 -0.21972099999999997
218811271 0.7417196666666667 -0.22053
220292202 0.7421393333333333 -0.22219599999999998
221773133 0.7452743333333333 -0.22455866666666663
223254064 0.747944 -0.22701833333333332
224734995 0.7502399999999999 -0.22881999999999997
226215926 0.7514459999999998 -0.23017266666666664
227696857 0.753133 -0.23335166666666665
229177788 0.7542683333333333 -0.23352966666666666
230658719 0.7551136666666667 -0.23608066666666666
232139650 0.7548036666666667 -0.2369573333333333
233620581 0.7527200000000001 -0.2426023333333333
235101512 0.7543 -0.23909266666666665
236582443 0.7539170000000001 -0.240448
238063374 0.7526993333333333 -0.240809
239544305 0.7512516666666667 -0.24184866666666666
241025236 0.7487946666666666 -0.24281933333333333
242506167 0.7458830000000001 -0.24439866666666665
243987098 0.7436006666666666 -0.245537
245468029 0.740613 -0.24610633333333332
246948960 0.7368606666666666 -0.24658599999999997
248429891 0.7334596666666666 -0.24738866666666665
249910822 0.7328033333333333 -0.24960666666666664
251391753 0.7354119999999998 -0.2526043333333333
252872684 0.7379156666666666 -0.25478399999999995
254353615 0.7402623333333334 -0.257089
255834546 0.7420896666666668 -0.25953766666666667
257315477 0.7435743333333333 -0.26072799999999996
258796408 0.7442016666666667 -0.2630206666666667
260277339 0.7456293333333333 -0.26428133333333326
261758270 0.7450046666666666 -0.26594233333333334
263239201 0.7456296666666665 -0.2671313333333333
264720132 0.7445359999999999 -0.26869466666666664
266201063 0.7445533333333333 -0.26981166666666667
267681994 0.7432406666666665 -0.2705316666666666
269162925 0.7415539999999999 -0.270699
270643856 0.740192 -0.2719636666666666
272124787 0.7379309999999999 -0.27330733333333335
273605718 0.7343946666666668 -0.27442900000000003
275086649 0.7313663333333333 -0.27491166666666667
276567580 0.7274516666666666 -0.275972
278048511 0.7241846666666666 -0.2758786666666666
279529442 0.7217013333333334 -0.27869866666666665
281010373 0.724836 -0.28130799999999995
282491304 0.7270709999999998 -0.28413666666666665
283972235 0.7286003333333333 -0.28595766666666667
285453166 0.7306519999999999 -0.2883096666666667
286934097 0.7328436666666667 -0.2903323333333333
288415028 0.733015 -0.2923933333333333
289895959 0.7344246666666666 -0.29296999999999995
291376890 0.7348653333333331 -0.295142
292857821 0.7350726666666666 -0.29604733333333333
294338752 0.7338546666666668 -0.29727166666666666
295819683 0.732974 -0.298101
297300614 0.73213 -0.29865400000000003
298781545 0.7304269999999999 -0.2994503333333333
300262476 0.7282089999999999 -0.3007883333333333
301743407 0.7259573333333332 -0.30114599999999997
303224338 0.723392 -0.3017006666666667
304705269 0.7199463333333332 -0.30197599999999997
306186200 0.7165169999999998 -0.302983
307667131 0.711787 -0.303181
309148062 0.7084663333333332 -0.30408766666666665
310628993 0.7113646666666666 -0.3064556666666666
312109924 0.7137736666666666 -0.3100246666666666
313590855 0.7163253333333334 -0.31186733333333333
315071786 0.7180346666666666 -0.315181
316552717 0.7195933333333333 -0.316887
318033648 0.7202003333333332 -0.3198543333333333
319514579 0.7219813333333334 -0.3208996666666667
320995510 0.7216670000000001 -0.32167766666666664
322476441 0.7218713333333332 -0.3230373333333333
323957372 0.7218783333333333 -0.3248413333333333
325438303 0.7209810000000001 -0.32561033333333333
326919234 0.7207693333333333 -0.3266213333333333
328400165 0.7185199999999999 -0.3279223333333333
329881096 0.7185389999999999 -0.32821866666666666
331362027 0.7147399999999999 -0.32833066666666666
332842958 0.7119826666666667 -0.3280006666666666
334323889 0.7090033333333334 -0.32889966666666665
335804820 0.7060046666666666 -0.328777
337285751 0.7027576666666666 -0.328795
338766682 0.698336 -0.32905433333333334
340247613 0.7361403333333333 -0.33101899999999995
341728544 0.7019043333333332 -0.335823
343209475 0.7032216666666666 -0.3388973333333333
344690406 0.7058263333333332 -0.34083566666666665
346171337 0.7062436666666666 -0.344506
347652268 0.7076596666666666 -0.345973
349133199 0.7082799999999999 -0.34743199999999996
350614130 0.707433 -0.35028033333333336
352095061 0.7077886666666666 -0.35120633333333334
353575992 0.7079789999999999 -0.35126166666666664
355056923 0.707341 -0.35306466666666664
356537854 0.7063323333333333 -0.3540256666666666
358018785 0.7046543333333333 -0.35457199999999994
359499716 0.7026300000000001 -0.3535499999999999
360980647 0.6999463333333333 -0.35436766666666664
362461578 0.6982536666666667 -0.355506
363942509 0.694064 -0.3563193333333333
365423440 0.6919879999999999 -0.35513966666666663
366904371 0.6878569999999999 -0.3552186666666666
368385302 0.6836116666666667 -0.35502833333333333
369866233 0.684499 -0.3578836666666666
371347164 0.6863203333333333 -0.36082400000000003
372828095 0.6878043333333334 -0.36360466666666663
374309026 0.6890483333333333 -0.36702066666666666
375789957 0.6905713333333333 -0.36921566666666666
377270888 0.6917693333333333 -0.37096133333333337
378751819 0.692145 -0.3730716666666667
380232750 0.6923543333333333 -0.37512366666666663
381713681 0.6924963333333333 -0.37556199999999995
383194612 0.6871456666666667 -0.384242
384675543 0.6911319999999999 -0.3786126666666667
386156474 0.6905993333333332 -0.37903166666666666
387637405 0.6892313333333334 -0.3787446666666666
389118336 0.6871546666666666 -0.380305
390599267 0.6859726666666666 -0.37965699999999997
392080198 0.6836416666666666 -0.38008966666666666
393561129 0.6804233333333333 -0.3803536666666667
395042060 0.677704 -0.37998766666666667
396522991 0.6741326666666666 -0.37868766666666664
398003922 0.6705749999999999 -0.3796253333333333
399484853 0.6703683333333333 -0.380612
400965784 0.671462 -0.384644
402446715 0.6721643333333334 -0.38675533333333334
403927646 0.673574 -0.3896176666666667
405408577 0.6756059999999999 -0.3923636666666666
406889508 0.6766973333333334 -0.393535
408370439 0.6773323333333333 -0.39647799999999994
409851370 0.6765336666666666 -0.39772199999999996
411332301 0.677179 -0.39897199999999994
412813232 0.676892 -0.4007413333333334
414294163 0.6763986666666666 -0.402312
415775094 0.6747889999999999 -0.4024823333333333
417256025 0.6749176666666666 -0.40280866666666665
418736956 0.6723679999999999 -0.40325833333333333
420217887 0.6714096666666667 -0.40338933333333327
421698818 0.6689783333333332 -0.4040423333333334
423179749 0.6664893333333333 -0.40391033333333326
424660680 0.6637279999999999 -0.40418199999999993
426141611 0.6606989999999999 -0.40438766666666665
427622542 0.6563323333333333 -0.4027936666666666
429103473 0.6559956666666666 -0.4032766666666666
430584404 0.6554746666666666 -0.40795499999999996
432065335 0.6577666666666666 -0.4088306666666666
433546266 0.6593423333333333 -0.412104
435027197 0.6608029999999999 -0.41388933333333333
436508128 0.662014 -0.4157926666666667
437989059 0.661546 -0.4190083333333333
439469990 0.6625209999999999 -0.4195496666666667
440950921 0.660623 -0.4206793333333333
442431852 0.6605006666666666 -0.422486
443912783 0.6603906666666666 -0.42374
445393714 0.6600333333333332 -0.42386233333333334
446874645 0.658865 -0.423948
448355576 0.657176 -0.42400166666666667
449836507 0.6541676666666667 -0.4249226666666666
451317438 0.6530206666666667 -0.4249053333333333
452798369 0.6504573333333333 -0.42401099999999997
454279300 0.6475246666666666 -0.42385433333333333
455760231 0.6444286666666665 -0.42331399999999997
457241162 0.6410399999999999 -0.4235313333333333
458722093 0.6374549999999999 -0.422817
460203024 0.6396346666666666 -0.4270493333333333
461683955 0.6419469999999999 -0.42760833333333337
463164886 0.6418429999999999 -0.43160133333333334
464645817 0.6467673333333332 -0.4308533333333333
466126748 0.6457073333333333 -0.43638099999999996
467607679 0.6487419999999999 -0.435114
469088610 0.64289 -0.443854
470569541 0.6494236666666666 -0.43764499999999995
472050472 0.6437496666666666 -0.44595199999999996
473531403 0.6493276666666667 -0.4402093333333333
475012334 0.6395676666666665 -0.452457
476493265 0.6479916666666666 -0.4419363333333333
477974196 0.6409723333333333 -0.449867
479455127 0.6457286666666666 -0.4419646666666666
480936058 0.6367663333333333 -0.44948299999999997
482416989 0.64135 -0.44156833333333334
483897920 0.6333616666666666 -0.44864099999999996
485378851 0.6409386666666667 -0.4392366666666666
486859782 0.6396136666666666 -0.4344403333333333
488340713 0.6302606666666667 -0.44048866666666664
489821644 0.630607 -0.44475766666666666
491302575 0.6324479999999999 -0.446906
492783506 0.6335556666666666 -0.449021
494264437 0.6350163333333333 -0.45170899999999997
495745368 0.634301 -0.45394333333333337
497226299 0.6361999999999999 -0.4558576666666666
498707230 0.636021 -0.4575453333333333
500188161 0.636566 -0.45829366666666665
501669092 0.6361356666666667 -0.45891266666666664
503150023 0.6350673333333333 -0.4610666666666666
504630954 0.6343156666666666 -0.46162233333333336
506111885 0.6322436666666666 -0.46102566666666667
507592816 0.6320766666666666 -0.4616913333333333
509073747 0.6270326666666667 -0.4648376666666666
510554678 0.6244123333333333 -0.46546333333333334
512035609 0.6218296666666667 -0.46482699999999993
513516540 0.6178603333333333 -0.4653313333333333
514997471 0.615359 -0.46470966666666663
516478402 0.612123 -0.46419699999999997
517959333 0.6093593333333334 -0.46345499999999995
519440264 0.6083506666666667 -0.4662463333333333
520921195 0.6101946666666667 -0.469512
522402126 0.6118939999999999 -0.47204199999999996
523883057 0.6134826666666667 -0.47452266666666665
525363988 0.6124936666666667 -0.47747366666666663
526844919 0.614252 -0.4783016666666667
528325850 0.6149009999999999 -0.4805623333333333
529806781 0.6146306666666667 -0.482425
531287712 0.6370803333333332 -0.4750493333333333
532768643 0.6136393333333332 -0.48452166666666663
534249574 0.6139553333333333 -0.4845449999999999
535730505 0.612007 -0.485224
537211436 0.6108343333333333 -0.485617
538692367 0.6091763333333333 -0.4861833333333333
540173298 0.6073826666666666 -0.48558900000000005
541654229 0.6050639999999998 -0.485609
543135160 0.6033536666666666 -0.483896
544616091 0.5997516666666667 -0.4843493333333333
546097022 0.5954109999999999 -0.4840643333333333
547577953 0.5918410000000001 -0.483838
549058884 0.5904659999999999 -0.4861663333333333
550539815 0.5928499999999999 -0.48744866666666664
552020746 0.5950696666666666 -0.49137233333333336
553501677 0.5947336666666667 -0.4946946666666666
554982608 0.5973393333333332 -0.496073
556463539 0.5981153333333332 -0.498894
557944470 0.5980796666666667 -0.5004963333333332
559425401 0.5982246666666666 -0.5023026666666667
560906332 0.5968676666666666 -0.503876
562387263 0.5978003333333333 -0.5043596666666665
563868194 0.5978859999999999 -0.5044396666666666
565349125 0.5966226666666666 -0.505932
566830056 0.5947023333333333 -0.5059899999999999
568310987 0.5941466666666666 -0.5059026666666666
569791918 0.5925293333333334 -0.5053226666666666
571272849 0.5902616666666667 -0.504609
572753780 0.5870733333333333 -0.50508
574234711 0.5836786666666667 -0.5038523333333333
575715642 0.580403 -0.5038066666666666
577196573 0.5769529999999999 -0.5034453333333333
578677504 0.5751593333333334 -0.5027849999999999
580158435 0.5769223333333333 -0.5071466666666666
581639366 0.578113 -0.5103373333333333
583120297 0.579583 -0.5131376666666666
584601228 0.5802783333333333 -0.5160619999999999
586082159 0.5801996666666666 -0.518231
587563090 0.581546 -0.5197926666666667
589044021 0.5808886666666666 -0.520988
590524952 0.581548 -0.5223493333333333
592005883 0.5806493333333334 -0.5226906666666666
593486814 0.5803346666666666 -0.5229733333333333
594967745 0.5785443333333333 -0.5249630000000001
596448676 0.5779169999999999 -0.5250456666666666
597929607 0.5768230000000001 -0.523605
599410538 0.5754993333333334 -0.5244896666666666
600891469 0.5719246666666666 -0.523962
602372400 0.5695106666666666 -0.5229703333333333
603853331 0.566691 -0.5217483333333334
605334262 0.5631339999999999 -0.5216883333333333
606815193 0.558611 -0.520767
608296124 0.5573306666666666 -0.519387
609777055 0.5586143333333333 -0.5229013333333332
611257986 0.5602326666666666 -0.5265943333333333
612738917 0.5609866666666666 -0.5299046666666667
614219848 0.5620083333333332 -0.5313806666666667
615700779 0.5626593333333333 -0.533917
617181710 0.562989 -0.5366863333333334
618662641 0.5635636666666666 -0.5389856666666666
620143572 0.5623763333333334 -0.5393356666666667
621624503 0.5633103333333332 -0.5415113333333333
623105434 0.5610323333333334 -0.542495
624586365 0.5608593333333333 -0.5437656666666666
626067296 0.560534 -0.5434183333333333
627548227 0.5584573333333334 -0.542858
629029158 0.5567613333333333 -0.5436323333333333
630510089 0.5524386666666666 -0.545206
631991020 0.552405 -0.5413933333333333
633471951 0.5498123333333332 -0.5410893333333333
634952882 0.547716 -0.5393373333333333
636433813 0.5439936666666667 -0.538436
637914744 0.5407586666666666 -0.5365336666666667
639395675 0.5418663333333332 -0.540968
640876606 0.5426243333333334 -0.5439216666666666
642357537 0.5431596666666666 -0.5470929999999999
643838468 0.5446519999999999 -0.5490676666666666
645319399 0.544721 -0.551466
646800330 0.5455096666666666 -0.5531713333333332
648281261 0.5452123333333333 -0.5552643333333332
649762192 0.5459206666666666 -0.5565226666666666
651243123 0.5422926666666666 -0.560219
652724054 0.5434916666666666 -0.558529
654204985 0.5421053333333332 -0.5582266666666666
655685916 0.5431343333333334 -0.5587143333333333
657166847 0.5420779999999998 -0.5585513333333333
658647778 0.5405296666666666 -0.5577376666666667
660128709 0.537566 -0.5573999999999999
661609640 0.535631 -0.5562286666666667
663090571 0.5334863333333333 -0.5555669999999999
664571502 0.5313216666666666 -0.5541673333333332
666052433 0.5277959999999999 -0.5526989999999999
667533364 0.5235343333333333 -0.5496283333333333
669014295 0.5252996666666666 -0.55111
670495226 0.5239369999999999 -0.5562066666666666
671976157 0.5262499999999999 -0.5596553333333333
673457088 0.52608 -0.563246
674938019 0.5259686666666666 -0.5640386666666666
676418950 0.5261796666666667 -0.5677293333333333
677899881 0.5297540000000001 -0.56622
679380812 0.5267546666666667 -0.5695736666666666
680861743 0.5304633333333333 -0.5687816666666666
682342674 0.52704 -0.571488
683823605 0.5279146666666665 -0.5695516666666666
685304536 0.5232426666666666 -0.5733146666666666
686785467 0.5268569999999999 -0.5706756666666666
688266398 0.5180473333333332 -0.5747726666666666
689747329 0.5241023333333332 -0.5698446666666667
691228260 0.5134696666666666 -0.5741259999999999
692709191 0.5197616666666667 -0.5670899999999999
694190122 0.5057296666666666 -0.574203
695671053 0.5144613333333332 -0.5638426666666666
697151984 0.503984 -0.5675939999999999
698632915 0.5102673333333333 -0.5659923333333332
700113846 0.5037749999999999 -0.5729353333333332
701594777 0.5113193333333333 -0.571923
703075708 0.5030979999999999 -0.5780743333333332
704556639 0.5115083333333333 -0.576209
706037570 0.5042059999999999 -0.5842783333333333
707518501 0.510965 -0.5801043333333333
708999432 0.5033619999999999 -0.5857939999999999
710480363 0.5096539999999999 -0.5836796666666666
711961294 0.5009973333333333 -0.5903893333333333
713442225 0.5095026666666667 -0.5846936666666667
714923156 0.5037613333333333 -0.5886853333333334
716404087 0.5047913333333334 -0.584993
717885018 0.49732000000000004 -0.590813
719365949 0.5024286666666666 -0.5856239999999999
720846880 0.49297066666666667 -0.5895619999999999
722327811 0.4974936666666666 -0.5841696666666666
723808742 0.4914113333333333 -0.585312
725289673 0.493278 -0.5810153333333333
726770604 0.48258333333333336 -0.5835509999999999
728251535 0.48750699999999997 -0.5811506666666666
729732466 0.4773143333333333 -0.5912933333333332
731213397 0.48568799999999995 -0.5894146666666666
732694328 0.48622299999999996 -0.5923603333333333
734175259 0.485199 -0.5958330000000001
735656190 0.486822 -0.5961623333333332
737137121 0.4869823333333333 -0.5978026666666666
738618052 0.48760866666666663 -0.600656
740098983 0.48690799999999995 -0.6005266666666667
741579914 0.4863483333333334 -0.6012253333333333
743060845 0.48613533333333325 -0.601501
744541776 0.48366033333333336 -0.6020213333333333
746022707 0.48485199999999995 -0.601421
747503638 0.48288999999999993 -0.6015893333333333
748984569 0.48202466666666666 -0.600025
750465500 0.477653 -0.6008076666666666
751946431 0.4767463333333333 -0.5990873333333333
753427362 0.47554166666666664 -0.5970006666666666
754908293 0.47329866666666665 -0.5963073333333333
756389224 0.47032933333333327 -0.5948436666666665
757870155 0.46727333333333326 -0.5939049999999999
759351086 0.46885899999999997 -0.59664
760832017 0.46940800000000005 -0.599512
762312948 0.4691256666666666 -0.6030803333333332
763793879 0.4683993333333333 -0.6060453333333333
765274810 0.4699703333333334 -0.6070416666666666
766755741 0.46975666666666666 -0.6094003333333333
768236672 0.46971033333333334 -0.6107523333333333
769717603 0.47011366666666665 -0.6111896666666665
771198534 0.4672563333333333 -0.6125183333333333
772679465 0.4685619999999999 -0.613119
774160396 0.4672206666666666 -0.6141843333333333
775641327 0.4655969999999999 -0.6143956666666666
777122258 0.4651243333333333 -0.61341
778603189 0.4641816666666666 -0.6113666666666666
780084120 0.46121066666666666 -0.6120786666666667
781565051 0.45876066666666665 -0.6107123333333333
783045982 0.45713433333333336 -0.609736
784526913 0.4541556666666666 -0.6098213333333333
786007844 0.4526213333333333 -0.6067686666666666
787488775 0.4474086666666667 -0.6054506666666666
788969706 0.448275 -0.6098979999999999
790450637 0.448785 -0.6122829999999999
791931568 0.4491493333333333 -0.6148396666666667
793412499 0.45007899999999995 -0.6176126666666667
794893430 0.450353 -0.6201486666666667
796374361 0.4501283333333333 -0.6217803333333334
797855292 0.44971666666666665 -0.624832
799336223 0.44924433333333325 -0.6259253333333332
800817154 0.44866800000000007 -0.626664
802298085 0.448468 -0.6267626666666666
803779016 0.4480903333333333 -0.6270013333333333
805259947 0.4479473333333333 -0.626666
806740878 0.44606233333333334 -0.6274823333333333
808221809 0.4435523333333333 -0.6263873333333333
809702740 0.442898 -0.6258483333333333
811183671 0.43983266666666665 -0.624798
812664602 0.4381733333333333 -0.6230436666666667
814145533 0.43554766666666656 -0.6216999999999999
815626464 0.43221066666666663 -0.6199636666666667
817107395 0.429066 -0.6189633333333333
818588326 0.430558 -0.6214826666666666
820069257 0.43116266666666664 -0.6243016666666666
821550188 0.43037366666666665 -0.6273709999999999
823031119 0.4313986666666666 -0.6301363333333333
824512050 0.4326556666666666 -0.6319133333333333
825992981 0.4316693333333333 -0.6350476666666667
827473912 0.4315703333333333 -0.6367313333333333
828954843 0.4321773333333333 -0.637241
830435774 0.432653 -0.6387079999999999
831916705 0.4312099999999999 -0.6391583333333333
833397636 0.43150033333333326 -0.6383009999999999
834878567 0.4303296666666666 -0.639831
836359498 0.42988633333333326 -0.6387076666666667
837840429 0.430988 -0.636316
839321360 0.4268316666666666 -0.6363489999999999
840802291 0.42425366666666664 -0.6359943333333333
842283222 0.4215756666666666 -0.634768
843764153 0.4213066666666666 -0.6315843333333333
845245084 0.4179963333333333 -0.629083
846726015 0.41358266666666665 -0.6291903333333333
848206946 0.4133246666666666 -0.6295646666666667
849687877 0.413568 -0.6331899999999999
851168808 0.4141306666666667 -0.6364479999999999
852649739 0.4129913333333333 -0.6388006666666666
854130670 0.41429666666666665 -0.64083
855611601 0.4145273333333333 -0.6433913333333333
857092532 0.413301 -0.6463579999999999
858573463 0.41480433333333333 -0.64696
860054394 0.4155143333333333 -0.646444
861535325 0.4128303333333333 -0.647426
863016256 0.4140253333333333 -0.6476826666666666
864497187 0.412116 -0.6486896666666666
865978118 0.4111293333333333 -0.6472533333333332
867459049 0.4096363333333333 -0.6467753333333333
868939980 0.407001 -0.6467459999999999
870420911 0.4075393333333333 -0.6447713333333333
871901842 0.40509766666666663 -0.6422683333333333
873382773 0.40118299999999996 -0.6426616666666667
874863704 0.3990363333333333 -0.6391073333333332
876344635 0.39665566666666663 -0.6367409999999999
877825566 0.3951779999999999 -0.6376926666666667
879306497 0.3959333333333333 -0.6408046666666666
880787428 0.3943776666666666 -0.6457653333333333
882268359 0.39387099999999997 -0.6484256666666666
883749290 0.394963 -0.6510153333333333
885230221 0.39485433333333325 -0.6536183333333333
886711152 0.3946233333333333 -0.6539783333333333
888192083 0.39318866666666663 -0.6574376666666666
889673014 0.3947263333333333 -0.657902
891153945 0.39420733333333335 -0.6572456666666666
892634876 0.39210900000000004 -0.659241
894115807 0.3933023333333333 -0.6594106666666666
895596738 0.3911733333333334 -0.659703
897077669 0.39217299999999994 -0.6586596666666666
898558600 0.39061733333333326 -0.6578436666666666
900039531 0.38806166666666664 -0.6568893333333333
901520462 0.3866266666666667 -0.655261
903001393 0.38457199999999997 -0.6528846666666667
904482324 0.38401 -0.6503743333333333
905963255 0.38042099999999995 -0.6494566666666667
907444186 0.3794716666666667 -0.6487643333333333
908925117 0.37817233333333333 -0.652643
910406048 0.3791576666666666 -0.6552623333333332
911886979 0.37972799999999995 -0.6572156666666666
913367910 0.3784136666666667 -0.6599646666666665
914848841 0.3797229999999999 -0.6619129999999999
916329772 0.3781906666666666 -0.6648673333333333
917810703 0.3781293333333333 -0.6648459999999999
919291634 0.37772933333333325 -0.6671266666666666
920772565 0.37913633333333335 -0.6668533333333333
922253496 0.37842166666666666 -0.6667719999999999
923734427 0.376466 -0.6676416666666666
925215358 0.3769286666666667 -0.6665603333333332
926696289 0.3756056666666666 -0.6662686666666666
928177220 0.37509899999999996 -0.6643126666666667
929658151 0.3728606666666666 -0.6635716666666667
931139082 0.37077699999999997 -0.662987
932620013 0.37042699999999995 -0.6599843333333333
934100944 0.36785499999999993 -0.6579766666666665
935581875 0.365567 -0.6555256666666667
937062806 0.36384299999999997 -0.6536946666666666
938543737 0.3632413333333333 -0.6572096666666667
940024668 0.36445533333333335 -0.6609506666666667
941505599 0.36254133333333327 -0.6642233333333333
942986530 0.364831 -0.6648353333333332
944467461 0.3623673333333333 -0.6680503333333334
945948392 0.36498366666666665 -0.6690563333333333
947429323 0.3630419999999999 -0.6713373333333333
948910254 0.36319633333333334 -0.6725573333333333
950391185 0.36278333333333335 -0.6730426666666667
951872116 0.36364633333333335 -0.6739573333333333
953353047 0.36199766666666666 -0.673074
954833978 0.3602443333333333 -0.6742383333333333
956314909 0.3603936666666667 -0.6742646666666667
957795840 0.35982433333333336 -0.6728656666666666
959276771 0.35931566666666664 -0.6721383333333333
960757702 0.3577873333333333 -0.671163
962238633 0.355969 -0.6695439999999999
963719564 0.3548286666666667 -0.6677393333333332
965200495 0.3523113333333333 -0.665662
966681426 0.3498813333333333 -0.6641353333333333
968162357 0.35088166666666665 -0.6669479999999999
969643288 0.35003866666666666 -0.66927
971124219 0.34922733333333333 -0.6720673333333332
972605150 0.35027699999999995 -0.673646
974086081 0.3501813333333333 -0.6760773333333333
975567012 0.3499 -0.6781419999999999
977047943 0.34965566666666664 -0.6791173333333334
978528874 0.3490583333333333 -0.6797429999999999
980009805 0.349672 -0.679676
981490736 0.348709 -0.6808323333333333
982971667 0.34675466666666666 -0.6803049999999999
984452598 0.346023 -0.6820486666666667
985933529 0.34590299999999996 -0.6808889999999999
987414460 0.35297866666666666 -0.6788086666666666
988895391 0.342487 -0.6805789999999999
990376322 0.34132933333333326 -0.6793800000000001
991857253 0.3398906666666666 -0.677732
993338184 0.3390093333333333 -0.6756270000000001
994819115 0.33731500000000003 -0.673265
996300046 0.3347336666666667 -0.6711326666666666
997780977 0.3342843333333333 -0.6721983333333333
999261908 0.33480066666666664 -0.6763883333333333
1000742839 0.3349816666666666 -0.6778316666666667
1002223770 0.3346146666666666 -0.6814356666666666
1003704701 0.33432699999999993 -0.6833233333333333
1005185632 0.33565366666666663 -0.6839503333333333
1006666563 0.3335126666666666 -0.6865853333333334
1008147494 0.3338156666666666 -0.686981
1009628425 0.33306366666666665 -0.6881803333333332
1011109356 0.332285 -0.6881693333333333
1012590287 0.33225399999999994 -0.6883153333333333
1014071218 0.3303563333333333 -0.6885783333333333
1015552149 0.33097966666666667 -0.6882693333333334
1017033080 0.32896833333333336 -0.687478
1018514011 0.327969 -0.6865296666666666
1019994942 0.32450433333333334 -0.6867729999999999
1021475873 0.325579 -0.682893
1022956804 0.3208546666666666 -0.6833466666666667
1024437735 0.3210483333333333 -0.6814916666666666
1025918666 0.31768466666666667 -0.6787056666666667
1027399597 0.3175596666666666 -0.680535
1028880528 0.31829799999999997 -0.683554
1030361459 0.31756433333333334 -0.6856623333333334
1031842390 0.31835233333333335 -0.6873506666666667
1033323321 0.31855 -0.6883193333333333
1034804252 0.3176616666666666 -0.6905159999999999
1036285183 0.31911766666666663 -0.692163
1037766114 0.31727533333333335 -0.6916726666666666
1039247045 0.318395 -0.6936463333333333
1040727976 0.3173336666666666 -0.6946473333333333
1042208907 0.3168106666666667 -0.6936580000000001
1043689838 0.31400066666666665 -0.6943739999999999
1045170769 0.312343 -0.6941769999999999
1046651700 0.312542 -0.6924116666666666
1048132631 0.3120213333333333 -0.6915423333333333
1049613562 0.30729166666666663 -0.6913406666666667
1051094493 0.30817399999999995 -0.6904723333333334
1052575424 0.3048153333333333 -0.6879580000000001
1054056355 0.3041736666666666 -0.6854626666666667
1055537286 0.30046466666666666 -0.6836183333333332
1057018217 0.3008173333333333 -0.6826136666666667
1058499148 0.300253 -0.6861889999999999
1059980079 0.30029866666666666 -0.6890443333333334
1061461010 0.30028999999999995 -0.6911896666666666
1062941941 0.301465 -0.6928676666666667
1064422872 0.30257066666666665 -0.6939723333333332
1065903803 0.301573 -0.6970183333333333
1067384734 0.30200933333333335 -0.6979916666666666
1068865665 0.3002666666666667 -0.6985486666666666
1070346596 0.302539 -0.6984536666666666
1071827527 0.300129 -0.6990633333333333
1073308458 0.300549 -0.6984686666666665
1074789389 0.298968 -0.697676
1076270320 0.29948766666666665 -0.6986753333333333
1077751251 0.297616 -0.6959853333333333
1079232182 0.288251 -0.6947479999999999
1080713113 0.294057 -0.6930733333333332
1082194044 0.29270466666666667 -0.6914306666666665
1083674975 0.29023333333333334 -0.6887079999999999
1085155906 0.2939466666666667 -0.6853676666666667
1086636837 0.28728966666666667 -0.685187
1088117768 0.28782166666666664 -0.687293
1089598699 0.28681433333333334 -0.691061
1091079630 0.28664066666666665 -0.6943136666666666
1092560561 0.28620766666666664 -0.6960936666666667
1094041492 0.28628299999999995 -0.6982976666666666
1095522423 0.28475799999999996 -0.7018933333333333
1097003354 0.286966 -0.7016053333333333
1098484285 0.284559 -0.703515
1099965216 0.28407166666666667 -0.704776
1101446147 0.28247866666666666 -0.7050046666666666
1102927078 0.2820263333333333 -0.705396
1104408009 0.2840563333333333 -0.7040253333333333
1105888940 0.2789156666666666 -0.7040916666666666
1107369871 0.27999466666666667 -0.7027666666666665
1108850802 0.2801093333333333 -0.7012356666666666
1110331733 0.27628433333333324 -0.7011486666666666
1111812664 0.2750503333333333 -0.6980546666666667
1113293595 0.2733193333333333 -0.6969813333333332
1114774526 0.2707563333333333 -0.6946023333333333
1116255457 0.2678236666666667 -0.6936886666666667
1117736388 0.26691566666666666 -0.6959283333333334
1119217319 0.2674856666666666 -0.6979979999999999
1120698250 0.268457 -0.7005646666666665
1122179181 0.26734566666666665 -0.7034046666666667
1123660112 0.2684213333333333 -0.7045179999999999
1125141043 0.2687786666666666 -0.7072249999999999
1126621974 0.26525499999999996 -0.7085189999999999
1128102905 0.267231 -0.708058
1129583836 0.265015 -0.7098236666666666
1131064767 0.26227066666666665 -0.7100526666666666
1132545698 0.2628073333333333 -0.7106496666666665
1134026629 0.26333266666666666 -0.7095483333333333
1135507560 0.2612283333333333 -0.7101666666666666
1136988491 0.26172433333333334 -0.7082396666666667
1138469422 0.24928366666666668 -0.7059799999999999
1139950353 0.25762599999999997 -0.7042456666666667
1141431284 0.2558276666666666 -0.7016893333333334
1142912215 0.25394866666666666 -0.700236
1144393146 0.2506983333333333 -0.6977059999999999
1145874077 0.24847233333333332 -0.695753
1147355008 0.247756 -0.697127
1148835939 0.24444233333333334 -0.7014846666666666
1150316870 0.24669433333333335 -0.7042136666666666
1151797801 0.2467073333333333 -0.7071666666666667
1153278732 0.24836799999999998 -0.709897
1154759663 0.24676599999999999 -0.7113876666666666
1156240594 0.24723999999999996 -0.7126183333333334
1157721525 0.246062 -0.7143133333333334
1159202456 0.247224 -0.7146756666666666
1160683387 0.246331 -0.7161253333333333
1162164318 0.2462956666666667 -0.7156883333333333
1163645249 0.24625233333333332 -0.7157156666666666
1165126180 0.24470866666666669 -0.7158476666666665
1166607111 0.24227766666666667 -0.713306
1168088042 0.24265433333333333 -0.7137359999999999
1169568973 0.24190499999999998 -0.7117456666666666
1171049904 0.23923066666666665 -0.709975
1172530835 0.238502 -0.708364
1174011766 0.236845 -0.7055873333333333
1175492697 0.23399400000000004 -0.7028036666666666
1176973628 0.23310033333333335 -0.703112
1178454559 0.23312766666666668 -0.705834
1179935490 0.23347933333333332 -0.7096936666666667
1181416421 0.22931733333333332 -0.7124609999999999
1182897352 0.23201799999999997 -0.7143056666666665
1184378283 0.23047866666666664 -0.717698
1185859214 0.23651166666666668 -0.7177696666666666
1187340145 0.23080466666666669 -0.7188233333333334
1188821076 0.237879 -0.7181733333333332
1190302007 0.22797466666666666 -0.720309
1191782938 0.23650266666666667 -0.7188256666666666
1193263869 0.22760633333333335 -0.719886
1194744800 0.23325033333333334 -0.7186273333333333
1196225731 0.2244943333333333 -0.7185039999999999
1197706662 0.23226233333333335 -0.715368
1199187593 0.22283633333333333 -0.7152813333333334
1200668524 0.23043799999999998 -0.711737
1202149455 0.22091333333333332 -0.7104993333333334
1203630386 0.227682 -0.7070196666666666
1205111317 0.21890133333333334 -0.704652
1206592248 0.21983266666666668 -0.7037546666666665
1208073179 0.21898066666666666 -0.7070856666666666
1209554110 0.22055033333333332 -0.7088306666666666
1211035041 0.2197633333333333 -0.711841
1212515972 0.22000266666666662 -0.71434
1213996903 0.2194403333333333 -0.7154360000000001
1215477834 0.21807266666666664 -0.7184429999999999
1216958765 0.21804066666666666 -0.7186156666666667
1218439696 0.21368333333333334 -0.7213386666666667
1219920627 0.21533466666666667 -0.7209026666666666
1221401558 0.21427466666666667 -0.7204463333333333
1222882489 0.214696 -0.7205463333333333
1224363420 0.21493933333333332 -0.7204903333333333
1225844351 0.21258366666666664 -0.7201519999999999
1227325282 0.21244233333333332 -0.7186253333333333
1228806213 0.21217599999999998 -0.7159653333333333
1230287144 0.21029066666666665 -0.713603
1231768075 0.207676 -0.7117103333333332
1233249006 0.19820333333333331 -0.7110713333333334
1234729937 0.20115166666666665 -0.706282
1236210868 0.19821966666666668 -0.7061513333333332
1237691799 0.19967866666666667 -0.7080053333333334
1239172730 0.196127 -0.7120106666666667
1240653661 0.198482 -0.713783
1242134592 0.19756999999999997 -0.7157116666666665
1243615523 0.19381866666666664 -0.7178069999999999
1245096454 0.19652333333333333 -0.7189319999999999
1246577385 0.19610299999999997 -0.7207766666666666
1248058316 0.19562366666666664 -0.7207709999999998
1249539247 0.19585366666666665 -0.7207266666666667
1251020178 0.1942896666666667 -0.721891
1252501109 0.19469566666666666 -0.7206279999999998
1253982040 0.19230533333333333 -0.7215686666666665
1255462971 0.19149366666666667 -0.7197749999999999
1256943902 0.190106 -0.7199679999999999
1258424833 0.1960203333333333 -0.716629
1259905764 0.19328266666666666 -0.7186933333333334
1261386695 0.19573233333333334 -0.713366
1262867626 0.19246533333333332 -0.7115083333333333
1264348557 0.19103499999999998 -0.7088150000000001
1265829488 0.1893063333333333 -0.7069329999999999
1267310419 0.18847966666666666 -0.7107876666666666
1268791350 0.18918666666666667 -0.7124206666666666
1270272281 0.18933066666666667 -0.7147276666666667
1271753212 0.18768333333333334 -0.7171066666666667
1273234143 0.18641566666666667 -0.716912
1274715074 0.18767199999999998 -0.722175
1276196005 0.18731199999999998 -0.7242223333333333
1277676936 0.19335166666666664 -0.7239259999999998
1279157867 0.18592699999999998 -0.7252336666666667
1280638798 0.18486166666666665 -0.7248386666666665
1282119729 0.18628099999999997 -0.724487
1283600660 0.1869513333333333 -0.7241076666666666
1285081591 0.18699499999999997 -0.7258323333333332
1286562522 0.18476666666666666 -0.7233669999999999
1288043453 0.18253866666666665 -0.7218673333333332
1289524384 0.18262099999999998 -0.7221596666666665
1291005315 0.179794 -0.7197809999999999
1292486246 0.18053733333333333 -0.7186063333333333
1293967177 0.18250233333333332 -0.7136223333333334
1295448108 0.17935533333333334 -0.7118569999999999
1296929039 0.1801873333333333 -0.713864
1298409970 0.18055066666666666 -0.7164630000000001
1299890901 0.1790143333333333 -0.7190463333333332
1301371832 0.17937766666666666 -0.7207836666666667
1302852763 0.1774423333333333 -0.7219473333333333
1304333694 0.17804166666666665 -0.7237806666666666
1305814625 0.17477199999999998 -0.725516
1307295556 0.17565766666666666 -0.726513
1308776487 0.175755 -0.725812
1310257418 0.17518533333333333 -0.7270856666666666
1311738349 0.174102 -0.7267366666666666
1313219280 0.17543999999999998 -0.725455
1314700211 0.17411433333333332 -0.726156
1316181142 0.1705773333333333 -0.7245166666666665
1317662073 0.16913566666666663 -0.7235746666666666
1319143004 0.1710523333333333 -0.7239663333333333
1320623935 0.16966533333333333 -0.720275
1322104866 0.16852366666666665 -0.7193613333333333
1323585797 0.16714466666666666 -0.7155856666666667
1325066728 0.166068 -0.7140599999999999
1326547659 0.16391333333333333 -0.7159233333333332
1328028590 0.16231599999999996 -0.7192876666666665
1329509521 0.16353066666666666 -0.722669
1330990452 0.1641103333333333 -0.7222036666666667
1332471383 0.16828899999999997 -0.720631
1333952314 0.16510099999999997 -0.7254053333333333
1335433245 0.16521666666666665 -0.7266746666666666
1336914176 0.164813 -0.7270079999999999
1338395107 0.16438066666666667 -0.7261326666666666
1339876038 0.16544799999999998 -0.7279233333333333
1341356969 0.163957 -0.727805
1342837900 0.163981 -0.7292883333333333
1344318831 0.16232433333333332 -0.7259853333333333
1345799762 0.163877 -0.726621
1347280693 0.1625773333333333 -0.7249986666666667
1348761624 0.16080433333333333 -0.7224526666666666
1350242555 0.16131466666666666 -0.7203740000000001
1351723486 0.15881033333333333 -0.7188946666666666
1353204417 0.15993566666666664 -0.7163006666666667
1354685348 0.15718966666666667 -0.7126983333333334
1356166279 0.15520533333333333 -0.7152466666666666
1357647210 0.15679466666666667 -0.7166446666666666
1359128141 0.15435433333333332 -0.719483
1360609072 0.154285 -0.7228153333333333
1362090003 0.15691833333333333 -0.7229433333333333
1363570934 0.154535 -0.7251599999999999
1365051865 0.15506366666666666 -0.7275136666666666
1366532796 0.15431366666666668 -0.7273253333333332
1368013727 0.16997666666666666 -0.7337389999999999
1369494658 0.15381933333333334 -0.72815
1370975589 0.15253833333333333 -0.7289416666666666
1372456520 0.15397433333333332 -0.728437
1373937451 0.15073066666666662 -0.6991146666666667
1375418382 0.15069333333333335 -0.7286269999999999
1376899313 0.150442 -0.726066
1378380244 0.14929666666666666 -0.7255983333333332
1379861175 0.14707633333333336 -0.7238016666666667
1381342106 0.147019 -0.7225613333333334
1382823037 0.147185 -0.7197913333333333
1384303968 0.1468793333333333 -0.7173126666666666
1385784899 0.14139966666666665 -0.7158119999999999
1387265830 0.14140366666666665 -0.7198023333333332
1388746761 0.14292033333333334 -0.7225626666666667
1390227692 0.14259866666666665 -0.7251956666666667
1391708623 0.143908 -0.7272006666666667
1393189554 0.14222666666666664 -0.728723
1394670485 0.142861 -0.7305646666666666
1396151416 0.14226433333333333 -0.73054
1397632347 0.14293433333333333 -0.7319169999999999
1399113278 0.14063699999999998 -0.7310809999999999
1400594209 0.14149633333333334 -0.7324906666666667
1402075140 0.1423423333333333 -0.732131
1403556071 0.14026066666666664 -0.7307629999999998
1405037002 0.13855566666666663 -0.7296053333333333
1406517933 0.14052199999999998 -0.7281106666666668
1407998864 0.13742733333333335 -0.7276263333333333
1409479795 0.13598133333333334 -0.7258846666666666
1410960726 0.13304966666666665 -0.7226076666666665
1412441657 0.13227499999999998 -0.7212053333333334
1413922588 0.13023833333333332 -0.7188243333333333
1415403519 0.131127 -0.715487
1416884450 0.12892499999999998 -0.7184429999999999
1418365381 0.13091666666666668 -0.7223443333333333
1419846312 0.129764 -0.7253919999999999
1421327243 0.13100799999999999 -0.7270876666666666
1422808174 0.13079 -0.7292163333333332
1424289105 0.13226366666666667 -0.7301759999999999
1425770036 0.12846733333333332 -0.7322823333333333
1427250967 0.12259500000000001 -0.7332016666666666
1428731898 0.1253683333333333 -0.7358236666666667
1430212829 0.12941599999999998 -0.7351223333333332
1431693760 0.13089666666666666 -0.7357609999999999
1433174691 0.12917133333333333 -0.7353373333333333
1434655622 0.128127 -0.732293
1436136553 0.1285093333333333 -0.731471
1437617484 0.1295926666666667 -0.7295246666666666
1439098415 0.125637 -0.7284333333333333
1440579346 0.12598399999999998 -0.7258576666666665
1442060277 0.123276 -0.7234246666666666
1443541208 0.12376433333333332 -0.7219659999999999
1445022139 0.12244966666666668 -0.7181790000000001
1446503070 0.12197399999999999 -0.7206203333333333
1447984001 0.12291266666666667 -0.723903
1449464932 0.120262 -0.72811
1450945863 0.11889033333333333 -0.7289866666666667
1452426794 0.12219866666666668 -0.7317173333333332
1453907725 0.12110366666666667 -0.7329406666666667
1455388656 0.12023833333333334 -0.7345423333333333
1456869587 0.11993733333333334 -0.736024
1458350518 0.11872833333333334 -0.7359846666666666
1459831449 0.11969166666666665 -0.7362616666666667
1461312380 0.12056266666666667 -0.7371756666666667
1462793311 0.11727166666666666 -0.7359209999999999
1464274242 0.116454 -0.7347446666666665
1465755173 0.119598 -0.733857
1467236104 0.11763266666666668 -0.7322636666666666
1468717035 0.11657799999999999 -0.731127
1470197966 0.11420966666666665 -0.7280423333333333
1471678897 0.113809 -0.7253706666666666
1473159828 0.11109166666666666 -0.721632
1474640759 0.109379 -0.7197106666666666
1476121690 0.10844899999999999 -0.7209803333333333
1477602621 0.10781433333333332 -0.7242186666666666
1479083552 0.10824466666666666 -0.7267283333333334
1480564483 0.10813066666666667 -0.7287973333333333
1482045414 0.108581 -0.7317383333333334
1483526345 0.10714433333333334 -0.7350696666666666
1485007276 0.107722 -0.7342863333333334
1486488207 0.10659566666666666 -0.73658
1487969138 0.10585733333333332 -0.7370783333333333
1489450069 0.10667333333333334 -0.7376126666666665
1490931000 0.10714933333333333 -0.7365929999999998
1492411931 0.10939166666666666 -0.735842
1493892862 0.10729633333333333 -0.7346306666666665
1495373793 0.10721199999999999 -0.732468
1496854724 0.10395233333333333 -0.7314813333333334
1498335655 0.10245566666666667 -0.7294143333333333
1499816586 0.10266166666666666 -0.7271239999999999
1501297517 0.10098666666666667 -0.7240776666666666
1502778448 0.09881433333333334 -0.7207053333333333
1504259379 0.09865999999999998 -0.7172723333333334
1505740310 0.09865133333333333 -0.7184109999999999
1507221241 0.09587400000000001 -0.7205176666666666
1508702172 0.09655266666666665 -0.7244466666666667
1510183103 0.09656433333333332 -0.7258086666666667
1511664034 0.094839 -0.726693
1513144965 0.09403399999999998 -0.7304323333333331
1514625896 0.09512033333333332 -0.7311896666666666
1516106827 0.09559866666666667 -0.730799
1517587758 0.09321466666666667 -0.732726
1519068689 0.095593 -0.7321019999999999
1520549620 0.09574666666666666 -0.7322863333333333
1522030551 0.09585066666666667 -0.7308576666666667
1523511482 0.09088733333333333 -0.7299686666666667
1524992413 0.09218566666666667 -0.7291673333333334
1526473344 0.09076566666666666 -0.7277603333333333
1527954275 0.09145466666666666 -0.7262709999999999
1529435206 0.088028 -0.7231793333333334
1530916137 0.08713533333333334 -0.720262
1532397068 0.10377866666666666 -0.7410946666666667
1533877999 0.08562933333333334 -0.713543
1535358930 0.08571833333333334 -0.7131636666666666
1536839861 0.08363866666666667 -0.7165593333333332
1538320792 0.08195433333333332 -0.7188966666666667
1539801723 0.08332366666666666 -0.7223606666666665
1541282654 0.08006233333333332 -0.7252579999999998
1542763585 0.08208366666666667 -0.7265946666666665
1544244516 0.08509966666666666 -0.7282793333333333
1545725447 0.08239033333333333 -0.7298456666666666
1547206378 0.08374099999999998 -0.7300123333333333
1548687309 0.08484133333333332 -0.73054
1550168240 0.08389533333333334 -0.7308733333333333
1551649171 0.08382266666666667 -0.73066
1553130102 0.08394433333333332 -0.7302903333333333
1554611033 0.08407233333333333 -0.7289753333333332
1556091964 0.08445399999999999 -0.7287809999999999
1557572895 0.07440033333333333 -0.7264359999999999
1559053826 0.08269866666666667 -0.7241676666666665
1560534757 0.07507766666666667 -0.7227009999999999
1562015688 0.08230033333333332 -0.7203423333333332
1563496619 0.07217666666666667 -0.7175536666666666
1564977550 0.08071866666666666 -0.7133903333333333
1566458481 0.07000866666666666 -0.7169336666666666
1567939412 0.07657199999999999 -0.7192616666666667
1569420343 0.06940533333333332 -0.7226276666666667
1570901274 0.07417699999999999 -0.7240723333333332
1572382205 0.06694666666666665 -0.7268583333333334
1573863136 0.07514133333333331 -0.7283973333333333
1575344067 0.065196 -0.7301893333333332
1576824998 0.073712 -0.730546
1578305929 0.06582533333333333 -0.7301699999999999
1579786860 0.07518133333333332 -0.7296779999999999
1581267791 0.06482266666666667 -0.7313496666666667
1582748722 0.07183533333333332 -0.7305763333333332
1584229653 0.06413533333333332 -0.7290623333333333
1585710584 0.07485666666666665 -0.728119
1587191515 0.06319799999999999 -0.7267773333333333
1588672446 0.07164566666666666 -0.7254586666666667
1590153377 0.06860933333333333 -0.7224953333333333
1591634308 0.06493866666666667 -0.719519
1593115239 0.06715033333333333 -0.7168059999999998
1594596170 0.06325233333333333 -0.7134016666666666
1596077101 0.061067333333333335 -0.7166543333333333
1597558032 0.06492866666666666 -0.7177906666666667
1599038963 0.063452 -0.7213806666666667
1600519894 0.06274066666666667 -0.723605
1602000825 0.06159733333333334 -0.7245883333333333
1603481756 0.061315666666666664 -0.725487
1604962687 0.056495666666666666 -0.7266976666666666
1606443618 0.05844266666666666 -0.7270196666666667
1607924549 0.06047033333333333 -0.7276813333333332
1609405480 0.05665100000000001 -0.7278493333333333
1610886411 0.05706666666666667 -0.7274986666666666
1612367342 0.05547866666666666 -0.727336
1613848273 0.056980333333333334 -0.7255186666666665
1615329204 0.05703966666666666 -0.724281
1616810135 0.056382 -0.7231226666666666
1618291066 0.05330433333333333 -0.7213046666666667
1619771997 0.053580666666666665 -0.719236
1621252928 0.05583333333333333 -0.7160863333333333
1622733859 0.048863 -0.71378
1624214790 0.051164 -0.7113436666666667
1625695721 0.052767999999999995 -0.7120306666666665
1627176652 0.04840699999999999 -0.7154729999999999
1628657583 0.05121566666666666 -0.7157506666666666
1630138514 0.04879933333333333 -0.7208176666666667
1631619445 0.048502666666666666 -0.7205666666666666
1633100376 0.04939266666666667 -0.7221663333333332
1634581307 0.049413 -0.7242593333333334
1636062238 0.047356999999999996 -0.7238903333333333
1637543169 0.046606666666666664 -0.726295
1639024100 0.04710333333333333 -0.7248486666666666
1640505031 0.045768333333333334 -0.7257739999999999
1641985962 0.04686733333333333 -0.725727
1643466893 0.04513299999999999 -0.7255276666666666
1644947824 0.0467 -0.7242219999999999
1646428755 0.047256 -0.7224276666666666
1647909686 0.04697566666666667 -0.721498
1649390617 0.047694333333333325 -0.7186203333333332
1650871548 0.045478 -0.7163733333333333
1652352479 0.044941666666666664 -0.7157399999999999
1653833410 0.041981 -0.7137543333333334
1655314341 0.043032 -0.7123326666666667
1656795272 0.04516233333333333 -0.7153143333333333
1658276203 0.04284966666666666 -0.717007
1659757134 0.043317999999999995 -0.72021
1661238065 0.043429333333333334 -0.7218073333333332
1662718996 0.040756333333333325 -0.7240409999999999
1664199927 0.04636033333333334 -0.7253299999999998
1665680858 0.042643 -0.7266923333333333
1667161789 0.04101966666666666 -0.7263763333333332
1668642720 0.03912 -0.7278319999999999
1670123651 0.04111933333333333 -0.728528
1671604582 0.03841333333333333 -0.7284440000000001
1673085513 0.040068 -0.7274506666666666
1674566444 0.04028233333333333 -0.7256523333333332
1676047375 0.039682666666666665 -0.7257979999999999
1677528306 0.038758333333333325 -0.724043
1679009237 0.03640333333333333 -0.7236496666666667
1680490168 0.038387000000000004 -0.7203586666666666
1681971099 0.03600066666666667 -0.7180506666666666
1683452030 0.034056 -0.7163223333333333
1684932961 0.034051 -0.7162176666666666
1686413892 0.03280833333333333 -0.7176243333333333
1687894823 0.033842333333333335 -0.7206803333333333
1689375754 0.034565 -0.7246673333333332
1690856685 0.03444966666666666 -0.7257316666666666
1692337616 0.03441866666666667 -0.726613
1693818547 0.033084333333333334 -0.7283489999999999
1695299478 0.034069333333333326 -0.729133
1696780409 0.03409833333333333 -0.7295626666666666
1698261340 0.032280666666666666 -0.7304296666666665
1699742271 0.03128133333333333 -0.731559
1701223202 0.03238233333333333 -0.7312369999999999
1702704133 0.034262999999999995 -0.7311046666666666
1704185064 0.03226333333333334 -0.7298403333333333
1705665995 0.032098999999999996 -0.728364
1707146926 0.032018 -0.7277303333333333
1708627857 0.029792666666666665 -0.7260203333333333
1710108788 0.031025666666666667 -0.7223626666666667
1711589719 0.027983666666666664 -0.7204349999999999
1713070650 0.029544666666666664 -0.7190576666666667
1714551581 0.026545666666666665 -0.7139519999999999
1716032512 0.02510533333333333 -0.718216
1717513443 0.028545333333333332 -0.7232589999999999
1718994374 0.028523666666666662 -0.7260086666666666
1720475305 0.027422999999999996 -0.7260943333333333
1721956236 0.030456333333333335 -0.729528
1723437167 0.027089666666666668 -0.730599
1724918098 0.025649666666666668 -0.7312923333333333
1726399029 0.027264666666666666 -0.731328
1727879960 0.023952666666666664 -0.7296549999999999
1729360891 0.026653 -0.7320783333333334
1730841822 0.02666833333333333 -0.731409
1732322753 0.025493999999999996 -0.731268
1733803684 0.026009666666666667 -0.7288123333333332
1735284615 0.02908333333333333 -0.7277939999999999
1736765546 0.02474533333333333 -0.7261833333333333
1738246477 0.026806666666666666 -0.7253656666666666
1739727408 0.022808999999999996 -0.7207939999999999
1741208339 0.022711666666666665 -0.717742
1742689270 0.024696 -0.7184686666666666
1744170201 0.02040233333333333 -0.7129126666666666
1745651132 0.021830666666666665 -0.715645
1747132063 0.017923666666666664 -0.7190806666666667
1748612994 0.021308 -0.7219836666666666
1750093925 0.021896 -0.7250936666666666
1751574856 0.021431999999999996 -0.725691
1753055787 0.020412 -0.7282346666666666
1754536718 0.021861666666666668 -0.7291976666666665
1756017649 0.01886833333333333 -0.7302463333333332
1757498580 0.02025833333333333 -0.7320556666666667
1758979511 0.019273666666666665 -0.7305733333333333
1760460442 0.020399 -0.7299149999999999
1761941373 0.017806666666666665 -0.7300406666666666
1763422304 0.01725233333333333 -0.7277863333333334
1764903235 0.017957666666666663 -0.729049
1766384166 0.019714 -0.7264
1767865097 0.014491333333333332 -0.7247713333333332
1769346028 0.014606333333333332 -0.7232316666666666
1770826959 0.017159999999999998 -0.719538
1772307890 0.014458333333333332 -0.715414
1773788821 0.014894333333333332 -0.7140713333333333
1775269752 0.012840333333333332 -0.7160626666666667
1776750683 0.009422999999999999 -0.718715
1778231614 0.013195333333333331 -0.7209696666666666
1779712545 0.010661666666666667 -0.7231056666666666
1781193476 0.012572 -0.7262646666666666
1782674407 0.012261999999999999 -0.7272649999999998
1784155338 0.013194333333333332 -0.7280123333333333
1785636269 0.012933333333333333 -0.7291099999999999
1787117200 0.011731333333333333 -0.7304083333333333
1788598131 0.012287333333333334 -0.7309406666666665
1790079062 0.015426333333333334 -0.7297296666666666
1791559993 0.012003333333333333 -0.7293093333333333
1793040924 0.011607666666666665 -0.7278366666666667
1794521855 0.014250333333333334 -0.7278833333333333
1796002786 0.012978333333333331 -0.7255146666666665
1797483717 0.014473666666666666 -0.7222686666666667
1798964648 0.012883 -0.7199876666666666
1800445579 0.011356 -0.7184839999999999
1801926510 0.014038666666666666 -0.7152759999999999
1803407441 0.010394666666666665 -0.7117966666666666
1804888372 0.010672666666666665 -0.7127866666666667
1806369303 0.007691 -0.7151519999999999
1807850234 0.011673666666666666 -0.717799
1809331165 0.01005 -0.7213083333333332
1810812096 0.012010333333333333 -0.7211789999999999
1812293027 0.004358666666666667 -0.7232133333333333
1813773958 0.009663 -0.7259789999999999
1815254889 0.0065056666666666665 -0.7275206666666666
1816735820 0.010192 -0.7251686666666668
1818216751 0.005672666666666666 -0.7268763333333333
1819697682 0.009754333333333332 -0.7266706666666665
1821178613 -0.004952333333333333 -0.7267413333333332
1822659544 0.007571333333333333 -0.7272206666666667
1824140475 -0.006056 -0.6936016666666666
1825621406 0.004121 -0.7241313333333332
1827102337 -0.002966666666666666 -0.723016
1828583268 0.008003 -0.7179916666666666
1830064199 -0.002318 -0.7162393333333332
1831545130 0.001333666666666667 -0.7146719999999999
1833026061 -0.006355666666666667 -0.7127276666666666
1834506992 -0.008444 -0.7114849999999999
1835987923 -0.009196666666666665 -0.7164003333333332
1837468854 -0.009379333333333333 -0.7161656666666666
1838949785 -0.011406 -0.7203263333333334
1840430716 -0.009415333333333333 -0.7230306666666666
1841911647 -0.007313333333333333 -0.7244146666666667
1843392578 0.0007439999999999999 -0.7274746666666667
1844873509 -0.008104666666666666 -0.7254129999999999
1846354440 -0.011046999999999998 -0.7294216666666666
1847835371 -0.005925666666666667 -0.728557
1849316302 -0.007755666666666668 -0.7272
1850797233 -0.007545333333333332 -0.7292540000000001
1852278164 -0.008840999999999998 -0.7269963333333332
1853759095 -0.0070143333333333325 -0.723372
1855240026 -0.002353666666666667 -0.7238326666666666
1856720957 -0.008845 -0.7212223333333334
1858201888 -0.007501333333333333 -0.7217836666666667
1859682819 -0.0010609999999999999 -0.7164579999999999
1861163750 0.001539 -0.7170359999999999
1862644681 -0.0033063333333333334 -0.7124506666666666
1864125612 -0.0033443333333333337 -0.7116656666666668
1865606543 -0.0025736666666666664 -0.7141466666666667
1867087474 -0.004860333333333333 -0.716564
1868568405 -0.004654666666666666 -0.7188329999999998
1870049336 -0.010846666666666666 -0.7205726666666666
1871530267 -0.006068333333333333 -0.7238369999999998
1873011198 -0.007050000000000001 -0.7243173333333333
1874492129 -0.006937 -0.7263193333333333
1875973060 -0.008227666666666666 -0.7287066666666667
1877453991 0.010319333333333333 -0.737511
1878934922 -0.008805333333333332 -0.7284363333333334
1880415853 -0.006643999999999999 -0.728988
1881896784 -0.007497333333333332 -0.7277783333333333
1883377715 -0.005864666666666666 -0.7275186666666666
1884858646 -0.011152333333333334 -0.7262943333333333
1886339577 -0.006813666666666667 -0.7256846666666666
1887820508 -0.008136333333333332 -0.7228050000000001
1889301439 -0.006429666666666667 -0.7213126666666666
1890782370 -0.007452 -0.7191036666666666
1892263301 -0.008983333333333333 -0.7170743333333333
1893744232 -0.007091333333333333 -0.7135136666666666
1895225163 -0.011717666666666664 -0.7135119999999999
1896706094 -0.010910999999999999 -0.7188036666666667
1898187025 -0.011324 -0.721171
1899667956 -0.014868333333333332 -0.72106
1901148887 -0.017192666666666665 -0.7215539999999999
1902629818 -0.013816333333333333 -0.7228043333333334
1904110749 -0.012758333333333332 -0.7228399999999999
1905591680 -0.010789666666666666 -0.7261279999999999
1907072611 -0.017381333333333332 -0.7244966666666667
1908553542 -0.02040233333333333 -0.7239286666666667
1910034473 -0.017848999999999997 -0.7240523333333333
1911515404 -0.022642333333333334 -0.7221996666666667
1912996335 -0.018852333333333332 -0.7217439999999998
1914477266 -0.017228 -0.7193336666666666
1915958197 -0.019323666666666663 -0.7175186666666665
1917439128 -0.01963833333333333 -0.7165869999999999
1918920059 -0.024832333333333335 -0.7132000000000001
1920400990 -0.021468333333333332 -0.7127066666666666
1921881921 -0.019708 -0.707768
1923362852 -0.024621999999999998 -0.70486
1924843783 -0.024846999999999998 -0.7057563333333334
1926324714 -0.029138999999999998 -0.7102086666666666
1927805645 -0.025445666666666665 -0.7125196666666667
1929286576 -0.029141666666666666 -0.7131756666666667
1930767507 -0.029143666666666665 -0.7146163333333333
1932248438 -0.02972133333333333 -0.7175436666666666
1933729369 -0.025980999999999997 -0.718259
1935210300 -0.03456933333333333 -0.7211916666666666
1936691231 -0.034366999999999995 -0.7204139999999999
1938172162 -0.030089666666666667 -0.72034
1939653093 -0.031321333333333326 -0.720666
1941134024 -0.036583333333333336 -0.7209253333333333
1942614955 -0.03184533333333333 -0.7203443333333333
1944095886 -0.02861133333333333 -0.719328
1945576817 -0.034263999999999996 -0.7167680000000001
1947057748 -0.03190866666666667 -0.7154146666666668
1948538679 -0.033674666666666665 -0.714031
1950019610 -0.037163 -0.7117736666666665
1951500541 -0.03237966666666667 -0.7065323333333332
1952981472 -0.03224 -0.7059376666666666
1954462403 -0.033706999999999994 -0.7078479999999999
1955943334 -0.03414866666666667 -0.7098703333333334
1957424265 -0.037552666666666665 -0.7127353333333334
1958905196 -0.03529566666666667 -0.715159
1960386127 -0.035391000000000006 -0.7168996666666666
1961867058 -0.036959 -0.7164166666666666
1963347989 -0.038039666666666666 -0.7187276666666667
1964828920 -0.036246 -0.7188503333333333
1966309851 -0.03843766666666666 -0.7203383333333333
1967790782 -0.03730666666666666 -0.7195096666666667
1969271713 -0.036101999999999995 -0.7194853333333333
1970752644 -0.03841233333333333 -0.7202099999999999
1972233575 -0.058712333333333325 -0.6946393333333334
1973714506 -0.03865733333333333 -0.7171049999999999
1975195437 -0.03800533333333333 -0.7162333333333333
1976676368 -0.04020833333333333 -0.7132383333333332
1978157299 -0.03929133333333333 -0.7118776666666666
1979638230 -0.041822000000000005 -0.7103513333333332
1981119161 -0.040633666666666665 -0.7061853333333332
1982600092 -0.036951333333333336 -0.7028299999999998
1984081023 -0.041069999999999995 -0.7024416666666666
1985561954 -0.04106233333333333 -0.7066403333333332
1987042885 -0.042898 -0.7088619999999999
1988523816 -0.04165633333333334 -0.7107429999999999
1990004747 -0.04488333333333333 -0.7135050000000001
1991485678 -0.047356999999999996 -0.7143073333333333
1992966609 -0.04374666666666667 -0.7151133333333333
1994447540 -0.04536766666666667 -0.7163993333333332
1995928471 -0.044199999999999996 -0.717063
1997409402 -0.047541 -0.7162673333333333
1998890333 -0.045363333333333325 -0.7178766666666665
2000371264 -0.04721466666666667 -0.7174703333333332
2001852195 -0.044448999999999995 -0.7164186666666668
2003333126 -0.04690899999999999 -0.7152626666666665
2004814057 -0.04813966666666667 -0.7137516666666667
2006294988 -0.04400233333333334 -0.7107583333333333
2007775919 -0.04728033333333333 -0.7095806666666666
2009256850 -0.049301 -0.7075086666666667
2010737781 -0.048601000000000005 -0.7043806666666665
2012218712 -0.04937833333333333 -0.7022076666666666
2013699643 -0.05056433333333333 -0.7014699999999998
2015180574 -0.053164666666666666 -0.7041983333333334
2016661505 -0.05187733333333333 -0.7067359999999999
2018142436 -0.053199 -0.7069509999999999
2019623367 -0.050799 -0.7102323333333334
2021104298 -0.05496033333333333 -0.7110386666666667
2022585229 -0.054299333333333324 -0.7118896666666666
2024066160 -0.053105 -0.7137956666666666
2025547091 -0.052322999999999995 -0.7119293333333332
2027028022 -0.05286566666666666 -0.7130506666666665
2028508953 -0.05406966666666666 -0.7132176666666666
2029989884 -0.056631999999999995 -0.7123803333333332
2031470815 -0.05200933333333333 -0.7114409999999999
2032951746 -0.053594666666666665 -0.7112083333333332
2034432677 -0.054190999999999996 -0.7101233333333333
2035913608 -0.05324933333333333 -0.7091976666666666
2037394539 -0.051606 -0.7059116666666667
2038875470 -0.05335033333333333 -0.7037876666666666
2040356401 -0.05797033333333333 -0.7028176666666666
2041837332 -0.05750166666666667 -0.6984193333333333
2043318263 -0.056001 -0.6960189999999999
2044799194 -0.05658 -0.6985016666666667
2046280125 -0.05755066666666667 -0.7023796666666666
2047761056 -0.057888333333333326 -0.7034529999999999
2049241987 -0.059945 -0.705454
2050722918 -0.059912999999999994 -0.7082593333333334
2052203849 -0.06167533333333333 -0.7099763333333333
2053684780 -0.05822333333333333 -0.7094516666666666
2055165711 -0.05999633333333333 -0.7112776666666667
2056646642 -0.060531 -0.7118856666666666
2058127573 -0.06072933333333333 -0.7116803333333334
2059608504 -0.06356733333333332 -0.7101843333333333
2061089435 -0.06115433333333334 -0.7105833333333332
2062570366 -0.06304766666666667 -0.7090366666666666
2064051297 -0.06382666666666666 -0.708131
2065532228 -0.06375466666666665 -0.706169
2067013159 -0.06367433333333333 -0.7046673333333333
2068494090 -0.06314933333333334 -0.7028396666666665
2069975021 -0.06616933333333333 -0.7004643333333332
2071455952 -0.063311 -0.6978563333333333
2072936883 -0.06474933333333333 -0.6952713333333334
2074417814 -0.06620999999999999 -0.6958983333333333
2075898745 -0.06787833333333333 -0.700869
2077379676 -0.06665133333333334 -0.7040059999999999
2078860607 -0.06741 -0.7047263333333333
2080341538 -0.06715533333333332 -0.7077943333333333
2081822469 -0.06976133333333333 -0.7097340000000001
2083303400 -0.06730666666666665 -0.7123973333333332
2084784331 -0.06992899999999999 -0.7132496666666667
2086265262 -0.068395 -0.7148723333333333
2087746193 -0.06479 -0.7142806666666666
2089227124 -0.06517600000000001 -0.7138883333333332
2090708055 -0.06516066666666666 -0.7143799999999999
2092188986 -0.06297066666666667 -0.7127203333333332
2093669917 -0.067127 -0.7130073333333332
2095150848 -0.064884 -0.7110203333333331
2096631779 -0.06314366666666667 -0.7113456666666667
2098112710 -0.06470466666666666 -0.7082410000000001
2099593641 -0.06366999999999999 -0.7048383333333332
2101074572 -0.06600733333333333 -0.702768
2102555503 -0.06428766666666666 -0.7004893333333332
2104036434 -0.064134 -0.7012943333333334
2105517365 -0.06647199999999999 -0.7026649999999999
2106998296 -0.06918266666666667 -0.7036776666666666
2108479227 -0.067102 -0.7075016666666666
2109960158 -0.06909966666666667 -0.7115353333333332
2111441089 -0.06999033333333333 -0.7102243333333333
2112922020 -0.06852066666666665 -0.711409
2114402951 -0.07109899999999998 -0.71873
2115883882 -0.07129166666666666 -0.7119939999999999
2117364813 -0.066413 -0.7133226666666667
2118845744 -0.069214 -0.712526
2120326675 -0.07110333333333332 -0.7114156666666667
2121807606 -0.070463 -0.7090316666666665
2123288537 -0.07506533333333333 -0.7103276666666667
2124769468 -0.07632233333333333 -0.7080093333333333
2126250399 -0.06961933333333332 -0.7090406666666667
2127731330 -0.06976966666666666 -0.7032043333333333
2129212261 -0.07338666666666667 -0.701751
2130693192 -0.07240966666666666 -0.6992789999999999
2132174123 -0.07177 -0.6972956666666665
2133655054 -0.07483866666666666 -0.6951686666666667
2135135985 -0.07477233333333333 -0.6976883333333334
2136616916 -0.07292566666666667 -0.7014856666666667
2138097847 -0.07703 -0.7029700000000001
2139578778 -0.07691900000000002 -0.7046076666666666
2141059709 -0.07627933333333332 -0.7043533333333333
2142540640 -0.07386199999999998 -0.7064776666666666
2144021571 -0.07692133333333331 -0.7079203333333333
2145502502 -0.07428199999999999 -0.7097376666666666
2146983433 -0.07320266666666665 -0.7075656666666666
2148464364 -0.07823833333333333 -0.7064163333333333
2149945295 -0.075182 -0.7062769999999998
2151426226 -0.07514799999999999 -0.705805
2152907157 -0.07592399999999999 -0.7035016666666666
2154388088 -0.07239199999999998 -0.7045806666666667
2155869019 -0.07356766666666667 -0.7023503333333334
2157349950 -0.07490266666666667 -0.701702
2158830881 -0.074095 -0.6967796666666667
2160311812 -0.07660433333333333 -0.6946623333333333
2161792743 -0.07366466666666666 -0.6913763333333334
2163273674 -0.07183366666666667 -0.6908070000000001
2164754605 -0.07513666666666666 -0.6927626666666665
2166235536 -0.07784533333333332 -0.6951083333333333
2167716467 -0.08146633333333334 -0.6989793333333332
2169197398 -0.07961566666666667 -0.700071
2170678329 -0.08033233333333331 -0.7012943333333334
2172159260 -0.08208433333333333 -0.7042823333333332
2173640191 -0.08291533333333334 -0.7054416666666665
2175121122 -0.08175466666666666 -0.7028049999999999
2176602053 -0.07856233333333333 -0.7054886666666667
2178082984 -0.08047633333333333 -0.7063389999999999
2179563915 -0.08066466666666666 -0.7072073333333333
2181044846 -0.07944166666666666 -0.7083046666666668
2182525777 -0.080094 -0.7056753333333333
2184006708 -0.072002 -0.7088936666666666
2185487639 -0.08296166666666666 -0.7039686666666667
2186968570 -0.07776166666666665 -0.7012773333333333
2188449501 -0.08099766666666666 -0.7021296666666667
2189930432 -0.083173 -0.6975703333333333
2191411363 -0.08360033333333333 -0.6953643333333333
2192892294 -0.08219866666666667 -0.6940483333333334
2194373225 -0.08564633333333332 -0.6969430000000001
2195854156 -0.08302366666666666 -0.6980710000000001
2197335087 -0.08354799999999998 -0.7012116666666667
2198816018 -0.08677833333333332 -0.7032016666666667
2200296949 -0.08866066666666667 -0.7058920000000001
2201777880 -0.08682066666666667 -0.7046239999999999
2203258811 -0.08533933333333334 -0.708567
2204739742 -0.08458033333333333 -0.707983
2206220673 -0.08534 -0.7085299999999999
2207701604 -0.08346833333333332 -0.70743
2209182535 -0.08697566666666665 -0.7088216666666667
2210663466 -0.085105 -0.7084996666666665
2212144397 -0.08205066666666666 -0.707125
2213625328 -0.08416033333333334 -0.7048946666666667
2215106259 -0.084089 -0.702943
2216587190 -0.08438833333333332 -0.7029333333333333
2218068121 -0.08550666666666665 -0.7005216666666666
2219549052 -0.08397733333333332 -0.6972253333333334
2221029983 -0.08543766666666666 -0.692965
2222510914 -0.082982 -0.6908123333333333
2223991845 -0.086256 -0.6931019999999999
2225472776 -0.08608366666666667 -0.6954106666666666
2226953707 -0.08449833333333334 -0.697476
2228434638 -0.08903433333333333 -0.697856
2229915569 -0.08729433333333333 -0.7024753333333332
2231396500 -0.090719 -0.7027173333333333
2232877431 -0.08821066666666666 -0.7042626666666667
2234358362 -0.09109233333333333 -0.703517
2235839293 -0.09408933333333332 -0.7032676666666667
2237320224 -0.09569666666666665 -0.7029946666666667
2238801155 -0.09128333333333334 -0.7034403333333332
2240282086 -0.09156899999999998 -0.704665
2241763017 -0.095095 -0.703312
2243243948 -0.09319 -0.7020390000000001
2244724879 -0.09181 -0.7013666666666666
2246205810 -0.09396133333333334 -0.699137
2247686741 -0.09666866666666665 -0.6965326666666667
2249167672 -0.09134466666666666 -0.6975643333333332
2250648603 -0.09225799999999998 -0.6938316666666666
2252129534 -0.09585333333333335 -0.690584
2253610465 -0.09366633333333332 -0.692283
2255091396 -0.09625533333333333 -0.6952906666666667
2256572327 -0.09317866666666666 -0.6971193333333333
2258053258 -0.09692466666666666 -0.6983189999999999
2259534189 -0.09181766666666666 -0.704502
2261015120 -0.09259033333333333 -0.7006963333333333
2262496051 -0.091758 -0.7040163333333332
2263976982 -0.09749566666666666 -0.7022113333333333
2265457913 -0.09128366666666667 -0.7043156666666667
2266938844 -0.08812433333333333 -0.7046933333333333
2268419775 -0.09055233333333332 -0.7033986666666667
2269900706 -0.09451533333333334 -0.705416
2271381637 -0.09613066666666666 -0.6997359999999999
2272862568 -0.09937133333333334 -0.7099949999999999
2274343499 -0.09224299999999999 -0.6977816666666667
2275824430 -0.09455433333333332 -0.6986456666666667
2277305361 -0.092337 -0.6962796666666666
2278786292 -0.08862366666666666 -0.6965433333333333
2280267223 -0.09138199999999999 -0.692653
2281748154 -0.09059366666666666 -0.6875629999999999
2283229085 -0.09066966666666666 -0.6886166666666665
2284710016 -0.09729333333333334 -0.6896686666666666
2286190947 -0.095467 -0.69169
2287671878 -0.09214999999999998 -0.6942356666666667
2289152809 -0.09418399999999999 -0.6929569999999999
2290633740 -0.09306366666666666 -0.696128
2292114671 -0.09480466666666666 -0.6977613333333332
2293595602 -0.09381799999999998 -0.6972493333333333
2295076533 -0.09500133333333333 -0.6977403333333332
2296557464 -0.09471266666666667 -0.699629
2298038395 -0.096232 -0.6974756666666666
2299519326 -0.09554699999999999 -0.698612
2301000257 -0.09575566666666666 -0.6959653333333332
2302481188 -0.10024466666666666 -0.6953836666666666
2303962119 -0.09587766666666665 -0.6971569999999999
2305443050 -0.09812733333333332 -0.6932383333333332
2306923981 -0.09547933333333333 -0.6927309999999999
2308404912 -0.09905433333333333 -0.6887023333333333
2309885843 -0.098176 -0.6884976666666667
2311366774 -0.102465 -0.6844893333333333
2312847705 -0.10419433333333333 -0.6850963333333332
2314328636 -0.09722566666666667 -0.6884543333333333
2315809567 -0.10613800000000001 -0.6903946666666665
2317290498 -0.104844 -0.687659
2318771429 -0.09913166666666667 -0.6947086666666666
2320252360 -0.09940066666666666 -0.6947236666666666
2321733291 -0.10262633333333333 -0.6948136666666667
2323214222 -0.10162166666666667 -0.698362
2324695153 -0.09148666666666666 -0.6988413333333333
2326176084 -0.09829966666666667 -0.7016443333333333
2327657015 -0.103711 -0.697938
2329137946 -0.10346133333333332 -0.6971833333333333
2330618877 -0.10110233333333332 -0.695872
2332099808 -0.10412233333333333 -0.6963493333333333
2333580739 -0.102684 -0.6936766666666667
2335061670 -0.10222333333333333 -0.691821
2336542601 -0.10332733333333333 -0.690652
2338023532 -0.103506 -0.68741
2339504463 -0.11077599999999999 -0.6848319999999999
2340985394 -0.10521566666666667 -0.6834436666666666
2342466325 -0.113145 -0.6811233333333333
2343947256 -0.11227533333333331 -0.684316
2345428187 -0.10987733333333333 -0.688566
2346909118 -0.10789 -0.6895536666666665
2348390049 -0.11060199999999999 -0.690648
2349870980 -0.11069999999999999 -0.6931976666666666
2351351911 -0.11354933333333331 -0.6961453333333334
2352832842 -0.11369533333333333 -0.6962206666666667
2354313773 -0.11182366666666667 -0.6963273333333333
2355794704 -0.11244066666666666 -0.6980923333333333
2357275635 -0.10909366666666666 -0.6973856666666667
2358756566 -0.11219199999999999 -0.698453
2360237497 -0.11056833333333334 -0.6975483333333333
2361718428 -0.11394699999999999 -0.6996263333333334
2363199359 -0.11478 -0.6967076666666667
2364680290 -0.11422299999999999 -0.6948233333333333
2366161221 -0.11731799999999999 -0.6928219999999998
2367642152 -0.11540566666666666 -0.6913956666666667
2369123083 -0.11738633333333333 -0.6870813333333334
2370604014 -0.11696366666666666 -0.6847283333333333
2372084945 -0.11962733333333332 -0.6847996666666667
2373565876 -0.1215 -0.6842543333333333
2375046807 -0.11699533333333334 -0.6908833333333334
2376527738 -0.11807933333333333 -0.6921046666666666
2378008669 -0.12284266666666666 -0.696265
2379489600 -0.11937199999999999 -0.6981563333333334
2380970531 -0.12050133333333332 -0.6969633333333333
2382451462 -0.11959433333333333 -0.6965256666666667
2383932393 -0.11913166666666666 -0.6987939999999999
2385413324 -0.11906233333333334 -0.6989196666666666
2386894255 -0.11784633333333333 -0.7010859999999999
2388375186 -0.12105633333333332 -0.7002143333333333
2389856117 -0.122004 -0.6963330000000001
2391337048 -0.115894 -0.6951733333333332
2392817979 -0.12210599999999999 -0.6958906666666667
2394298910 -0.12074166666666666 -0.6933023333333332
2395779841 -0.121187 -0.6933793333333333
2397260772 -0.11914966666666667 -0.6883456666666667
2398741703 -0.12523766666666666 -0.6886026666666667
2400222634 -0.11928933333333333 -0.6842356666666666
2401703565 -0.12281266666666665 -0.68171
2403184496 -0.123446 -0.6824573333333334
2404665427 -0.12118000000000001 -0.6851246666666666
2406146358 -0.12641366666666665 -0.686317
2407627289 -0.122677 -0.6895316666666667
2409108220 -0.12624999999999997 -0.6922866666666666
2410589151 -0.12433 -0.6901796666666666
2412070082 -0.12914233333333333 -0.6952506666666666
2413551013 -0.12707366666666664 -0.6941120000000001
2415031944 -0.125657 -0.6949433333333334
2416512875 -0.123939 -0.6964406666666667
2417993806 -0.12672333333333333 -0.6948809999999999
2419474737 -0.126599 -0.695311
2420955668 -0.125477 -0.6943203333333333
2422436599 -0.12779166666666666 -0.6928823333333334
2423917530 -0.127797 -0.6916806666666666
2425398461 -0.12578633333333333 -0.6877536666666666
2426879392 -0.12353066666666665 -0.6846016666666667
2428360323 -0.12805433333333333 -0.6828976666666666
2429841254 -0.1254593333333333 -0.6757489999999999
2431322185 -0.12948166666666666 -0.6801623333333333
2432803116 -0.126764 -0.676881
2434284047 -0.13023666666666667 -0.6803923333333334
2435764978 -0.13060733333333333 -0.6844429999999999
2437245909 -0.13181299999999999 -0.6856169999999999
2438726840 -0.13418366666666665 -0.6861913333333334
2440207771 -0.13559466666666667 -0.6888823333333334
2441688702 -0.13343066666666667 -0.6855836666666667
2443169633 -0.13464066666666666 -0.6887083333333333
2444650564 -0.13550166666666666 -0.688681
2446131495 -0.13026033333333334 -0.6886883333333333
2447612426 -0.13580133333333333 -0.6880256666666666
2449093357 -0.13427999999999998 -0.6898169999999999
2450574288 -0.13524399999999998 -0.6882789999999999
2452055219 -0.1354133333333333 -0.6854143333333333
2453536150 -0.137234 -0.686342
2455017081 -0.13652566666666666 -0.6804293333333332
2456498012 -0.13832333333333333 -0.6788373333333333
2457978943 -0.13471933333333333 -0.6811569999999999
2459459874 -0.13313366666666665 -0.6774583333333333
2460940805 -0.13697566666666666 -0.671632
2462421736 -0.13591166666666665 -0.6700740000000001
2463902667 -0.138809 -0.6758620000000001
2465383598 -0.13813633333333333 -0.6756886666666666
2466864529 -0.134961 -0.6809896666666667
2468345460 -0.139625 -0.6816599999999999
2469826391 -0.13917266666666667 -0.6821803333333333
2471307322 -0.13863666666666666 -0.6848443333333334
2472788253 -0.1333363333333333 -0.6891386666666667
2474269184 -0.134799 -0.6879716666666666
2475750115 -0.135056 -0.6858116666666666
2477231046 -0.134095 -0.6860676666666667
2478711977 -0.13121066666666664 -0.683063
2480192908 -0.133825 -0.6862723333333333
2481673839 -0.13933433333333334 -0.6796323333333333
2483154770 -0.13605 -0.682218
2484635701 -0.12673099999999998 -0.6849179999999999
2486116632 -0.13271699999999997 -0.6794073333333333
2487597563 -0.12564633333333333 -0.675531
2489078494 -0.130035 -0.6729966666666667
2490559425 -0.12136 -0.673235
2492040356 -0.1332313333333333 -0.6702366666666666
2493521287 -0.12452333333333333 -0.6720533333333332
2495002218 -0.13008199999999998 -0.6751136666666666
2496483149 -0.12433899999999999 -0.6788026666666667
2497964080 -0.13369766666666666 -0.6776916666666666
2499445011 -0.126818 -0.6769866666666666
2500925942 -0.135062 -0.6776709999999999
2502406873 -0.12841566666666665 -0.6812436666666667
2503887804 -0.13443533333333335 -0.6791206666666666
2505368735 -0.12861033333333333 -0.6815850000000001
2506849666 -0.1358333333333333 -0.677307
2508330597 -0.13330066666666668 -0.680446
2509811528 -0.13797666666666664 -0.6772689999999999
2511292459 -0.13100366666666666 -0.6793806666666665
2512773390 -0.13707166666666665 -0.6747053333333334
2514254321 -0.13083266666666665 -0.6762929999999999
2515735252 -0.133399 -0.6714153333333333
2517216183 -0.13176666666666664 -0.6697066666666667
2518697114 -0.14043899999999998 -0.6676543333333333
2520178045 -0.133022 -0.6671509999999998
2521658976 -0.13962233333333332 -0.6613896666666667
2523139907 -0.13408466666666666 -0.664754
2524620838 -0.15093933333333331 -0.6651486666666666
2526101769 -0.136942 -0.6700963333333334
2527582700 -0.14251033333333332 -0.6767206666666665
2529063631 -0.1426863333333333 -0.6754623333333332
2530544562 -0.14590899999999998 -0.6793313333333334
2532025493 -0.14788733333333332 -0.6806313333333334
2533506424 -0.14728033333333332 -0.6812603333333334
2534987355 -0.14637066666666668 -0.6816896666666665
2536468286 -0.14700033333333334 -0.6822253333333332
2537949217 -0.14742633333333333 -0.6847449999999999
2539430148 -0.15258699999999997 -0.6815433333333332
2540911079 -0.15272933333333333 -0.6761266666666668
2542392010 -0.149813 -0.682488
2543872941 -0.15067566666666665 -0.6838309999999999
2545353872 -0.151828 -0.6821416666666666
2546834803 -0.14937966666666666 -0.6834326666666666
2548315734 -0.15033799999999997 -0.6826006666666666
2549796665 -0.153396 -0.679238
2551277596 -0.15218266666666666 -0.6775883333333332
2552758527 -0.15253033333333335 -0.6788136666666666
2554239458 -0.15468366666666666 -0.6832123333333332
2555720389 -0.154918 -0.6809423333333333
2557201320 -0.15147666666666665 -0.6861523333333333
2558682251 -0.15392833333333333 -0.6844359999999999
2560163182 -0.14710966666666664 -0.684418
2561644113 -0.153522 -0.6840696666666668
2563125044 -0.151188 -0.6882086666666667
2564605975 -0.1503283333333333 -0.6895863333333333
2566086906 -0.148563 -0.6911813333333333
2567567837 -0.14417433333333332 -0.6862783333333333
2569048768 -0.15041366666666667 -0.6528176666666666
2570529699 -0.14806 -0.6855479999999999
2572010630 -0.15062699999999998 -0.6886766666666666
2573491561 -0.14686666666666667 -0.6861226666666667
2574972492 -0.14992033333333332 -0.6795869999999999
2576453423 -0.1471843333333333 -0.6799443333333333
2577934354 -0.144557 -0.6794276666666665
2579415285 -0.13620866666666664 -0.6966693333333334
2580896216 -0.148359 -0.6731186666666666
2582377147 -0.152279 -0.6748943333333333
2583858078 -0.14888 -0.6742183333333333
2585339009 -0.14568366666666666 -0.6760120000000001
2586819940 -0.14756533333333333 -0.6738666666666666
2588300871 -0.148346 -0.6783076666666666
2589781802 -0.14751066666666665 -0.6764539999999999
2591262733 -0.146822 -0.678457
2592743664 -0.15118133333333333 -0.677593
2594224595 -0.148602 -0.6781043333333333
2595705526 -0.14803333333333332 -0.6772326666666666
2597186457 -0.14689233333333335 -0.680256
2598667388 -0.14895533333333333 -0.6759053333333332
2600148319 -0.14246766666666666 -0.6756469999999999
2601629250 -0.14497933333333335 -0.6752476666666666
2603110181 -0.15205166666666667 -0.6691836666666667
2604591112 -0.149655 -0.6675583333333333
2606072043 -0.14940433333333333 -0.6665869999999999
2607552974 -0.14991666666666664 -0.6654803333333332
2609033905 -0.15206466666666668 -0.6602713333333332
2610514836 -0.15299466666666667 -0.656716
2611995767 -0.14951366666666666 -0.6572126666666667
2613476698 -0.15067866666666666 -0.657569
2614957629 -0.15393066666666666 -0.6597763333333333
2616438560 -0.15270699999999998 -0.6616770000000001
2617919491 -0.15265600000000001 -0.663575
2619400422 -0.15428333333333333 -0.668672
2620881353 -0.15247966666666668 -0.6733733333333333
2622362284 -0.15598 -0.671205
2623843215 -0.1500953333333333 -0.668831
2625324146 -0.15167599999999998 -0.6674443333333333
2626805077 -0.14776866666666666 -0.6712903333333333
2628286008 -0.156091 -0.6706733333333332
2629766939 -0.149381 -0.6662786666666666
2631247870 -0.15473966666666666 -0.6663773333333333
2632728801 -0.15131499999999998 -0.6630626666666666
2634209732 -0.16294766666666666 -0.658922
2635690663 -0.159879 -0.6628923333333333
2637171594 -0.1607873333333333 -0.6587426666666667
2638652525 -0.156375 -0.6608879999999999
2640133456 -0.160734 -0.654257
2641614387 -0.15793933333333332 -0.6552209999999999
2643095318 -0.16259066666666666 -0.6598576666666667
2644576249 -0.15881299999999998 -0.6618573333333333
2646057180 -0.1650793333333333 -0.6635993333333332
2647538111 -0.16365 -0.6662383333333333
2649019042 -0.16007566666666667 -0.668078
2650499973 -0.160685 -0.6680076666666667
2651980904 -0.157271 -0.6735823333333333
2653461835 -0.1597073333333333 -0.6725803333333333
2654942766 -0.15636 -0.6781653333333333
2656423697 -0.15933199999999997 -0.675573
2657904628 -0.15954033333333334 -0.6748963333333333
2659385559 -0.16092233333333333 -0.6735466666666667
2660866490 -0.15624666666666664 -0.6726803333333332
2662347421 -0.1561803333333333 -0.6793763333333334
2663828352 -0.16031966666666667 -0.6733023333333332
2665309283 -0.15973133333333334 -0.6681693333333334
2666790214 -0.16361266666666666 -0.6694966666666666
2668271145 -0.16074533333333332 -0.6684859999999999
2669752076 -0.153161 -0.6670233333333333
2671233007 -0.15881233333333333 -0.6619533333333332
2672713938 -0.15858833333333333 -0.6642973333333333
2674194869 -0.16289599999999999 -0.6659063333333333
2675675800 -0.15857433333333332 -0.6724723333333333
2677156731 -0.151822 -0.6754746666666667
2678637662 -0.155633 -0.6747753333333334
2680118593 -0.15437966666666664 -0.6754586666666667
2681599524 -0.1546253333333333 -0.6791406666666666
2683080455 -0.1504463333333333 -0.6789766666666666
2684561386 -0.15092366666666668 -0.681972
2686042317 -0.1477093333333333 -0.6831213333333334
2687523248 -0.14510633333333334 -0.6806289999999999
2689004179 -0.14807499999999998 -0.6797576666666667
2690485110 -0.14569066666666666 -0.6769843333333332
2691966041 -0.14245333333333332 -0.6775856666666666
2693446972 -0.14748699999999998 -0.6749449999999999
2694927903 -0.142205 -0.6743453333333332
2696408834 -0.13745266666666667 -0.671554
2697889765 -0.13933666666666666 -0.6698376666666667
2699370696 -0.142088 -0.6620869999999999
2700851627 -0.14839633333333332 -0.6580959999999999
2702332558 -0.1476823333333333 -0.6629039999999999
2703813489 -0.140787 -0.6652886666666666
2705294420 -0.14185599999999998 -0.6670539999999999
2706775351 -0.14241666666666666 -0.6680563333333334
2708256282 -0.147532 -0.6706513333333333
2709737213 -0.14497866666666664 -0.6718306666666667
2711218144 -0.14899166666666666 -0.6721983333333333
2712699075 -0.15660233333333332 -0.6729860000000001
2714180006 -0.14950666666666668 -0.6739913333333334
2715660937 -0.14698233333333333 -0.669244
2717141868 -0.1429103333333333 -0.6715163333333332
2718622799 -0.16621399999999997 -0.6696696666666666
2720103730 -0.17193766666666666 -0.670098
2721584661 -0.15910066666666667 -0.6648813333333333
2723065592 -0.15933 -0.6668846666666666
2724546523 -0.16500666666666663 -0.663594
2726027454 -0.166831 -0.6612046666666667
2727508385 -0.16557599999999997 -0.6576943333333333
2728989316 -0.16292600000000002 -0.6559106666666665
2730470247 -0.16684899999999997 -0.653999
2731951178 -0.17023533333333332 -0.65312
2733432109 -0.166793 -0.6557909999999999
2734913040 -0.16940999999999998 -0.658574
2736393971 -0.16895366666666667 -0.6623889999999999
2737874902 -0.17371733333333333 -0.658517
2739355833 -0.17310499999999998 -0.6612926666666665
2740836764 -0.17186766666666667 -0.663029
2742317695 -0.18135066666666666 -0.6637693333333333
2743798626 -0.17812033333333335 -0.6692879999999999
2745279557 -0.17543699999999998 -0.6698689999999999
2746760488 -0.159828 -0.6694496666666666
2748241419 -0.17007699999999998 -0.6683496666666666
2749722350 -0.1675243333333333 -0.6687456666666667
2751203281 -0.17791633333333334 -0.6699896666666666
2752684212 -0.16688766666666668 -0.6668293333333333
2754165143 -0.17439466666666664 -0.6610686666666666
2755646074 -0.16238233333333332 -0.6648753333333334
2757127005 -0.17928099999999997 -0.6601813333333333
2758607936 -0.16080666666666665 -0.6618016666666666
2760088867 -0.17558166666666666 -0.6535316666666666
2761569798 -0.15326833333333334 -0.6552046666666667
2763050729 -0.177392 -0.6615653333333333
2764531660 -0.16948566666666665 -0.6670186666666666
2766012591 -0.1766273333333333 -0.6642056666666667
2767493522 -0.16008899999999998 -0.6633513333333332
2768974453 -0.169421 -0.6689453333333333
2770455384 -0.16125066666666665 -0.668563
2771936315 -0.16874166666666662 -0.66715
2773417246 -0.15186933333333333 -0.666077
2774898177 -0.17156133333333334 -0.6692883333333333
2776379108 -0.1615313333333333 -0.6715456666666666
2777860039 -0.17345166666666667 -0.6713823333333333
2779340970 -0.15512366666666666 -0.6727963333333333
2780821901 -0.16847099999999998 -0.6664116666666666
2782302832 -0.1538523333333333 -0.6688373333333333
2783783763 -0.168874 -0.663443
2785264694 -0.15658966666666665 -0.6617613333333333
2786745625 -0.162577 -0.6602750000000001
2788226556 -0.15863266666666664 -0.6594883333333332
2789707487 -0.16195066666666666 -0.6521376666666666
2791188418 -0.15670766666666663 -0.656172
2792669349 -0.16252933333333333 -0.6543066666666666
2794150280 -0.15595333333333333 -0.6604063333333333
2795631211 -0.17290299999999997 -0.6619313333333332
2797112142 -0.15572666666666668 -0.6561596666666667
2798593073 -0.16250866666666666 -0.6620823333333333
2800074004 -0.16451233333333332 -0.6641953333333332
2801554935 -0.165982 -0.6683466666666666
2803035866 -0.16326433333333334 -0.6646403333333333
2804516797 -0.166121 -0.6669933333333333
2805997728 -0.16707966666666665 -0.666506
2807478659 -0.16858433333333334 -0.6651199999999999
2808959590 -0.167717 -0.6654726666666666
2810440521 -0.16663633333333333 -0.6640853333333333
2811921452 -0.169538 -0.662568
2813402383 -0.16779533333333332 -0.6641273333333333
2814883314 -0.16655233333333333 -0.660015
2816364245 -0.170403 -0.6593376666666666
2817845176 -0.1665083333333333 -0.6569333333333334
2819326107 -0.161231 -0.6536199999999999
2820807038 -0.16517099999999998 -0.65463
2822287969 -0.16740199999999997 -0.6590083333333333
2823768900 -0.16676333333333332 -0.664167
2825249831 -0.16415533333333332 -0.6649019999999999
2826730762 -0.16949133333333333 -0.6633593333333333
2828211693 -0.169067 -0.668253
2829692624 -0.16868033333333332 -0.6691506666666666
2831173555 -0.169121 -0.6718123333333332
2832654486 -0.1662263333333333 -0.6719773333333332
2834135417 -0.170645 -0.6686073333333332
2835616348 -0.17159033333333332 -0.6706276666666666
2837097279 -0.16814433333333334 -0.6691566666666665
2838578210 -0.16333966666666666 -0.6709206666666666
2840059141 -0.16940633333333333 -0.6654366666666666
2841540072 -0.16741366666666663 -0.6669963333333333
2843021003 -0.16494666666666666 -0.6640383333333333
2844501934 -0.1710753333333333 -0.6611973333333332
2845982865 -0.16698533333333335 -0.6621623333333334
2847463796 -0.1712203333333333 -0.6577256666666667
2848944727 -0.16880166666666666 -0.6530956666666666
2850425658 -0.16673666666666667 -0.6516866666666666
2851906589 -0.17125400000000002 -0.6523826666666667
2853387520 -0.165857 -0.6540619999999999
2854868451 -0.17041733333333334 -0.6573406666666666
2856349382 -0.169825 -0.6575906666666667
2857830313 -0.16907899999999998 -0.6595233333333332
2859311244 -0.17157966666666669 -0.6593686666666666
2860792175 -0.16903933333333332 -0.6583006666666666
2862273106 -0.17098133333333335 -0.6577846666666667
2863754037 -0.17271433333333333 -0.6602313333333333
2865234968 -0.16620800000000002 -0.6575089999999999
2866715899 -0.17533766666666667 -0.6595009999999999
2868196830 -0.17295966666666665 -0.6549346666666667
2869677761 -0.173031 -0.6754673333333333
2871158692 -0.17166099999999998 -0.6549780000000001
2872639623 -0.174423 -0.6500906666666666
2874120554 -0.17442433333333332 -0.6502066666666666
2875601485 -0.17388966666666664 -0.6422896666666666
2877082416 -0.1720053333333333 -0.6445123333333332
2878563347 -0.17528033333333332 -0.6401913333333332
2880044278 -0.17183733333333334 -0.6375053333333333
2881525209 -0.17534399999999997 -0.642271
2883006140 -0.17763833333333334 -0.6391036666666666
2884487071 -0.175171 -0.6455163333333332
2885968002 -0.17901433333333333 -0.6469069999999999
2887448933 -0.17834866666666663 -0.649969
2888929864 -0.172612 -0.6520919999999999
2890410795 -0.17820066666666667 -0.6514623333333334
2891891726 -0.17836566666666667 -0.6519053333333332
2893372657 -0.17546966666666666 -0.6539383333333333
2894853588 -0.17681866666666668 -0.654273
2896334519 -0.17467466666666667 -0.65664
2897815450 -0.17415799999999998 -0.6561076666666666
2899296381 -0.174251 -0.6570119999999999
2900777312 -0.17296666666666666 -0.6570229999999999
2902258243 -0.17380600000000002 -0.6566453333333333
2903739174 -0.17133666666666664 -0.6554813333333334
2905220105 -0.17139699999999997 -0.6535063333333333
2906701036 -0.1740533333333333 -0.6526006666666666
2908181967 -0.17115733333333333 -0.6496486666666665
2909662898 -0.17200633333333332 -0.6479693333333333
2911143829 -0.17148266666666667 -0.6459739999999999
2912624760 -0.17402733333333334 -0.6493153333333332
2914105691 -0.1729496666666667 -0.6486506666666665
2915586622 -0.17227566666666666 -0.6522623333333333
2917067553 -0.17568099999999998 -0.6523386666666666
2918548484 -0.17437966666666666 -0.6545406666666667
2920029415 -0.172304 -0.6525179999999999
2921510346 -0.17574966666666664 -0.6535949999999999
2922991277 -0.18058766666666665 -0.6465943333333333
2924472208 -0.17720466666666668 -0.653907
2925953139 -0.17693466666666668 -0.6541836666666666
2927434070 -0.18132700000000002 -0.6509406666666666
2928915001 -0.17831166666666667 -0.6527193333333333
2930395932 -0.1794623333333333 -0.6470136666666666
2931876863 -0.17831 -0.6488916666666666
2933357794 -0.17932766666666666 -0.6451743333333333
2934838725 -0.179983 -0.64425
2936319656 -0.18279166666666663 -0.6407946666666666
2937800587 -0.1831023333333333 -0.6360896666666667
2939281518 -0.18582166666666666 -0.635544
2940762449 -0.186387 -0.6286966666666666
2942243380 -0.18498333333333333 -0.6377073333333333
2943724311 -0.18923299999999998 -0.6415646666666666
2945205242 -0.18584033333333333 -0.6427853333333333
2946686173 -0.18441333333333332 -0.6434356666666666
2948167104 -0.18520133333333333 -0.6412726666666666
2949648035 -0.187773 -0.6455216666666665
2951128966 -0.18504500000000002 -0.6455376666666667
2952609897 -0.18311899999999998 -0.646479
2954090828 -0.18450033333333332 -0.6496536666666666
2955571759 -0.18725899999999998 -0.6431206666666666
2957052690 -0.1852523333333333 -0.643505
2958533621 -0.185091 -0.6430846666666665
2960014552 -0.18321966666666667 -0.6412626666666665
2961495483 -0.18417699999999998 -0.64313
2962976414 -0.18333666666666665 -0.6407903333333334
2964457345 -0.18237966666666666 -0.6393883333333333
2965938276 -0.18096666666666664 -0.6346686666666665
2967419207 -0.18158866666666665 -0.6336553333333332
2968900138 -0.18351766666666663 -0.6287653333333332
2970381069 -0.17739733333333332 -0.6313103333333334
2971862000 -0.18252733333333332 -0.6281503333333334
2973342931 -0.18225366666666667 -0.631335
2974823862 -0.18212899999999999 -0.6362193333333332
2976304793 -0.18033966666666668 -0.6348463333333334
2977785724 -0.18571200000000002 -0.635961
2979266655 -0.18572499999999997 -0.6349403333333333
2980747586 -0.18440533333333334 -0.6390229999999999
2982228517 -0.18451866666666664 -0.6382883333333333
2983709448 -0.18179266666666666 -0.6423173333333333
2985190379 -0.1842143333333333 -0.6377323333333333
2986671310 -0.1813826666666667 -0.6401806666666667
2988152241 -0.18345766666666666 -0.6398483333333334
2989633172 -0.17984866666666666 -0.6403296666666667
2991114103 -0.1816583333333333 -0.6377573333333333
2992595034 -0.18128066666666665 -0.6305286666666666
2994075965 -0.17724933333333331 -0.6372896666666666
2995556896 -0.17457933333333334 -0.6355616666666666
2997037827 -0.1734533333333333 -0.6327746666666667
2998518758 -0.17228666666666664 -0.6317919999999999
2999999689 -0.17465933333333333 -0.6273819999999999
