# HZ S RI R 50
10000000 0.6290113333333334 -0.013018666666666666
11480931 0.6299893333333333 -0.014252666666666665
12961862 0.6309976666666667 -0.016459666666666668
14442793 0.6326496666666666 -0.01744233333333333
15923724 0.6335583333333332 -0.019900333333333332
17404655 0.6343253333333332 -0.021963333333333328
18885586 0.635526 -0.023675333333333333
20366517 0.636363 -0.02540066666666666
21847448 0.637546 -0.026252666666666664
23328379 0.6377496666666667 -0.027972666666666663
24809310 0.6380093333333333 -0.02858933333333333
26290241 0.637607 -0.030092999999999998
27771172 0.6379426666666667 -0.03150699999999999
29252103 0.6378519999999999 -0.03239633333333333
30733034 0.6370929999999999 -0.03327233333333333
32213965 0.635869 -0.033676333333333336
33694896 0.6220273333333333 -0.04800466666666667
35175827 0.6338803333333333 -0.021974333333333335
36656758 0.6312313333333333 -0.04266533333333333
38137689 0.6297086666666667 -0.03650366666666666
39618620 0.6266783333333332 -0.03667566666666666
41099551 0.6285886666666666 -0.03317433333333333
42580482 0.6305256666666668 -0.041092666666666666
44061413 0.631869 -0.056334333333333333
45542344 0.6344856666666666 -0.03693666666666666
47023275 0.6351956666666667 -0.04696566666666666
48504206 0.6383833333333333 -0.029821666666666666
49985137 0.6381773333333333 -0.042849
51466068 0.6380646666666667 -0.051879666666666664
52946999 0.6383396666666666 -0.058858
54427930 0.6384803333333333 -0.05389966666666666
55908861 0.6390879999999999 -0.05463733333333333
57389792 0.6390276666666665 -0.04715799999999999
58870723 0.6370899999999999 -0.06905266666666666
60351654 0.6371326666666666 -0.057456999999999994
61832585 0.635741 -0.058560666666666664
63313516 0.6341046666666665 -0.060772999999999994
64794447 0.6328233333333333 -0.05987733333333334
66275378 0.627033 -0.08341399999999999
67756309 0.6233569999999999 -0.09243900000000001
69237240 0.625392 -0.06326266666666666
70718171 0.6274826666666666 -0.04615233333333333
72199102 0.6202213333333333 -0.10909833333333332
73680033 0.6292023333333333 -0.06890066666666667
75160964 0.6353203333333333 -0.025418333333333334
76641895 0.6319053333333333 -0.07236666666666666
78122826 0.6339413333333332 -0.07386033333333333
79603757 0.6390693333333333 -0.031412333333333334
81084688 0.6408663333333333 0.006296999999999999
82565619 0.6354766666666667 -0.07771433333333333
84046550 0.6355553333333332 -0.07843433333333333
85527481 0.635564 -0.08529500000000001
87008412 0.6351356666666665 -0.08153933333333332
88489343 0.631599 -0.09664533333333333
89970274 0.630738 -0.09456833333333332
91451205 0.6320613333333333 -0.084412
92932136 0.6295353333333333 -0.09165533333333332
94413067 0.6306733333333333 -0.07762533333333334
95893998 0.6262803333333333 -0.08752966666666667
97374929 0.6246999999999999 -0.08470833333333333
98855860 0.6211053333333334 -0.08869333333333332
100336791 0.6223283333333334 -0.09081099999999999
101817722 0.6233583333333332 -0.09313666666666666
103298653 0.6260883333333334 -0.09504633333333332
104779584 0.6268659999999999 -0.09656533333333334
106260515 0.6276619999999999 -0.09810533333333334
107741446 0.630026 -0.09962833333333333
109222377 0.6302733333333334 -0.10021366666666666
110703308 0.6308146666666667 -0.10188900000000001
112184239 0.631184 -0.10342199999999999
113665170 0.6317773333333332 -0.10453666666666667
115146101 0.6317483333333334 -0.10504766666666665
116627032 0.6313263333333332 -0.10626333333333333
118107963 0.6307429999999999 -0.10790099999999998
119588894 0.630072 -0.10813933333333332
121069825 0.6285266666666667 -0.10855999999999999
122550756 0.6276059999999999 -0.109926
124031687 0.6260680000000001 -0.11064999999999998
125512618 0.624796 -0.11173133333333332
126993549 0.6216109999999999 -0.11181433333333332
128474480 0.619522 -0.112824
129955411 0.6177619999999999 -0.11421033333333333
131436342 0.620874 -0.11700166666666667
132917273 0.6232613333333333 -0.11808333333333333
134398204 0.6254183333333333 -0.120181
135879135 0.617571 -0.124596
137360066 0.618982 -0.12682433333333332
138840997 0.6204626666666666 -0.12838866666666665
140321928 0.621861 -0.129344
141802859 0.6227246666666666 -0.13044699999999998
143283790 0.6231673333333333 -0.13154433333333332
144764721 0.6234723333333332 -0.13282033333333332
146245652 0.6231606666666667 -0.13284433333333331
147726583 0.6235423333333333 -0.13479266666666667
149207514 0.623043 -0.13486766666666664
150688445 0.6220819999999999 -0.13546266666666668
152169376 0.6206773333333332 -0.13625233333333334
153650307 0.6196653333333334 -0.13656433333333332
155131238 0.6182923333333333 -0.137549
156612169 0.6164773333333333 -0.13886166666666666
158093100 0.6150273333333334 -0.139252
159574031 0.6117273333333333 -0.13942
161054962 0.614023 -0.14092
162535893 0.6162666666666667 -0.14273066666666667
164016824 0.61784 -0.14467433333333335
165497755 0.619209 -0.14628933333333333
166978686 0.6200716666666667 -0.14721766666666666
168459617 0.621651 -0.14855866666666664
169940548 0.6215866666666666 -0.14970866666666666
171421479 0.6222279999999999 -0.15126266666666666
172902410 0.6219426666666666 -0.15223266666666666
174383341 0.6221793333333332 -0.15400266666666665
175864272 0.6219836666666667 -0.154576
177345203 0.621318 -0.15539166666666665
178826134 0.615138 -0.16816499999999995
180307065 0.6230226666666666 -0.149791
181787996 0.616923 -0.15870666666666666
183268927 0.6154976666666667 -0.15960133333333332
184749858 0.6133196666666667 -0.16012633333333331
186230789 0.6108339999999999 -0.16105333333333333
187711720 0.6091853333333332 -0.16220933333333332
189192651 0.6055613333333333 -0.16312266666666667
190673582 0.6071676666666668 -0.16558833333333334
192154513 0.6093116666666667 -0.16722700000000001
193635444 0.6111296666666666 -0.168923
195116375 0.6133310000000001 -0.1704383333333333
196597306 0.6143579999999998 -0.17200266666666666
198078237 0.6142983333333333 -0.17346
199559168 0.6157499999999999 -0.17449833333333334
201040099 0.6164016666666666 -0.175743
202521030 0.6162936666666666 -0.17686566666666664
204001961 0.6175379999999999 -0.17393933333333333
205482892 0.617764 -0.1748053333333333
206963823 0.613844 -0.183534
208444754 0.6161260000000001 -0.177431
209925685 0.6116613333333333 -0.1853113333333333
211406616 0.612511 -0.17934233333333333
212887547 0.607892 -0.18710166666666667
214368478 0.6093176666666666 -0.18053233333333332
215849409 0.6031603333333333 -0.18924633333333332
217330340 0.6043426666666667 -0.1830236666666667
218811271 0.5976169999999998 -0.19068566666666667
220292202 0.601918 -0.18540433333333334
221773133 0.6002716666666666 -0.19426533333333332
223254064 0.6054843333333333 -0.18919766666666665
224734995 0.6044753333333333 -0.198267
226215926 0.6088739999999999 -0.192561
227696857 0.6059943333333333 -0.20097800000000002
229177788 0.6108406666666666 -0.19466666666666668
230658719 0.6074803333333333 -0.20305299999999998
232139650 0.6069113333333332 -0.20479666666666665
233620581 0.610972 -0.19929666666666668
235101512 0.60747 -0.20668
236582443 0.6101573333333333 -0.200886
238063374 0.6058666666666666 -0.20834366666666665
239544305 0.6083219999999999 -0.202032
241025236 0.6029006666666665 -0.21028399999999997
242506167 0.6052686666666666 -0.20353366666666664
243987098 0.601125 -0.20836133333333332
245468029 0.599951 -0.20584266666666667
246948960 0.5939326666666667 -0.21370466666666665
248429891 0.5937673333333333 -0.20653933333333332
249910822 0.5921259999999999 -0.21199833333333334
251391753 0.5940183333333332 -0.21426366666666666
252872684 0.596575 -0.21651766666666666
254353615 0.5978053333333333 -0.21850033333333332
255834546 0.599263 -0.220879
257315477 0.6004959999999999 -0.22189133333333333
258796408 0.601774 -0.223709
260277339 0.6018776666666665 -0.22548533333333332
261758270 0.60246 -0.22591466666666665
263239201 0.602412 -0.22718133333333335
264720132 0.601796 -0.2288303333333333
266201063 0.6018733333333333 -0.22959166666666667
267681994 0.6010263333333333 -0.22995633333333335
269162925 0.599218 -0.2307993333333333
270643856 0.597744 -0.23152699999999998
272124787 0.5953646666666667 -0.23220133333333332
273605718 0.5933126666666666 -0.23307499999999998
275086649 0.5906026666666666 -0.23429033333333332
276567580 0.5875283333333333 -0.235297
278048511 0.5853296666666666 -0.23469833333333334
279529442 0.5832333333333333 -0.23651866666666668
281010373 0.584905 -0.23838566666666663
282491304 0.5876053333333333 -0.24104966666666666
283972235 0.5889373333333332 -0.243219
285453166 0.5902339999999999 -0.24486666666666662
286934097 0.5913713333333332 -0.2472393333333333
288415028 0.5926243333333333 -0.2485673333333333
289895959 0.5931403333333334 -0.24958866666666668
291376890 0.5935173333333332 -0.250876
292857821 0.5938476666666667 -0.2516493333333333
294338752 0.5931883333333332 -0.2524563333333333
295819683 0.5925379999999999 -0.25384433333333334
297300614 0.5911299999999999 -0.25470899999999996
298781545 0.590282 -0.25459299999999996
300262476 0.5886906666666666 -0.25537
301743407 0.586856 -0.25587499999999996
303224338 0.5840916666666667 -0.256922
304705269 0.5820666666666666 -0.25751633333333335
306186200 0.5784773333333333 -0.25726066666666664
307667131 0.5757786666666665 -0.25799399999999995
309148062 0.5726176666666666 -0.25814166666666666
310628993 0.5751296666666667 -0.26093
312109924 0.5767573333333332 -0.2631053333333333
313590855 0.5787466666666666 -0.26508333333333334
315071786 0.5801806666666667 -0.267629
316552717 0.5813716666666666 -0.2693773333333333
318033648 0.5814473333333333 -0.271097
319514579 0.5823813333333333 -0.2724736666666666
320995510 0.5829863333333333 -0.2735966666666666
322476441 0.5836693333333334 -0.274927
323957372 0.5829853333333334 -0.2763413333333333
325438303 0.5831586666666666 -0.2773493333333333
326919234 0.5823043333333333 -0.27768
328400165 0.5807323333333333 -0.27803433333333333
329881096 0.5793706666666667 -0.2789003333333333
331362027 0.5773016666666666 -0.279373
332842958 0.5750819999999999 -0.279273
334323889 0.5729206666666666 -0.2799396666666666
335804820 0.5702863333333333 -0.279806
337285751 0.5678083333333332 -0.27978866666666663
338766682 0.5662773333333333 -0.27711899999999995
340247613 0.5648446666666667 -0.28274066666666664
341728544 0.5667483333333333 -0.284576
343209475 0.568253 -0.2878513333333333
344690406 0.570221 -0.28977733333333333
346171337 0.5710136666666666 -0.29228466666666664
347652268 0.574355 -0.2909043333333333
349133199 0.5724423333333333 -0.29645466666666664
350614130 0.572189 -0.29754899999999995
352095061 0.5724456666666666 -0.29804233333333335
353575992 0.5724443333333333 -0.29879466666666665
355056923 0.5716543333333333 -0.29960333333333333
356537854 0.5703266666666666 -0.3008763333333333
358018785 0.5687626666666665 -0.3016683333333333
359499716 0.5681676666666666 -0.3016723333333333
360980647 0.56665 -0.302184
362461578 0.5642853333333333 -0.30304099999999995
363942509 0.561629 -0.3031473333333333
365423440 0.559059 -0.3029436666666666
366904371 0.556904 -0.302722
368385302 0.5533216666666665 -0.3023336666666666
369866233 0.5532316666666667 -0.3047486666666666
371347164 0.5551266666666665 -0.307832
372828095 0.5563313333333333 -0.309903
374309026 0.5577496666666667 -0.3118806666666667
375789957 0.558523 -0.3138563333333333
377270888 0.5589846666666666 -0.31581966666666667
378751819 0.5596526666666666 -0.31775166666666665
380232750 0.5598156666666667 -0.318791
381713681 0.5599969999999999 -0.32018366666666664
383194612 0.5598023333333333 -0.321376
384675543 0.5591006666666667 -0.32173199999999996
386156474 0.5591273333333333 -0.32235833333333336
387637405 0.5578743333333334 -0.32317533333333337
389118336 0.5565793333333332 -0.323222
390599267 0.5546599999999999 -0.3236213333333333
392080198 0.5527053333333334 -0.3241953333333333
393561129 0.550694 -0.3232183333333333
395042060 0.5475863333333333 -0.322846
396522991 0.54558 -0.32349933333333336
398003922 0.543389 -0.3225483333333333
399484853 0.5416433333333333 -0.32451566666666665
400965784 0.543156 -0.3268116666666666
402446715 0.5447923333333333 -0.3292823333333333
403927646 0.5456056666666667 -0.332021
405408577 0.54646 -0.333702
406889508 0.5473093333333333 -0.3355703333333333
408370439 0.5481953333333333 -0.33704266666666666
409851370 0.5479593333333332 -0.3399943333333333
411332301 0.547243 -0.3409183333333333
412813232 0.5478193333333332 -0.34160166666666664
414294163 0.5475666666666666 -0.3419186666666666
415775094 0.546808 -0.3438596666666667
417256025 0.5456599999999999 -0.3437049999999999
418736956 0.5453003333333333 -0.34385333333333334
420217887 0.542636 -0.34414866666666666
421698818 0.5413693333333334 -0.34503700000000004
423179749 0.540108 -0.3445196666666666
424660680 0.5371936666666666 -0.343622
426141611 0.5343923333333334 -0.34438966666666665
427622542 0.5316513333333333 -0.3441776666666666
429103473 0.5294479999999999 -0.34557399999999994
430584404 0.5316863333333333 -0.3473463333333333
432065335 0.5322956666666665 -0.34920833333333334
433546266 0.5339229999999999 -0.3503846666666666
435027197 0.5349006666666667 -0.35376299999999994
436508128 0.53514 -0.3556093333333333
437989059 0.535387 -0.35668
439469990 0.5363546666666666 -0.358407
440950921 0.5357636666666666 -0.359751
442431852 0.5355573333333332 -0.3604556666666666
443912783 0.5341926666666665 -0.36183566666666667
445393714 0.5346086666666667 -0.36179799999999995
446874645 0.533108 -0.362062
448355576 0.532254 -0.3629096666666667
449836507 0.5298046666666667 -0.362811
451317438 0.5294083333333334 -0.36320833333333324
452798369 0.5273193333333334 -0.3620636666666666
454279300 0.5240893333333334 -0.3617763333333333
455760231 0.5226123333333332 -0.36196666666666666
457241162 0.5193226666666666 -0.3620603333333333
458722093 0.5167313333333333 -0.361032
460203024 0.5191073333333334 -0.36370733333333327
461683955 0.519747 -0.36571099999999995
463164886 0.519955 -0.36889533333333335
464645817 0.521432 -0.37108433333333324
466126748 0.5219853333333333 -0.3726846666666666
467607679 0.5224996666666667 -0.3754226666666667
469088610 0.5229976666666666 -0.37618566666666664
470569541 0.522731 -0.37754999999999994
472050472 0.5222819999999999 -0.379219
473531403 0.523469 -0.37883433333333333
475012334 0.5224753333333332 -0.37993599999999994
476493265 0.5216706666666666 -0.3806163333333333
477974196 0.521099 -0.381421
479455127 0.5194986666666668 -0.38135966666666665
480936058 0.518466 -0.3804873333333333
482416989 0.516928 -0.3811333333333334
483897920 0.5143383333333333 -0.3808283333333333
485378851 0.5120026666666666 -0.3808493333333334
486859782 0.5157273333333334 -0.37590066666666666
488340713 0.5064436666666667 -0.3797693333333333
489821644 0.5081913333333333 -0.382625
491302575 0.5088883333333333 -0.3849716666666666
492783506 0.5102266666666666 -0.3874753333333333
494264437 0.5105926666666667 -0.38930566666666666
495745368 0.5115856666666667 -0.3917583333333333
497226299 0.513309 -0.39252166666666666
498707230 0.5123719999999998 -0.39421566666666663
500188161 0.511824 -0.3954913333333333
501669092 0.5120203333333333 -0.39590166666666665
503150023 0.5116566666666666 -0.39718466666666663
504630954 0.5104076666666666 -0.397278
506111885 0.509591 -0.39829866666666663
507592816 0.508962 -0.398157
509073747 0.5068893333333333 -0.39806199999999997
510554678 0.5053953333333334 -0.39918233333333336
512035609 0.5031706666666667 -0.3994756666666666
513516540 0.5018063333333334 -0.397926
514997471 0.4990906666666667 -0.39732866666666666
516478402 0.496637 -0.3969936666666666
517959333 0.4935273333333333 -0.397703
519440264 0.49301833333333334 -0.39764333333333335
520921195 0.49386566666666665 -0.40165166666666663
522402126 0.49487133333333333 -0.40367600000000003
523883057 0.4979993333333333 -0.4054716666666667
525363988 0.49752633333333335 -0.407915
526844919 0.4977796666666666 -0.4096036666666666
528325850 0.4980373333333333 -0.41104233333333334
529806781 0.4984903333333333 -0.412709
531287712 0.49752 -0.4139976666666666
532768643 0.498625 -0.4147206666666666
534249574 0.49174999999999996 -0.4208923333333333
535730505 0.4985816666666666 -0.4129293333333333
537211436 0.492795 -0.4181143333333333
538692367 0.4964846666666667 -0.4138723333333333
540173298 0.49032533333333334 -0.41925733333333337
541654229 0.4928446666666666 -0.4140083333333333
543135160 0.48543699999999995 -0.41837599999999997
544616091 0.48898533333333327 -0.4120056666666666
546097022 0.4806956666666667 -0.41740866666666665
547577953 0.4831736666666666 -0.4110026666666666
549058884 0.47640899999999997 -0.4176943333333333
550539815 0.48404499999999995 -0.41518466666666665
552020746 0.47953233333333334 -0.4227873333333333
553501677 0.48490733333333325 -0.42125466666666667
554982608 0.48202633333333333 -0.427398
556463539 0.48675599999999997 -0.4251269999999999
557944470 0.48202799999999996 -0.4310913333333333
559425401 0.4876746666666667 -0.42715166666666665
560906332 0.4813966666666666 -0.4341436666666667
562387263 0.48750099999999996 -0.42947333333333326
563868194 0.48126099999999994 -0.43599566666666667
565349125 0.48530133333333336 -0.431617
566830056 0.47995166666666667 -0.43531333333333333
568310987 0.4845033333333333 -0.4309536666666667
569791918 0.47737566666666664 -0.4359206666666667
571272849 0.48119599999999996 -0.430538
572753780 0.47294899999999995 -0.43572299999999997
574234711 0.47624333333333335 -0.431039
575715642 0.47125799999999995 -0.43192366666666665
577196573 0.4721276666666666 -0.42795933333333336
578677504 0.46623466666666663 -0.4327046666666666
580158435 0.4682303333333333 -0.4341793333333333
581639366 0.46837166666666663 -0.43894799999999995
583120297 0.47004566666666664 -0.440187
584601228 0.470912 -0.44179199999999996
586082159 0.4717403333333333 -0.4437176666666667
587563090 0.4712726666666667 -0.4458643333333333
589044021 0.4713313333333333 -0.44640066666666667
590524952 0.47110266666666667 -0.447797
592005883 0.47113799999999995 -0.448834
593486814 0.47098966666666664 -0.45034599999999997
594967745 0.469533 -0.4499223333333333
596448676 0.4690023333333333 -0.45042499999999996
597929607 0.4675353333333333 -0.45005433333333333
599410538 0.4665659999999999 -0.44938666666666666
600891469 0.46391499999999997 -0.44927433333333333
602372400 0.46252733333333335 -0.4486656666666667
603853331 0.46092233333333327 -0.4484163333333333
605334262 0.45649233333333333 -0.44739633333333334
606815193 0.45444399999999996 -0.446369
608296124 0.4518209999999999 -0.4453273333333333
609777055 0.45323766666666665 -0.44875833333333326
611257986 0.45422999999999997 -0.4519673333333333
612738917 0.45433466666666666 -0.453935
614219848 0.456349 -0.4559593333333334
615700779 0.4569333333333333 -0.45851966666666666
617181710 0.4567216666666667 -0.46049999999999996
618662641 0.45636466666666664 -0.46270599999999995
620143572 0.45644966666666664 -0.4627406666666667
621624503 0.4560673333333334 -0.46471799999999996
623105434 0.45606833333333335 -0.46507
624586365 0.455962 -0.46512166666666666
626067296 0.454634 -0.4656986666666666
627548227 0.45339 -0.4661473333333333
629029158 0.45224033333333336 -0.46553199999999995
630510089 0.4508996666666666 -0.4661823333333333
631991020 0.448082 -0.46596266666666664
633471951 0.44685800000000003 -0.46411499999999994
634952882 0.4450186666666667 -0.4632826666666666
636433813 0.44160833333333327 -0.462477
637914744 0.4186873333333333 -0.44270499999999996
639395675 0.43982166666666667 -0.46466399999999997
640876606 0.44062 -0.46742333333333336
642357537 0.44043600000000005 -0.4699156666666666
643838468 0.44204899999999997 -0.47306099999999995
645319399 0.44241833333333336 -0.474575
646800330 0.4462693333333333 -0.47697866666666666
648281261 0.44287466666666664 -0.477806
649762192 0.442769 -0.4782666666666667
651243123 0.44244700000000003 -0.47988299999999995
652724054 0.4427566666666666 -0.4797703333333333
654204985 0.44222199999999995 -0.47998566666666664
655685916 0.44042766666666666 -0.48024433333333333
657166847 0.440062 -0.48051199999999994
658647778 0.438326 -0.4796263333333333
660128709 0.43621699999999997 -0.479788
661609640 0.435201 -0.47892133333333337
663090571 0.4335343333333333 -0.47778466666666664
664571502 0.431736 -0.4750646666666667
666052433 0.42807766666666663 -0.47481
667533364 0.4250833333333333 -0.47254699999999994
669014295 0.42492833333333335 -0.4766283333333333
670495226 0.42723300000000003 -0.479441
671976157 0.4278976666666666 -0.4808593333333333
673457088 0.426574 -0.4839556666666667
674938019 0.427911 -0.485746
676418950 0.42819433333333334 -0.48727433333333325
677899881 0.42855933333333335 -0.488232
679380812 0.42755666666666664 -0.49086299999999994
680861743 0.42723999999999995 -0.491299
682342674 0.4268996666666667 -0.49226166666666665
683823605 0.4269413333333333 -0.493424
685304536 0.42568566666666663 -0.4930576666666666
686785467 0.4245036666666666 -0.493633
688266398 0.4242046666666666 -0.4931973333333333
689747329 0.42134699999999997 -0.4926446666666666
691228260 0.438758 -0.489992
692709191 0.4184603333333333 -0.491684
694190122 0.4179013333333333 -0.49095199999999994
695671053 0.4156043333333333 -0.4888853333333333
697151984 0.41257166666666667 -0.48784733333333336
698632915 0.41228 -0.4893523333333333
700113846 0.4116726666666667 -0.49225366666666664
701594777 0.41130500000000003 -0.4947976666666667
703075708 0.4118303333333333 -0.49674599999999997
704556639 0.41323099999999996 -0.49886100000000005
706037570 0.4128426666666667 -0.5001966666666666
707518501 0.4105843333333333 -0.5031909999999999
708999432 0.41243299999999994 -0.5037419999999999
710480363 0.4126343333333333 -0.5037556666666667
711961294 0.4108109999999999 -0.5060586666666667
713442225 0.4096853333333333 -0.5071436666666667
714923156 0.4116046666666667 -0.5058019999999999
716404087 0.4080856666666666 -0.5074156666666666
717885018 0.4078253333333333 -0.507516
719365949 0.40439566666666665 -0.5073566666666667
720846880 0.40402133333333334 -0.506953
722327811 0.40069699999999997 -0.506494
723808742 0.39880533333333335 -0.5052086666666666
725289673 0.39697866666666665 -0.5036236666666666
726770604 0.39371866666666666 -0.5031573333333333
728251535 0.39237666666666665 -0.5040196666666665
729732466 0.39364866666666665 -0.5066153333333332
731213397 0.39337066666666665 -0.5095146666666667
732694328 0.3953416666666666 -0.5106913333333334
734175259 0.39433366666666664 -0.5129549999999999
735656190 0.3950633333333333 -0.5154449999999999
737137121 0.395475 -0.5164103333333332
738618052 0.39587666666666665 -0.517362
740098983 0.39586299999999996 -0.51824
741579914 0.39518499999999995 -0.5186526666666667
743060845 0.394319 -0.5204186666666666
744541776 0.39430233333333337 -0.520607
746022707 0.3935113333333334 -0.5204783333333333
747503638 0.392309 -0.5205576666666666
748984569 0.39116466666666666 -0.5196670000000001
750465500 0.3888936666666667 -0.5188746666666667
751946431 0.38759 -0.5186556666666666
753427362 0.3857546666666667 -0.51754
754908293 0.38461366666666663 -0.514732
756389224 0.38222566666666663 -0.5132436666666667
757870155 0.3793006666666666 -0.514613
759351086 0.3802296666666667 -0.516191
760832017 0.380407 -0.519339
762312948 0.3813559999999999 -0.5219446666666666
763793879 0.3818056666666667 -0.5226296666666665
765274810 0.382024 -0.525249
766755741 0.38229199999999997 -0.5273666666666667
768236672 0.38192066666666663 -0.5278919999999999
769717603 0.38075 -0.5297006666666666
771198534 0.3806836666666667 -0.530624
772679465 0.38020066666666663 -0.5308419999999999
774160396 0.379916 -0.5311939999999999
775641327 0.37910466666666665 -0.5308003333333333
777122258 0.37807166666666664 -0.5305593333333333
778603189 0.3773756666666666 -0.530243
780084120 0.37870766666666666 -0.5284476666666666
781565051 0.37318566666666664 -0.530104
783045982 0.37078533333333336 -0.528701
784526913 0.3695196666666667 -0.5269809999999999
786007844 0.36334233333333327 -0.5275253333333333
787488775 0.36430366666666664 -0.5244303333333333
788969706 0.3637083333333333 -0.5281206666666667
790450637 0.36514633333333335 -0.5315103333333333
791931568 0.36550533333333335 -0.5330299999999999
793412499 0.36550466666666664 -0.5352546666666667
794893430 0.36595466666666665 -0.5378959999999999
796374361 0.36600333333333335 -0.5390929999999999
797855292 0.3665033333333333 -0.5403146666666667
799336223 0.36534 -0.5423456666666666
800817154 0.3646643333333333 -0.543418
802298085 0.36482266666666663 -0.5435593333333333
803779016 0.36317466666666665 -0.5443026666666666
805259947 0.3646433333333333 -0.5435516666666667
806740878 0.3637486666666666 -0.5434399999999999
808221809 0.3615526666666667 -0.5430440000000001
809702740 0.35968266666666665 -0.5423283333333333
811183671 0.357378 -0.5417796666666665
812664602 0.3571506666666666 -0.5406916666666666
814145533 0.35444166666666665 -0.53986
815626464 0.35204733333333327 -0.5384616666666666
817107395 0.34851499999999996 -0.5374966666666665
818588326 0.35014966666666664 -0.5390576666666667
820069257 0.3492276666666667 -0.5427529999999999
821550188 0.34984899999999997 -0.5452056666666666
823031119 0.35039999999999993 -0.5471283333333333
824512050 0.35094733333333333 -0.549389
825992981 0.351597 -0.5504709999999999
827473912 0.35103699999999993 -0.5528183333333333
828954843 0.351025 -0.5539723333333333
830435774 0.3517063333333333 -0.553563
831916705 0.34979799999999994 -0.5553159999999999
833397636 0.35025033333333333 -0.555339
834878567 0.34903766666666663 -0.5556366666666667
836359498 0.3487613333333333 -0.5553253333333333
837840429 0.34684133333333333 -0.553852
839321360 0.346417 -0.5548336666666667
840802291 0.3457586666666666 -0.5524013333333333
842283222 0.3439536666666667 -0.5510546666666666
843764153 0.341327 -0.5491919999999999
845245084 0.33873833333333336 -0.5477603333333333
846726015 0.33623933333333333 -0.5467546666666666
848206946 0.3369209999999999 -0.5480153333333333
849687877 0.33593999999999996 -0.5509909999999999
851168808 0.33434133333333327 -0.5553606666666666
852649739 0.3372546666666666 -0.556195
854130670 0.3331993333333333 -0.5600503333333333
855611601 0.339489 -0.5594349999999999
857092532 0.33353666666666665 -0.5626363333333333
858573463 0.3407146666666666 -0.5611349999999999
860054394 0.33330166666666666 -0.565347
861535325 0.3369683333333333 -0.5649439999999999
863016256 0.33190766666666666 -0.5657933333333333
864497187 0.33732666666666666 -0.5641023333333333
865978118 0.3308943333333333 -0.5663386666666665
867459049 0.3363156666666667 -0.5632043333333333
868939980 0.32835400000000003 -0.5646116666666666
870420911 0.3332043333333333 -0.5605793333333332
871901842 0.3243973333333333 -0.5628593333333333
873382773 0.329635 -0.557852
874863704 0.3216003333333333 -0.559901
876344635 0.32685033333333335 -0.5543693333333333
877825566 0.3187413333333333 -0.5569056666666665
879306497 0.325495 -0.5585423333333333
880787428 0.31798299999999996 -0.5645753333333333
882268359 0.3272633333333333 -0.5624843333333334
883749290 0.31783666666666666 -0.5693276666666667
885230221 0.3246326666666666 -0.5678613333333333
886711152 0.31914466666666663 -0.5729203333333334
888192083 0.32502433333333336 -0.570886
889673014 0.31694433333333333 -0.575849
891153945 0.31646599999999997 -0.5751246666666666
892634876 0.317692 -0.5761043333333333
894115807 0.32324299999999995 -0.5744373333333332
895596738 0.315635 -0.576778
897077669 0.3209663333333333 -0.573336
898558600 0.31774399999999997 -0.5739733333333332
900039531 0.316544 -0.5734386666666667
901520462 0.31455099999999997 -0.5729203333333333
903001393 0.31223999999999996 -0.5721186666666666
904482324 0.312874 -0.5681793333333333
905963255 0.3087693333333333 -0.5674923333333333
907444186 0.30868233333333334 -0.5665466666666666
908925117 0.3090166666666666 -0.5689913333333334
910406048 0.3090733333333333 -0.5720953333333332
911886979 0.30957900000000005 -0.5749633333333333
913367910 0.30856466666666665 -0.5758913333333333
914848841 0.3098113333333333 -0.5777906666666667
916329772 0.30820633333333336 -0.5799589999999999
917810703 0.308534 -0.5809876666666666
919291634 0.30811 -0.582668
920772565 0.306753 -0.5829833333333333
922253496 0.30715533333333334 -0.5827456666666666
923734427 0.30738566666666667 -0.5835836666666666
925215358 0.3070693333333333 -0.5826043333333333
926696289 0.306962 -0.5823343333333333
928177220 0.30570566666666665 -0.5810193333333333
929658151 0.30452599999999996 -0.5799233333333333
931139082 0.3028933333333333 -0.5788716666666667
932620013 0.3020893333333333 -0.5768093333333333
934100944 0.299742 -0.5766426666666666
935581875 0.29955733333333334 -0.5738723333333333
937062806 0.29601900000000003 -0.5719786666666666
938543737 0.29639299999999996 -0.5749536666666666
940024668 0.2971673333333333 -0.5777946666666667
941505599 0.29594 -0.5806856666666667
942986530 0.29622466666666664 -0.5826896666666667
944467461 0.29662466666666665 -0.5840876666666667
945948392 0.2966663333333333 -0.5863536666666667
947429323 0.2969176666666667 -0.587113
948910254 0.2968106666666666 -0.5881366666666665
950391185 0.2956543333333333 -0.5901356666666666
951872116 0.29613266666666666 -0.589674
953353047 0.295322 -0.589534
954833978 0.2950033333333333 -0.5907853333333333
956314909 0.294041 -0.5892363333333333
957795840 0.29275300000000004 -0.589385
959276771 0.292485 -0.5891083333333333
960757702 0.2911696666666666 -0.5873753333333332
962238633 0.29005533333333333 -0.5866533333333334
963719564 0.28876599999999997 -0.5849533333333332
965200495 0.287557 -0.5834599999999999
966681426 0.28579499999999997 -0.5812803333333334
968162357 0.28431833333333334 -0.5844633333333333
969643288 0.28530133333333335 -0.5862316666666667
971124219 0.285012 -0.5899526666666667
972605150 0.2856653333333333 -0.5902333333333333
974086081 0.28479499999999996 -0.5931493333333333
975567012 0.2839946666666666 -0.594153
977047943 0.28469066666666665 -0.5960369999999999
978528874 0.2847933333333333 -0.5965003333333333
980009805 0.284049 -0.5972746666666666
981490736 0.2833306666666666 -0.5983706666666666
982971667 0.283148 -0.5986879999999999
984452598 0.2817236666666666 -0.5984163333333332
985933529 0.28146466666666664 -0.5976563333333332
987414460 0.281375 -0.5979963333333332
988895391 0.28016066666666667 -0.5969186666666666
990376322 0.27822566666666665 -0.5967606666666666
991857253 0.27802533333333335 -0.5942766666666667
993338184 0.27583599999999997 -0.5931803333333333
994819115 0.27403833333333333 -0.5918723333333333
996300046 0.27248133333333335 -0.5895843333333334
997780977 0.27227333333333326 -0.5898843333333332
999261908 0.271219 -0.5941176666666667
1000742839 0.273051 -0.5959153333333332
1002223770 0.272486 -0.5984659999999999
1003704701 0.27153799999999995 -0.6007843333333334
1005185632 0.27300499999999994 -0.6016566666666666
1006666563 0.27085466666666663 -0.6021209999999999
1008147494 0.27128766666666665 -0.6039993333333333
1009628425 0.272041 -0.604873
1011109356 0.2706259999999999 -0.6052683333333333
1012590287 0.26956633333333324 -0.6060326666666667
1014071218 0.26855199999999996 -0.6062703333333332
1015552149 0.2693296666666667 -0.605447
1017033080 0.2673836666666667 -0.6049283333333333
1018514011 0.26740933333333333 -0.6040413333333332
1019994942 0.26456099999999994 -0.603533
1021475873 0.262954 -0.6026153333333333
1022956804 0.26268199999999997 -0.6009426666666666
1024437735 0.26119699999999996 -0.5995643333333333
1025918666 0.25827966666666663 -0.5980693333333333
1027399597 0.257221 -0.5986626666666666
1028880528 0.25850566666666663 -0.6018026666666666
1030361459 0.26003899999999996 -0.6025333333333333
1031842390 0.25796299999999994 -0.605599
1033323321 0.2587176666666667 -0.6068449999999999
1034804252 0.2581893333333333 -0.60803
1036285183 0.25799833333333333 -0.6099966666666666
1037766114 0.25834566666666664 -0.6108389999999999
1039247045 0.25742966666666667 -0.6113153333333333
1040727976 0.25861066666666666 -0.6113523333333333
1042208907 0.257676 -0.6105153333333333
1043689838 0.25663166666666665 -0.6110306666666667
1045170769 0.25702933333333333 -0.6107659999999999
1046651700 0.25481 -0.6106333333333334
1048132631 0.25348 -0.6089793333333333
1049613562 0.2515556666666666 -0.6081989999999999
1051094493 0.2503473333333333 -0.6076713333333333
1052575424 0.24869066666666667 -0.6062936666666666
1054056355 0.24745266666666665 -0.6037756666666666
1055537286 0.244456 -0.601752
1057018217 0.24427633333333332 -0.602015
1058499148 0.24484266666666665 -0.604503
1059980079 0.24389399999999997 -0.6077473333333333
1061461010 0.244636 -0.6090046666666665
1062941941 0.24498666666666669 -0.6108863333333333
1064422872 0.2448763333333333 -0.6146366666666667
1065903803 0.24417899999999998 -0.6147276666666666
1067384734 0.24555566666666664 -0.6151709999999999
1068865665 0.24428866666666665 -0.6158143333333332
1070346596 0.2449303333333333 -0.616867
1071827527 0.24529766666666666 -0.616744
1073308458 0.24465733333333334 -0.6156539999999999
1074789389 0.24337866666666666 -0.6160166666666667
1076270320 0.23990766666666663 -0.6161213333333333
1077751251 0.242716 -0.6141359999999999
1079232182 0.24118766666666663 -0.6137236666666667
1080713113 0.238338 -0.6117443333333333
1082194044 0.238765 -0.6102473333333333
1083674975 0.23178733333333335 -0.6089593333333333
1085155906 0.234007 -0.6054156666666667
1086636837 0.23204466666666662 -0.606996
1088117768 0.23332966666666666 -0.6073146666666667
1089598699 0.23204933333333333 -0.6107003333333333
1091079630 0.232921 -0.6131669999999999
1092560561 0.23263899999999998 -0.6153813333333332
1094041492 0.23088399999999998 -0.617926
1095522423 0.23236066666666666 -0.6180559999999999
1097003354 0.23145399999999997 -0.6205873333333334
1098484285 0.2320686666666667 -0.6207273333333334
1099965216 0.230974 -0.6219803333333334
1101446147 0.23067066666666663 -0.621896
1102927078 0.22821799999999998 -0.623405
1104408009 0.22763999999999998 -0.6226516666666666
1105888940 0.22622399999999998 -0.6233556666666666
1107369871 0.22878833333333332 -0.622039
1108850802 0.22428099999999998 -0.6212713333333333
1110331733 0.22332166666666664 -0.6206113333333333
1111812664 0.22494899999999998 -0.6180439999999999
1113293595 0.220839 -0.6163613333333333
1114774526 0.221202 -0.6144609999999999
1116255457 0.21714166666666662 -0.6133963333333333
1117736388 0.21650266666666665 -0.61563
1119217319 0.21659033333333333 -0.6174
1120698250 0.21692633333333333 -0.6215449999999999
1122179181 0.21676166666666666 -0.6219263333333332
1123660112 0.21561133333333332 -0.6237253333333334
1125141043 0.21450399999999997 -0.6261863333333333
1126621974 0.21667033333333333 -0.6266006666666666
1128102905 0.2136 -0.627281
1129583836 0.2337643333333333 -0.636503
1131064767 0.21314266666666665 -0.6280883333333334
1132545698 0.21259299999999998 -0.6297596666666667
1134026629 0.21305933333333332 -0.6292036666666667
1135507560 0.21155333333333332 -0.6279113333333333
1136988491 0.21006166666666665 -0.6276473333333332
1138469422 0.2099243333333333 -0.6254283333333334
1139950353 0.20835099999999998 -0.6245620000000001
1141431284 0.208143 -0.6230309999999999
1142912215 0.20384033333333332 -0.6205693333333333
1144393146 0.20237266666666667 -0.617676
1145874077 0.19970133333333331 -0.6176253333333334
1147355008 0.20058933333333334 -0.6186443333333332
1148835939 0.19956200000000002 -0.622105
1150316870 0.19826833333333332 -0.6241603333333332
1151797801 0.19908333333333333 -0.6271209999999999
1153278732 0.19953233333333334 -0.6295066666666665
1154759663 0.198873 -0.6314913333333333
1156240594 0.19765533333333332 -0.6322576666666666
1157721525 0.19934266666666667 -0.6335016666666666
1159202456 0.19942766666666661 -0.63508
1160683387 0.19752666666666666 -0.6351939999999999
1162164318 0.199419 -0.635451
1163645249 0.199121 -0.6354166666666666
1165126180 0.19709999999999997 -0.6348836666666666
1166607111 0.1965303333333333 -0.6344403333333333
1168088042 0.19702699999999998 -0.6327929999999999
1169568973 0.19423366666666667 -0.632123
1171049904 0.19445799999999996 -0.630556
1172530835 0.19151266666666666 -0.6288429999999999
1174011766 0.1910143333333333 -0.6265826666666667
1175492697 0.18884199999999998 -0.6241686666666666
1176973628 0.18915166666666663 -0.624533
1178454559 0.18758599999999997 -0.6290956666666666
1179935490 0.18872466666666665 -0.630773
1181416421 0.18844966666666665 -0.6329836666666666
1182897352 0.18752666666666665 -0.635438
1184378283 0.187499 -0.6368389999999999
1185859214 0.18776333333333334 -0.6376503333333333
1187340145 0.18650466666666668 -0.6385356666666666
1188821076 0.18665966666666667 -0.6405503333333333
1190302007 0.18704866666666667 -0.6402223333333332
1191782938 0.18605333333333332 -0.6394819999999999
1193263869 0.18532300000000002 -0.639025
1194744800 0.186368 -0.6391113333333333
1196225731 0.185387 -0.6378443333333332
1197706662 0.184529 -0.6369693333333333
1199187593 0.18228233333333332 -0.6362396666666666
1200668524 0.18227133333333334 -0.6349646666666666
1202149455 0.18003266666666665 -0.6320899999999999
1203630386 0.17974866666666667 -0.6305556666666666
1205111317 0.178693 -0.626914
1206592248 0.179114 -0.6268426666666667
1208073179 0.17538466666666666 -0.6301796666666666
1209554110 0.17567166666666667 -0.6325103333333333
1211035041 0.17343766666666666 -0.6354743333333333
1212515972 0.17669700000000002 -0.636029
1213996903 0.175161 -0.6394216666666666
1215477834 0.173749 -0.6400426666666666
1216958765 0.17538233333333333 -0.6410646666666666
1218439696 0.17368033333333333 -0.64216
1219920627 0.17283733333333332 -0.6429653333333334
1221401558 0.17117200000000002 -0.6425823333333334
1222882489 0.17034399999999997 -0.642944
1224363420 0.17217433333333335 -0.6429083333333333
1225844351 0.1704973333333333 -0.6421209999999999
1227325282 0.17079766666666665 -0.6395176666666667
1228806213 0.16979466666666668 -0.6383363333333333
1230287144 0.16611666666666663 -0.6380939999999999
1231768075 0.166258 -0.6361983333333333
1233249006 0.16685833333333333 -0.6334086666666666
1234729937 0.16462233333333331 -0.631576
1236210868 0.16254666666666664 -0.631153
1237691799 0.16145166666666666 -0.6336036666666667
1239172730 0.161121 -0.6350003333333333
1240653661 0.16266466666666668 -0.6374466666666667
1242134592 0.16286766666666666 -0.6402133333333333
1243615523 0.16388166666666665 -0.6408916666666666
1245096454 0.16497 -0.6424493333333332
1246577385 0.1637513333333333 -0.6437153333333333
1248058316 0.162731 -0.6444570000000001
1249539247 0.1639543333333333 -0.6440456666666667
1251020178 0.161536 -0.6449563333333332
1252501109 0.161815 -0.644914
1253982040 0.16200366666666666 -0.6457863333333334
1255462971 0.16270366666666664 -0.6436636666666666
1256943902 0.16220566666666664 -0.6438223333333333
1258424833 0.15882333333333334 -0.6427350000000001
1259905764 0.15173399999999998 -0.6414783333333334
1261386695 0.15733666666666668 -0.6387586666666667
1262867626 0.14987399999999998 -0.6375099999999999
1264348557 0.15648399999999998 -0.634299
1265829488 0.14544833333333332 -0.6330399999999999
1267310419 0.1543153333333333 -0.6352986666666666
1268791350 0.14556899999999998 -0.637914
1270272281 0.15276566666666663 -0.6398449999999999
1271753212 0.14422733333333332 -0.643911
1273234143 0.15069499999999997 -0.6445536666666666
1274715074 0.14268966666666666 -0.6478403333333334
1276196005 0.1520453333333333 -0.6462723333333333
1277676936 0.14181 -0.6495666666666666
1279157867 0.15086433333333332 -0.648226
1280638798 0.14129966666666666 -0.650633
1282119729 0.151341 -0.6496243333333332
1283600660 0.14503666666666665 -0.6496013333333333
1285081591 0.15080266666666664 -0.64881
1286562522 0.15075899999999998 -0.6460596666666666
1288043453 0.14370699999999997 -0.6474936666666666
1289524384 0.14682066666666665 -0.6460146666666666
1291005315 0.14619333333333331 -0.644314
1292486246 0.14269333333333334 -0.6434303333333333
1293967177 0.14300466666666667 -0.6417683333333333
1295448108 0.14281733333333332 -0.6397953333333333
1296929039 0.14368333333333333 -0.6402303333333332
1298409970 0.141907 -0.6428053333333332
1299890901 0.14142133333333334 -0.6450013333333333
1301371832 0.13934733333333332 -0.6473389999999999
1302852763 0.14027666666666666 -0.649159
1304333694 0.13802566666666666 -0.6516139999999999
1305814625 0.140643 -0.6528476666666666
1307295556 0.13862966666666665 -0.6521833333333333
1308776487 0.136812 -0.65219
1310257418 0.13934666666666667 -0.65311
1311738349 0.13888566666666663 -0.6530316666666667
1313219280 0.13710099999999997 -0.6529166666666667
1314700211 0.13662433333333335 -0.65231
1316181142 0.13815333333333332 -0.6517583333333333
1317662073 0.13576166666666667 -0.6509553333333332
1319143004 0.13510666666666665 -0.6491923333333333
1320623935 0.13062366666666664 -0.6485533333333333
1322104866 0.1335093333333333 -0.6470526666666667
1323585797 0.13355699999999998 -0.6440926666666666
1325066728 0.13027233333333332 -0.6423596666666667
1326547659 0.12926433333333334 -0.6440443333333332
1328028590 0.128973 -0.6448583333333333
1329509521 0.12829966666666665 -0.649152
1330990452 0.12843 -0.6499713333333333
1332471383 0.124851 -0.64993
1333952314 0.13090733333333332 -0.6538566666666666
1335433245 0.13076066666666666 -0.6545406666666667
1336914176 0.12877699999999997 -0.65372
1338395107 0.12906666666666666 -0.6556113333333333
1339876038 0.12838433333333332 -0.6571823333333333
1341356969 0.126145 -0.6557373333333333
1342837900 0.126529 -0.6548546666666666
1344318831 0.129543 -0.6542836666666667
1345799762 0.1270423333333333 -0.6548826666666666
1347280693 0.12619533333333333 -0.6540339999999999
1348761624 0.12738799999999997 -0.6520913333333334
1350242555 0.12478599999999998 -0.6512629999999999
1351723486 0.122548 -0.6481413333333332
1353204417 0.12026866666666666 -0.6482533333333333
1354685348 0.12334099999999999 -0.645104
1356166279 0.12071433333333333 -0.6440216666666666
1357647210 0.12334566666666666 -0.6467826666666665
1359128141 0.122667 -0.6491083333333334
1360609072 0.12022633333333334 -0.6517299999999999
1362090003 0.122362 -0.6528086666666667
1363570934 0.12138133333333334 -0.6549973333333333
1365051865 0.12628866666666666 -0.6563886666666666
1366532796 0.12014466666666668 -0.6570316666666667
1368013727 0.11415666666666666 -0.662708
1369494658 0.12040066666666667 -0.657524
1370975589 0.12055433333333333 -0.6587203333333332
1372456520 0.11714566666666666 -0.6587683333333333
1373937451 0.11852733333333333 -0.65909
1375418382 0.11941566666666666 -0.6570966666666667
1376899313 0.11720166666666666 -0.6580723333333333
1378380244 0.11587233333333333 -0.6555266666666666
1379861175 0.11330399999999999 -0.653794
1381342106 0.112743 -0.653721
1382823037 0.11361199999999999 -0.6505639999999999
1384303968 0.114411 -0.6489876666666667
1385784899 0.110656 -0.6481680000000001
1387265830 0.10938133333333333 -0.6505903333333333
1388746761 0.11049699999999998 -0.6526713333333333
1390227692 0.11094299999999999 -0.65517
1391708623 0.11143933333333333 -0.6577526666666667
1393189554 0.11029533333333333 -0.6587266666666667
1394670485 0.11013366666666666 -0.6604410000000001
1396151416 0.10937633333333333 -0.66055
1397632347 0.11019000000000001 -0.661462
1399113278 0.10839499999999999 -0.6621659999999999
1400594209 0.10921366666666667 -0.6620986666666666
1402075140 0.10556533333333332 -0.6622929999999999
1403556071 0.10859733333333332 -0.6609846666666667
1405037002 0.10679966666666665 -0.6601786666666667
1406517933 0.10849466666666666 -0.6592746666666667
1407998864 0.105155 -0.6579269999999999
1409479795 0.10599666666666666 -0.6560646666666666
1410960726 0.10318566666666665 -0.6553249999999999
1412441657 0.09915399999999999 -0.651481
1413922588 0.10029899999999999 -0.6503053333333333
1415403519 0.10034166666666666 -0.6478379999999999
1416884450 0.09706466666666666 -0.651278
1418365381 0.09720600000000001 -0.6535249999999999
1419846312 0.09739833333333332 -0.6575296666666667
1421327243 0.09701733333333332 -0.6603789999999999
1422808174 0.10001066666666665 -0.6603613333333334
1424289105 0.09872033333333333 -0.663142
1425770036 0.09943433333333332 -0.6635286666666667
1427250967 0.10013066666666666 -0.6644443333333334
1428731898 0.09900900000000001 -0.6648696666666667
1430212829 0.09721933333333332 -0.6669926666666666
1431693760 0.09931066666666667 -0.6657643333333333
1433174691 0.098413 -0.665755
1434655622 0.099385 -0.6645873333333333
1436136553 0.09785033333333333 -0.6632413333333333
1437617484 0.09881266666666666 -0.6636956666666667
1439098415 0.09499833333333332 -0.660496
1440579346 0.09628366666666667 -0.6592156666666666
1442060277 0.09418333333333331 -0.6564376666666667
1443541208 0.09151833333333333 -0.6536006666666667
1445022139 0.09052133333333334 -0.651452
1446503070 0.09107799999999999 -0.653944
1447984001 0.09095866666666666 -0.6566803333333332
1449464932 0.08917899999999998 -0.6609079999999999
1450945863 0.09093299999999999 -0.6618803333333334
1452426794 0.08936633333333333 -0.664406
1453907725 0.09140833333333334 -0.665627
1455388656 0.08971699999999999 -0.6674183333333332
1456869587 0.08839433333333332 -0.6683953333333333
1458350518 0.088022 -0.6692693333333333
1459831449 0.09017533333333333 -0.6685633333333333
1461312380 0.088348 -0.6689956666666667
1462793311 0.08713333333333331 -0.6679266666666666
1464274242 0.089502 -0.668034
1465755173 0.087148 -0.6679846666666666
1467236104 0.08620233333333334 -0.6649263333333333
1468717035 0.08430566666666667 -0.6647226666666666
1470197966 0.08552499999999999 -0.6621936666666667
1471678897 0.08316266666666666 -0.6598683333333333
1473159828 0.083923 -0.656774
1474640759 0.08121766666666666 -0.6545133333333333
1476121690 0.08212166666666666 -0.654916
1477602621 0.082035 -0.6587356666666666
1479083552 0.07901566666666666 -0.6614116666666666
1480564483 0.07960733333333334 -0.6641579999999999
1482045414 0.08054533333333333 -0.6654006666666666
1483526345 0.07762833333333333 -0.6679043333333334
1485007276 0.07679333333333332 -0.6693296666666667
1486488207 0.07585466666666665 -0.6697173333333333
1487969138 0.079109 -0.6705389999999999
1489450069 0.07586 -0.6703126666666666
1490931000 0.07858066666666666 -0.6700553333333332
1492411931 0.07749466666666666 -0.6696566666666667
1493892862 0.07603866666666666 -0.6681363333333332
1495373793 0.07750633333333333 -0.668024
1496854724 0.07529433333333332 -0.6658653333333332
1498335655 0.076232 -0.663185
1499816586 0.076198 -0.6614863333333332
1501297517 0.07052133333333332 -0.6591233333333333
1502778448 0.07198133333333331 -0.6569923333333333
1504259379 0.07228399999999999 -0.6538849999999999
1505740310 0.06966266666666666 -0.6532579999999999
1507221241 0.07041 -0.6565826666666666
1508702172 0.06970266666666665 -0.6593616666666666
1510183103 0.06916633333333333 -0.6614976666666667
1511664034 0.067326 -0.6625349999999999
1513144965 0.07069199999999999 -0.6653823333333333
1514625896 0.067184 -0.6658843333333333
1516106827 0.06852833333333333 -0.6665323333333333
1517587758 0.065556 -0.6671793333333333
1519068689 0.06669666666666665 -0.668806
1520549620 0.06672033333333333 -0.6676673333333333
1522030551 0.06682066666666667 -0.6675153333333332
1523511482 0.06680066666666667 -0.663798
1524992413 0.063399 -0.6657829999999999
1526473344 0.06339766666666666 -0.6635703333333334
1527954275 0.06205366666666666 -0.662665
1529435206 0.063687 -0.6591126666666667
1530916137 0.06314566666666666 -0.6577716666666666
1532397068 0.059568333333333334 -0.6554949999999999
1533877999 0.05936133333333333 -0.6518306666666667
1535358930 0.058484666666666664 -0.6509033333333333
1536839861 0.05804666666666666 -0.6543323333333333
1538320792 0.057235666666666664 -0.656512
1539801723 0.05677433333333333 -0.6595209999999999
1541282654 0.058108999999999994 -0.6620406666666666
1542763585 0.05765633333333332 -0.663057
1544244516 0.05862233333333333 -0.6654366666666667
1545725447 0.05658933333333333 -0.6664143333333333
1547206378 0.05784533333333333 -0.6670076666666667
1548687309 0.05772433333333333 -0.6692573333333334
1550168240 0.05827433333333333 -0.668755
1551649171 0.050158666666666664 -0.6683906666666666
1553130102 0.058146666666666666 -0.6676333333333333
1554611033 0.05205033333333334 -0.6668393333333331
1556091964 0.055857 -0.6660299999999999
1557572895 0.04970566666666666 -0.6645226666666666
1559053826 0.057336 -0.662426
1560534757 0.04812866666666667 -0.6614019999999999
1562015688 0.053825 -0.6575513333333333
1563496619 0.047653 -0.6555096666666667
1564977550 0.052632333333333337 -0.653535
1566458481 0.040646666666666664 -0.6563886666666666
1567939412 0.05276233333333333 -0.6585443333333334
1569420343 0.04729566666666666 -0.6604133333333333
1570901274 0.04921266666666666 -0.6625589999999999
1572382205 0.043948333333333325 -0.6642313333333334
1573863136 0.04890699999999999 -0.6664763333333333
1575344067 0.040189666666666665 -0.667658
1576824998 0.04604133333333333 -0.6683629999999999
1578305929 0.04117433333333333 -0.668361
1579786860 0.04867533333333333 -0.6696123333333334
1581267791 0.044102333333333334 -0.668339
1582748722 0.046935000000000004 -0.6683520000000001
1584229653 0.03992233333333334 -0.6678219999999999
1585710584 0.026793666666666667 -0.645354
1587191515 0.041821 -0.6653826666666667
1588672446 0.042700666666666665 -0.663821
1590153377 0.041046 -0.6619866666666666
1591634308 0.038831000000000004 -0.6598433333333333
1593115239 0.03869 -0.6565803333333333
1594596170 0.03953533333333333 -0.6549003333333332
1596077101 0.03807633333333333 -0.6572419999999999
1597558032 0.03785566666666667 -0.6586523333333334
1599038963 0.03515133333333333 -0.6612319999999999
1600519894 0.03457266666666667 -0.6628679999999999
1602000825 0.034528 -0.6636966666666666
1603481756 0.036252999999999994 -0.6644993333333333
1604962687 0.033556333333333334 -0.6660923333333333
1606443618 0.032715 -0.6667306666666667
1607924549 0.03166766666666666 -0.6671813333333333
1609405480 0.029917 -0.6679783333333332
1610886411 0.032135333333333335 -0.6679793333333333
1612367342 0.032862 -0.6661289999999999
1613848273 0.02781533333333333 -0.6675383333333333
1615329204 0.029840999999999996 -0.664728
1616810135 0.030496666666666665 -0.6633366666666667
1618291066 0.029748 -0.6610323333333333
1619771997 0.028768333333333333 -0.6591146666666666
1621252928 0.026818666666666664 -0.6566243333333333
1622733859 0.027254333333333332 -0.6534643333333332
1624214790 0.026676999999999996 -0.65126
1625695721 0.025450666666666667 -0.6540686666666666
1627176652 0.02515833333333333 -0.6557863333333334
1628657583 0.02584366666666666 -0.6581836666666666
1630138514 0.025993999999999996 -0.6596836666666666
1631619445 0.024738333333333334 -0.6629266666666667
1633100376 0.02286733333333333 -0.6637739999999999
1634581307 0.02158033333333333 -0.6642386666666666
1636062238 0.023878333333333335 -0.6656846666666666
1637543169 0.021814666666666666 -0.6673396666666666
1639024100 0.02418733333333333 -0.6667349999999999
1640505031 0.023982666666666666 -0.6668536666666667
1641985962 0.01929933333333333 -0.667534
1643466893 0.020848 -0.666077
1644947824 0.020354999999999998 -0.6644416666666666
1646428755 0.022667333333333334 -0.6641279999999999
1647909686 0.020400666666666668 -0.6620033333333333
1649390617 0.019830666666666667 -0.6599636666666666
1650871548 0.019263 -0.6590879999999999
1652352479 0.02003033333333333 -0.6564893333333333
1653833410 0.01790433333333333 -0.653781
1655314341 0.016647333333333333 -0.6543443333333333
1656795272 0.019618333333333335 -0.6583316666666665
1658276203 0.019133666666666667 -0.6584006666666666
1659757134 0.01851 -0.6620006666666667
1661238065 0.015136 -0.6634966666666666
1662718996 0.016306666666666667 -0.6654236666666666
1664199927 0.015192 -0.6657106666666667
1665680858 0.014390333333333333 -0.6684643333333333
1667161789 0.016877 -0.6687066666666667
1668642720 0.015137999999999999 -0.6702856666666666
1670123651 0.014911666666666667 -0.6697436666666665
1671604582 0.015851999999999998 -0.6683713333333332
1673085513 0.015285 -0.6679243333333333
1674566444 0.009861666666666666 -0.6689376666666667
1676047375 0.015465000000000001 -0.6673613333333333
1677528306 0.013288333333333333 -0.6655783333333333
1679009237 0.013886333333333334 -0.6635663333333333
1680490168 0.011983333333333334 -0.6620923333333334
1681971099 0.010442333333333333 -0.6595260000000001
1683452030 0.012896333333333333 -0.6575676666666667
1684932961 -0.002283666666666667 -0.6363316666666666
1686413892 0.009084333333333333 -0.6598386666666666
1687894823 0.010679666666666665 -0.661758
1689375754 0.008232666666666666 -0.6656823333333334
1690856685 0.007795999999999999 -0.6666683333333334
1692337616 0.009230666666666665 -0.6684716666666666
1693818547 0.008699333333333333 -0.6706559999999999
1695299478 0.005275333333333333 -0.6721649999999999
1696780409 0.010415666666666667 -0.6719519999999999
1698261340 0.008376999999999999 -0.6730193333333334
1699742271 0.008199666666666668 -0.6716693333333332
1701223202 0.008092666666666666 -0.6711386666666668
1702704133 0.006984666666666667 -0.672377
1704185064 0.007024333333333334 -0.6724306666666666
1705665995 0.006845666666666667 -0.6702663333333332
1707146926 0.005373 -0.6672273333333332
1708627857 0.0073936666666666664 -0.6666813333333332
1710108788 0.006068666666666667 -0.665094
1711589719 0.004425999999999999 -0.6637603333333333
1713070650 0.0032929999999999995 -0.6613486666666667
1714551581 0.0036756666666666665 -0.6578999999999999
1716032512 0.0015923333333333332 -0.6601899999999998
1717513443 0.001420333333333333 -0.6636543333333332
1718994374 0.00041233333333333324 -0.6676573333333333
1720475305 -0.0002906666666666666 -0.6674786666666666
1721956236 0.000685 -0.6690603333333334
1723437167 0.0031369999999999996 -0.6710943333333332
1724918098 0.0026369999999999996 -0.6718423333333333
1726399029 0.0017549999999999998 -0.6730839999999999
1727879960 0.0006683333333333333 -0.6745556666666666
1729360891 0.000722 -0.6738333333333333
1730841822 0.0005386666666666667 -0.6728689999999999
1732322753 0.0013479999999999998 -0.672426
1733803684 0.002607333333333333 -0.6714046666666666
1735284615 0.000892 -0.6706689999999998
1736765546 -0.000817 -0.6673186666666667
1738246477 -0.0005753333333333333 -0.6662876666666666
1739727408 0.0005606666666666666 -0.6646273333333332
1741208339 0.007814999999999999 -0.6845286666666667
1742689270 -0.005063333333333334 -0.6596133333333333
1744170201 -0.00151 -0.6567516666666666
1745651132 -0.0022693333333333333 -0.6602376666666667
1747132063 -0.0024573333333333335 -0.6616796666666667
1748612994 -0.0036186666666666667 -0.664492
1750093925 -0.004743666666666667 -0.6662886666666668
1751574856 -0.0042966666666666665 -0.6689493333333334
1753055787 -0.005530333333333333 -0.6686963333333333
1754536718 -0.005729333333333334 -0.6721170000000001
1756017649 -0.006034333333333333 -0.6721656666666667
1757498580 -0.004778666666666667 -0.6729143333333334
1758979511 -0.006209333333333332 -0.6737270000000001
1760460442 -0.004803999999999999 -0.6723673333333333
1761941373 -0.0030756666666666662 -0.671854
1763422304 -0.006042 -0.6712333333333333
1764903235 -0.006849999999999999 -0.6709363333333332
1766384166 -0.004309333333333333 -0.6688916666666667
1767865097 -0.006699666666666666 -0.6669546666666666
1769346028 -0.009003 -0.6653073333333333
1770826959 -0.00852 -0.662261
1772307890 -0.008029333333333333 -0.6595179999999999
1773788821 -0.009057333333333334 -0.6562936666666666
1775269752 -0.012258666666666668 -0.6581073333333333
1776750683 -0.011276333333333333 -0.6613283333333333
1778231614 -0.008597 -0.6637636666666666
1779712545 -0.012584333333333333 -0.665171
1781193476 -0.012313333333333332 -0.668882
1782674407 -0.011952666666666667 -0.6691273333333334
1784155338 -0.013336 -0.6703873333333333
1785636269 -0.011545666666666666 -0.6714573333333332
1787117200 -0.011748333333333335 -0.6726876666666667
1788598131 -0.011003 -0.6728193333333332
1790079062 -0.011284000000000002 -0.6725049999999999
1791559993 -0.010666333333333333 -0.67236
1793040924 -0.010341666666666667 -0.670686
1794521855 -0.009653 -0.6699666666666666
1796002786 -0.007514 -0.667334
1797483717 -0.008986333333333332 -0.6656263333333332
1798964648 -0.011080333333333333 -0.6645236666666666
1800445579 -0.010081 -0.6608096666666665
1801926510 -0.012150333333333332 -0.6584193333333334
1803407441 -0.011204666666666665 -0.6554319999999999
1804888372 -0.014689999999999998 -0.6559206666666666
1806369303 -0.01371333333333333 -0.6586513333333334
1807850234 -0.013896 -0.6616209999999999
1809331165 -0.014331 -0.6651653333333334
1810812096 -0.013971333333333332 -0.6653013333333333
1812293027 -0.015812 -0.6645436666666666
1813773958 -0.015196000000000001 -0.6685696666666666
1815254889 -0.01776033333333333 -0.6694519999999999
1816735820 -0.017066333333333333 -0.669539
1818216751 -0.017205666666666664 -0.6699839999999999
1819697682 -0.018798999999999996 -0.6713523333333333
1821178613 -0.019230333333333335 -0.6689383333333333
1822659544 -0.016696 -0.6699373333333332
1824140475 -0.004397666666666665 -0.6919179999999999
1825621406 -0.021825666666666663 -0.6648003333333332
1827102337 -0.019058666666666665 -0.669022
1828583268 -0.021696 -0.6637126666666666
1830064199 -0.021316 -0.6601113333333333
1831545130 -0.015314666666666667 -0.660314
1833026061 -0.020206666666666664 -0.6619609999999999
1834506992 -0.027442333333333336 -0.6566369999999999
1835987923 -0.02924433333333333 -0.658738
1837468854 -0.028352666666666665 -0.6642126666666667
1838949785 -0.02972766666666667 -0.6627316666666666
1840430716 -0.028956 -0.6662796666666666
1841911647 -0.03015333333333333 -0.667046
1843392578 -0.028399999999999998 -0.6695006666666666
1844873509 -0.030904666666666664 -0.6701353333333332
1846354440 -0.027391 -0.6714549999999999
1847835371 -0.029044 -0.6687743333333334
1849316302 -0.028848 -0.6721513333333333
1850797233 -0.027315333333333334 -0.6707763333333334
1852278164 -0.027819666666666666 -0.671392
1853759095 -0.02864033333333333 -0.6677653333333333
1855240026 -0.02763133333333333 -0.6680996666666666
1856720957 -0.023774666666666666 -0.6671703333333334
1858201888 -0.024799999999999996 -0.6652613333333333
1859682819 -0.02255 -0.6611246666666666
1861163750 -0.03302466666666667 -0.6577703333333332
1862644681 -0.01865333333333333 -0.6564806666666666
1864125612 -0.027198666666666666 -0.6546886666666667
1865606543 -0.01990633333333333 -0.6573289999999999
1867087474 -0.029768666666666665 -0.6609656666666666
1868568405 -0.022633 -0.6629179999999999
1870049336 -0.0324 -0.6660619999999999
1871530267 -0.026466999999999997 -0.6669499999999999
1873011198 -0.030507666666666662 -0.6666016666666665
1874492129 -0.025109333333333334 -0.669126
1875973060 -0.030067666666666663 -0.6692806666666666
1877453991 -0.03696533333333333 -0.6570356666666666
1878934922 -0.031818 -0.669898
1880415853 -0.02435 -0.6705829999999999
1881896784 -0.030392999999999996 -0.670657
1883377715 -0.026572666666666665 -0.669924
1884858646 -0.03174966666666666 -0.6661233333333333
1886339577 -0.031139666666666666 -0.6675946666666667
1887820508 -0.02768633333333333 -0.666271
1889301439 -0.033028666666666665 -0.6641506666666667
1890782370 -0.020909333333333335 -0.6631843333333333
1892263301 -0.031051333333333334 -0.6600156666666666
1893744232 -0.023759666666666665 -0.655789
1895225163 -0.03378366666666666 -0.6593563333333332
1896706094 -0.028275666666666664 -0.661392
1898187025 -0.03498833333333333 -0.6641576666666666
1899667956 -0.030885666666666662 -0.66513
1901148887 -0.036836999999999995 -0.6664896666666666
1902629818 -0.028944666666666664 -0.6667526666666667
1904110749 -0.03294966666666666 -0.6681406666666666
1905591680 -0.034017 -0.656792
1907072611 -0.03759866666666667 -0.667944
1908553542 -0.035849 -0.6672676666666666
1910034473 -0.040279666666666665 -0.6669016666666666
1911515404 -0.03632566666666667 -0.6665176666666667
1912996335 -0.039475666666666666 -0.6658396666666666
1914477266 -0.04038699999999999 -0.6613793333333333
1915958197 -0.035049666666666666 -0.661826
1917439128 -0.04133233333333333 -0.6601346666666666
1918920059 -0.041876333333333335 -0.6574026666666666
1920400990 -0.04161833333333333 -0.6558093333333334
1921881921 -0.04071366666666666 -0.6526109999999999
1923362852 -0.044936000000000004 -0.650858
1924843783 -0.04311566666666666 -0.649951
1926324714 -0.045671666666666666 -0.6520776666666667
1927805645 -0.043618 -0.6561963333333334
1929286576 -0.047688666666666664 -0.657854
1930767507 -0.04849133333333333 -0.6576853333333332
1932248438 -0.04641399999999999 -0.6604486666666666
1933729369 -0.045537333333333326 -0.662248
1935210300 -0.048805 -0.6638993333333333
1936691231 -0.048728999999999995 -0.6632069999999999
1938172162 -0.050596 -0.6641696666666667
1939653093 -0.04664966666666666 -0.6647283333333334
1941134024 -0.04802566666666666 -0.6642003333333333
1942614955 -0.04900466666666667 -0.6632910000000001
1944095886 -0.047805333333333325 -0.663775
1945576817 -0.048079333333333335 -0.6617203333333334
1947057748 -0.05065599999999999 -0.6592456666666666
1948538679 -0.049207 -0.6586553333333334
1950019610 -0.048205 -0.6560280000000001
1951500541 -0.049481 -0.6540943333333333
1952981472 -0.050070666666666666 -0.6503663333333334
1954462403 -0.04929733333333333 -0.6515096666666667
1955943334 -0.049694999999999996 -0.6548336666666668
1957424265 -0.05181333333333333 -0.6569606666666666
1958905196 -0.051601666666666664 -0.6594133333333333
1960386127 -0.051524999999999994 -0.6586883333333333
1961867058 -0.050813 -0.6619846666666667
1963347989 -0.05434166666666666 -0.6627623333333333
1964828920 -0.05368666666666666 -0.6624783333333333
1966309851 -0.051159333333333334 -0.6647306666666666
1967790782 -0.053324333333333335 -0.6635936666666666
1969271713 -0.05729666666666666 -0.6638153333333334
1970752644 -0.054550333333333326 -0.6637939999999999
1972233575 -0.053141333333333325 -0.6644693333333334
1973714506 -0.056264999999999996 -0.662841
1975195437 -0.05354099999999999 -0.6607496666666666
1976676368 -0.057598666666666666 -0.6585473333333334
1978157299 -0.053198999999999996 -0.6565973333333333
1979638230 -0.05517333333333333 -0.655144
1981119161 -0.055021 -0.6522343333333334
1982600092 -0.05305833333333333 -0.6792689999999999
1984081023 -0.05563066666666667 -0.6480766666666666
1985561954 -0.061447 -0.6538023333333333
1987042885 -0.05774566666666667 -0.6535356666666666
1988523816 -0.059134 -0.6567013333333334
1990004747 -0.05831133333333333 -0.6572636666666667
1991485678 -0.059951333333333336 -0.6594856666666666
1992966609 -0.062392666666666666 -0.6608149999999999
1994447540 -0.06217133333333333 -0.6622026666666666
1995928471 -0.05897466666666666 -0.6616933333333332
1997409402 -0.06301566666666666 -0.6625673333333333
1998890333 -0.063624 -0.6623143333333333
2000371264 -0.06077333333333333 -0.6623759999999999
2001852195 -0.06251499999999999 -0.6620743333333332
2003333126 -0.061657666666666666 -0.6602699999999999
2004814057 -0.06220699999999999 -0.6596376666666666
2006294988 -0.06269999999999999 -0.6571136666666666
2007775919 -0.06265699999999999 -0.6552006666666667
2009256850 -0.06274733333333332 -0.6535813333333333
2010737781 -0.06204533333333332 -0.6511399999999999
2012218712 -0.06422966666666666 -0.6485906666666668
2013699643 -0.06623099999999998 -0.648705
2015180574 -0.06597533333333333 -0.6495519999999999
2016661505 -0.06591633333333333 -0.6541346666666666
2018142436 -0.06786333333333333 -0.6540999999999999
2019623367 -0.06644333333333333 -0.6563953333333333
2021104298 -0.06721966666666666 -0.657656
2022585229 -0.06660633333333332 -0.6576026666666666
2024066160 -0.069603 -0.6589846666666667
2025547091 -0.06987833333333333 -0.6634789999999999
2027028022 -0.067993 -0.6614843333333333
2028508953 -0.06830633333333333 -0.6595943333333333
2029989884 -0.066297 -0.6598013333333332
2031470815 -0.06856633333333331 -0.6588313333333333
2032951746 -0.0686 -0.6582153333333333
2034432677 -0.066868 -0.656564
2035913608 -0.068024 -0.654276
2037394539 -0.06883266666666665 -0.6541906666666666
2038875470 -0.06930800000000001 -0.6518153333333333
2040356401 -0.068781 -0.6507886666666667
2041837332 -0.06735866666666668 -0.6464629999999999
2043318263 -0.07143033333333333 -0.6449119999999999
2044799194 -0.07202166666666666 -0.6470763333333334
2046280125 -0.072448 -0.6487106666666667
2047761056 -0.073339 -0.6512293333333333
2049241987 -0.07143666666666666 -0.6533469999999999
2050722918 -0.07465166666666667 -0.6561836666666667
2052203849 -0.07521033333333332 -0.657473
2053684780 -0.07429066666666667 -0.6569976666666666
2055165711 -0.07529566666666665 -0.6593753333333333
2056646642 -0.07412733333333332 -0.6593816666666666
2058127573 -0.075524 -0.6579506666666666
2059608504 -0.07439899999999999 -0.6584133333333333
2061089435 -0.076057 -0.6565799999999999
2062570366 -0.075454 -0.6561826666666666
2064051297 -0.077276 -0.654589
2065532228 -0.07413933333333333 -0.654501
2067013159 -0.07585566666666667 -0.6534576666666667
2068494090 -0.07796699999999998 -0.651167
2069975021 -0.078276 -0.6478733333333333
2071455952 -0.07677366666666666 -0.6451653333333334
2072936883 -0.07956033333333332 -0.6427116666666667
2074417814 -0.07779866666666665 -0.6464143333333332
2075898745 -0.07925833333333332 -0.6474469999999999
2077379676 -0.07936299999999999 -0.652234
2078860607 -0.080798 -0.6535216666666666
2080341538 -0.08287666666666667 -0.655391
2081822469 -0.08488066666666666 -0.6571339999999999
2083303400 -0.079881 -0.6585776666666666
2084784331 -0.07933933333333333 -0.662041
2086265262 -0.07920366666666666 -0.6619256666666666
2087746193 -0.07569566666666666 -0.6622499999999999
2089227124 -0.08026499999999999 -0.6620903333333332
2090708055 -0.076264 -0.6620583333333333
2092188986 -0.07965766666666665 -0.6612443333333333
2093669917 -0.07432966666666666 -0.6639170000000001
2095150848 -0.079731 -0.659836
2096631779 -0.07411333333333334 -0.659785
2098112710 -0.08172933333333333 -0.6554916666666666
2099593641 -0.07123666666666667 -0.6567426666666667
2101074572 -0.077842 -0.65109
2102555503 -0.074097 -0.6498516666666666
2104036434 -0.07650933333333332 -0.6508016666666667
2105517365 -0.07846633333333333 -0.6533043333333334
2106998296 -0.07942066666666667 -0.655092
2108479227 -0.07881066666666667 -0.656644
2109960158 -0.07624033333333333 -0.6578189999999999
2111441089 -0.08103166666666667 -0.6581293333333333
2112922020 -0.08198 -0.6606126666666666
2114402951 -0.07954833333333333 -0.6583643333333333
2115883882 -0.08141833333333333 -0.6618313333333332
2117364813 -0.08491366666666667 -0.6618286666666666
2118845744 -0.08138966666666667 -0.6632589999999999
2120326675 -0.08081766666666668 -0.6610953333333334
2121807606 -0.07974566666666666 -0.66352
2123288537 -0.08383700000000001 -0.6599616666666666
2124769468 -0.086503 -0.6580166666666667
2126250399 -0.083132 -0.6581686666666666
2127731330 -0.08250366666666666 -0.6549093333333333
2129212261 -0.08486466666666666 -0.6526463333333333
2130693192 -0.08133566666666665 -0.6500316666666667
2132174123 -0.084605 -0.6457453333333333
2133655054 -0.08542133333333335 -0.647878
2135135985 -0.08657933333333331 -0.6489433333333334
2136616916 -0.08708533333333332 -0.6507343333333333
2138097847 -0.08781166666666665 -0.6540376666666666
2139578778 -0.085472 -0.6562143333333333
2141059709 -0.08700866666666665 -0.6558026666666666
2142540640 -0.08742866666666667 -0.657519
2144021571 -0.08659333333333333 -0.6580266666666665
2145502502 -0.08657133333333333 -0.6587179999999999
2146983433 -0.08830433333333332 -0.6583386666666666
2148464364 -0.08712333333333333 -0.6583723333333333
2149945295 -0.08621966666666665 -0.658848
2151426226 -0.08591199999999999 -0.6568846666666667
2152907157 -0.08361999999999999 -0.6570553333333333
2154388088 -0.08776566666666666 -0.6538619999999999
2155869019 -0.08438966666666665 -0.651914
2157349950 -0.085421 -0.6516173333333333
2158830881 -0.08508733333333332 -0.6476373333333334
2160311812 -0.081009 -0.6488466666666666
2161792743 -0.08664266666666666 -0.6436279999999999
2163273674 -0.0863 -0.643102
2164754605 -0.08791933333333332 -0.6450963333333333
2166235536 -0.089728 -0.647996
2167716467 -0.09156366666666667 -0.6481283333333333
2169197398 -0.089723 -0.6501726666666666
2170678329 -0.09111966666666667 -0.6532876666666666
2172159260 -0.08955766666666666 -0.6554383333333333
2173640191 -0.090729 -0.654514
2175121122 -0.09378766666666666 -0.655687
2176602053 -0.09136 -0.659894
2178082984 -0.10184266666666666 -0.6580109999999999
2179563915 -0.09432566666666667 -0.657889
2181044846 -0.09376266666666666 -0.6581383333333333
2182525777 -0.09347666666666665 -0.657627
2184006708 -0.09221333333333333 -0.6577833333333333
2185487639 -0.09344633333333333 -0.6554743333333333
2186968570 -0.09360133333333333 -0.6530113333333333
2188449501 -0.09261533333333333 -0.6525736666666666
2189930432 -0.09176366666666665 -0.6503206666666665
2191411363 -0.091368 -0.6476286666666666
2192892294 -0.09445899999999999 -0.6467436666666666
2194373225 -0.09358633333333333 -0.6467826666666667
2195854156 -0.09139033333333332 -0.6530299999999999
2197335087 -0.09380233333333333 -0.655238
2198816018 -0.09600966666666666 -0.6533116666666667
2200296949 -0.09349166666666667 -0.6578796666666666
2201777880 -0.09934966666666667 -0.6570453333333333
2203258811 -0.09864766666666665 -0.6563943333333333
2204739742 -0.09207566666666667 -0.6586853333333333
2206220673 -0.09770799999999999 -0.6616909999999999
2207701604 -0.09432233333333334 -0.6620486666666665
2209182535 -0.09573 -0.6606826666666665
2210663466 -0.09406433333333333 -0.6601819999999999
2212144397 -0.09383933333333333 -0.6601643333333334
2213625328 -0.09547133333333332 -0.6571349999999999
2215106259 -0.09622166666666666 -0.6574359999999999
2216587190 -0.09618099999999999 -0.6545983333333333
2218068121 -0.09460466666666667 -0.6530393333333333
2219549052 -0.09582966666666666 -0.6503486666666666
2221029983 -0.09391133333333335 -0.6498046666666666
2222510914 -0.09336666666666667 -0.6453333333333333
2223991845 -0.09406999999999999 -0.6468026666666666
2225472776 -0.09363099999999999 -0.6507559999999999
2226953707 -0.09517699999999998 -0.6506366666666666
2228434638 -0.09699666666666668 -0.6536216666666667
2229915569 -0.096965 -0.6545653333333333
2231396500 -0.10026233333333334 -0.6551306666666666
2232877431 -0.10340466666666666 -0.6537516666666666
2234358362 -0.104224 -0.6550676666666666
2235839293 -0.10234233333333333 -0.6569166666666666
2237320224 -0.100049 -0.657508
2238801155 -0.100726 -0.6580563333333334
2240282086 -0.10256166666666666 -0.6545903333333333
2241763017 -0.10286999999999999 -0.6559156666666667
2243243948 -0.10176099999999999 -0.6555533333333333
2244724879 -0.100777 -0.6545286666666668
2246205810 -0.10090133333333332 -0.6508689999999999
2247686741 -0.10742233333333331 -0.6491286666666666
2249167672 -0.10427966666666666 -0.6479146666666666
2250648603 -0.10724733333333333 -0.6462673333333333
2252129534 -0.10438533333333333 -0.6442206666666666
2253610465 -0.10236066666666667 -0.6462676666666667
2255091396 -0.103458 -0.6495523333333333
2256572327 -0.10798033333333334 -0.6503476666666665
2258053258 -0.103096 -0.6523203333333333
2259534189 -0.10415533333333334 -0.6525026666666667
2261015120 -0.10368566666666668 -0.6548856666666667
2262496051 -0.10273833333333333 -0.6554519999999999
2263976982 -0.10603566666666667 -0.6539266666666667
2265457913 -0.10481266666666667 -0.6548579999999999
2266938844 -0.10270266666666666 -0.6555203333333333
2268419775 -0.099798 -0.6564663333333333
2269900706 -0.08978133333333334 -0.6132519999999999
2271381637 -0.105944 -0.6521109999999999
2272862568 -0.10137966666666666 -0.6524823333333334
2274343499 -0.10336433333333334 -0.6520403333333333
2275824430 -0.10126766666666667 -0.6516706666666666
2277305361 -0.09989066666666666 -0.649373
2278786292 -0.10076766666666666 -0.64704
2280267223 -0.10152066666666666 -0.6458363333333332
2281748154 -0.10486633333333331 -0.6421363333333332
2283229085 -0.103632 -0.642631
2284710016 -0.10550133333333334 -0.6427136666666666
2286190947 -0.10030933333333332 -0.6470106666666666
2287671878 -0.10517933333333332 -0.6475686666666666
2289152809 -0.09969066666666666 -0.6507799999999999
2290633740 -0.10347600000000001 -0.6516336666666667
2292114671 -0.102576 -0.650817
2293595602 -0.10804433333333333 -0.6513076666666666
2295076533 -0.099938 -0.6519056666666666
2296557464 -0.10641666666666667 -0.6525526666666667
2298038395 -0.10051299999999999 -0.651169
2299519326 -0.10765399999999999 -0.6539266666666667
2301000257 -0.10393833333333333 -0.6507436666666666
2302481188 -0.10419099999999999 -0.6524233333333334
2303962119 -0.10239966666666667 -0.6489106666666666
2305443050 -0.10757333333333333 -0.6488619999999999
2306923981 -0.105491 -0.645701
2308404912 -0.10750799999999999 -0.6455536666666666
2309885843 -0.10714966666666666 -0.643936
2311366774 -0.10711099999999998 -0.6414086666666666
2312847705 -0.10576033333333332 -0.6398416666666666
2314328636 -0.10953299999999999 -0.6439429999999999
2315809567 -0.110952 -0.6451203333333334
2317290498 -0.10929566666666665 -0.6474243333333334
2318771429 -0.11201099999999999 -0.6454103333333333
2320252360 -0.11456766666666665 -0.648813
2321733291 -0.112724 -0.649608
2323214222 -0.09881366666666665 -0.680051
2324695153 -0.10896733333333333 -0.6507809999999999
2326176084 -0.11293166666666667 -0.6503953333333332
2327657015 -0.10904966666666667 -0.6505716666666667
2329137946 -0.11246166666666665 -0.6510843333333334
2330618877 -0.11767699999999999 -0.6490716666666666
2332099808 -0.11192099999999999 -0.6497120000000001
2333580739 -0.11370633333333333 -0.6481933333333334
2335061670 -0.11263666666666666 -0.6462243333333333
2336542601 -0.11432833333333332 -0.6461083333333333
2338023532 -0.11542366666666666 -0.6435649999999999
2339504463 -0.11722333333333332 -0.6404066666666666
2340985394 -0.11202799999999999 -0.64028
2342466325 -0.11772033333333333 -0.638274
2343947256 -0.11344133333333334 -0.6381196666666666
2345428187 -0.12096666666666667 -0.6426333333333333
2346909118 -0.11905533333333332 -0.643928
2348390049 -0.12289133333333332 -0.6484413333333332
2349870980 -0.11602799999999999 -0.6467916666666667
2351351911 -0.12335233333333331 -0.6470606666666666
2352832842 -0.11904099999999998 -0.6510963333333333
2354313773 -0.11994866666666666 -0.652558
2355794704 -0.117284 -0.6535446666666667
2357275635 -0.12513766666666665 -0.6539346666666666
2358756566 -0.11779333333333333 -0.6524856666666665
2360237497 -0.12198066666666665 -0.6549753333333334
2361718428 -0.12150733333333333 -0.6536713333333333
2363199359 -0.12166933333333332 -0.6515206666666666
2364680290 -0.12742333333333333 -0.652381
2366161221 -0.12526133333333334 -0.6489419999999999
2367642152 -0.12287999999999999 -0.6457416666666667
2369123083 -0.12446833333333332 -0.6442686666666667
2370604014 -0.12612033333333333 -0.641308
2372084945 -0.12147433333333335 -0.6379453333333334
2373565876 -0.12531366666666666 -0.6427166666666666
2375046807 -0.12752633333333332 -0.6444489999999999
2376527738 -0.1294283333333333 -0.6458163333333333
2378008669 -0.12394666666666666 -0.6494019999999999
2379489600 -0.12666766666666665 -0.6486099999999999
2380970531 -0.12155466666666666 -0.6495866666666666
2382451462 -0.13104699999999997 -0.6524949999999999
2383932393 -0.12778433333333333 -0.6548083333333333
2385413324 -0.12529633333333334 -0.6532796666666667
2386894255 -0.12420433333333332 -0.6537596666666666
2388375186 -0.12336899999999998 -0.6584659999999999
2389856117 -0.127572 -0.6539983333333332
2391337048 -0.126421 -0.6513106666666666
2392817979 -0.129156 -0.6513209999999999
2394298910 -0.12846833333333332 -0.6480093333333332
2395779841 -0.1282296666666667 -0.6486786666666666
2397260772 -0.12420699999999998 -0.6461853333333333
2398741703 -0.1282773333333333 -0.6436256666666667
2400222634 -0.12881733333333334 -0.6401589999999999
2401703565 -0.13205966666666663 -0.6387273333333333
2403184496 -0.12877766666666662 -0.6396569999999999
2404665427 -0.12849766666666668 -0.6406593333333334
2406146358 -0.13029366666666667 -0.6416813333333333
2407627289 -0.13233 -0.644147
2409108220 -0.12813999999999998 -0.64731
2410589151 -0.12837266666666666 -0.6471063333333333
2412070082 -0.132326 -0.6497976666666665
2413551013 -0.13151800000000002 -0.6500216666666666
2415031944 -0.13458166666666666 -0.6504363333333334
2416512875 -0.132519 -0.650361
2417993806 -0.13109366666666666 -0.6492516666666666
2419474737 -0.130346 -0.6503369999999999
2420955668 -0.12342499999999998 -0.6475043333333332
2422436599 -0.13240166666666664 -0.6479833333333334
2423917530 -0.13192233333333334 -0.647173
2425398461 -0.134647 -0.6448
2426879392 -0.13281566666666667 -0.642929
2428360323 -0.13100799999999999 -0.641486
2429841254 -0.13230999999999998 -0.6366876666666667
2431322185 -0.13161166666666668 -0.633276
2432803116 -0.13671666666666665 -0.6348966666666667
2434284047 -0.13805599999999998 -0.6359509999999999
2435764978 -0.13245933333333332 -0.6402083333333333
2437245909 -0.138619 -0.6452623333333333
2438726840 -0.13827666666666666 -0.6395553333333333
2440207771 -0.1437213333333333 -0.6414223333333333
2441688702 -0.14296199999999998 -0.6411766666666667
2443169633 -0.141951 -0.6455593333333334
2444650564 -0.14282666666666666 -0.645394
2446131495 -0.14197966666666664 -0.6466743333333332
2447612426 -0.14168799999999998 -0.6451176666666667
2449093357 -0.14443299999999998 -0.6444853333333334
2450574288 -0.14268433333333333 -0.6453289999999999
2452055219 -0.143241 -0.6399726666666666
2453536150 -0.14368399999999998 -0.6415703333333334
2455017081 -0.134964 -0.6403953333333333
2456498012 -0.144589 -0.6374196666666667
2457978943 -0.140612 -0.6346656666666666
2459459874 -0.14369966666666664 -0.6304246666666666
2460940805 -0.140903 -0.6317329999999999
2462421736 -0.14538566666666666 -0.629013
2463902667 -0.138756 -0.6364699999999999
2465383598 -0.144584 -0.6346240000000001
2466864529 -0.14257933333333334 -0.6392283333333333
2468345460 -0.1463863333333333 -0.6385796666666665
2469826391 -0.136427 -0.6416416666666667
2471307322 -0.14293033333333333 -0.6414393333333333
2472788253 -0.14012366666666665 -0.6452613333333332
2474269184 -0.13192866666666664 -0.6541186666666666
2475750115 -0.13646633333333333 -0.6455093333333333
2477231046 -0.143567 -0.6436323333333333
2478711977 -0.13210333333333332 -0.6467196666666666
2480192908 -0.14092566666666667 -0.6450229999999999
2481673839 -0.13573666666666664 -0.644948
2483154770 -0.1368343333333333 -0.643648
2484635701 -0.133007 -0.6410213333333333
2486116632 -0.13530966666666666 -0.637635
2487597563 -0.1317563333333333 -0.6358349999999999
2489078494 -0.13321366666666665 -0.6347226666666667
2490559425 -0.1332313333333333 -0.6287363333333333
2492040356 -0.13320133333333334 -0.6279203333333333
2493521287 -0.13336033333333333 -0.6303916666666667
2495002218 -0.13620633333333332 -0.6331826666666667
2496483149 -0.13577799999999998 -0.635246
2497964080 -0.13473233333333332 -0.6345656666666667
2499445011 -0.1379723333333333 -0.6383396666666666
2500925942 -0.139531 -0.638824
2502406873 -0.1371703333333333 -0.6370129999999999
2503887804 -0.138003 -0.6364956666666666
2505368735 -0.140002 -0.6385023333333333
2506849666 -0.13542066666666666 -0.640191
2508330597 -0.13930433333333334 -0.6386793333333333
2509811528 -0.14199699999999998 -0.6379779999999999
2511292459 -0.14195433333333332 -0.6349126666666667
2512773390 -0.14441433333333334 -0.6349916666666666
2514254321 -0.13952199999999998 -0.6341666666666665
2515735252 -0.13920100000000002 -0.6312439999999999
2517216183 -0.1358573333333333 -0.6266499999999999
2518697114 -0.14253733333333332 -0.6275879999999999
2520178045 -0.13932699999999998 -0.6270246666666666
2521658976 -0.14071033333333333 -0.6222586666666667
2523139907 -0.14270799999999997 -0.6254996666666666
2524620838 -0.14617233333333335 -0.6280076666666666
2526101769 -0.143895 -0.630979
2527582700 -0.14900866666666665 -0.6328843333333333
2529063631 -0.150322 -0.632176
2530544562 -0.14842699999999998 -0.6364643333333333
2532025493 -0.15296366666666666 -0.639884
2533506424 -0.15109766666666663 -0.6398643333333333
2534987355 -0.153636 -0.6395466666666666
2536468286 -0.150839 -0.638276
2537949217 -0.15165399999999998 -0.6426
2539430148 -0.15425766666666665 -0.6417526666666666
2540911079 -0.15689699999999998 -0.6415749999999999
2542392010 -0.15408033333333332 -0.641367
2543872941 -0.152218 -0.6420166666666667
2545353872 -0.154274 -0.6425983333333333
2546834803 -0.154744 -0.6404216666666667
2548315734 -0.15630566666666668 -0.6396649999999999
2549796665 -0.15563166666666667 -0.6396033333333333
2551277596 -0.15616766666666665 -0.63969
2552758527 -0.15921433333333335 -0.638523
2554239458 -0.15860466666666667 -0.6424383333333332
2555720389 -0.1576793333333333 -0.6386413333333333
2557201320 -0.15551133333333333 -0.6427919999999999
2558682251 -0.15481866666666666 -0.6440729999999999
2560163182 -0.15567533333333333 -0.644382
2561644113 -0.15639099999999997 -0.6428529999999999
2563125044 -0.153374 -0.6477563333333333
2564605975 -0.15735633333333332 -0.6480516666666666
2566086906 -0.152032 -0.6510433333333333
2567567837 -0.15398966666666666 -0.6468863333333333
2569048768 -0.1562393333333333 -0.6487023333333333
2570529699 -0.14373533333333333 -0.653539
2572010630 -0.15320099999999998 -0.6452436666666665
2573491561 -0.15417399999999998 -0.6462503333333333
2574972492 -0.15410766666666667 -0.6403513333333333
2576453423 -0.149026 -0.6408793333333334
2577934354 -0.15165333333333333 -0.6396223333333333
2579415285 -0.15012133333333333 -0.6390563333333332
2580896216 -0.15457366666666666 -0.6343216666666667
2582377147 -0.148217 -0.6332383333333333
2583858078 -0.14933433333333335 -0.6323596666666667
2585339009 -0.15217633333333333 -0.6365773333333333
2586819940 -0.14644766666666667 -0.6418206666666666
2588300871 -0.149029 -0.6363386666666667
2589781802 -0.14678566666666665 -0.6384589999999999
2591262733 -0.15481933333333334 -0.6368606666666666
2592743664 -0.15082 -0.6444866666666667
2594224595 -0.15364433333333333 -0.63981
2595705526 -0.15092666666666665 -0.6383096666666666
2597186457 -0.150605 -0.6390726666666666
2598667388 -0.1555173333333333 -0.6332453333333332
2600148319 -0.153449 -0.6346396666666667
2601629250 -0.15103766666666668 -0.6354036666666666
2603110181 -0.15186033333333332 -0.6297470000000001
2604591112 -0.14969066666666664 -0.6330813333333333
2606072043 -0.14966366666666667 -0.6295523333333333
2607552974 -0.14955766666666664 -0.6257216666666667
2609033905 -0.15716200000000002 -0.6221386666666666
2610514836 -0.15502366666666667 -0.616749
2611995767 -0.1505183333333333 -0.6257143333333333
2613476698 -0.15218366666666666 -0.6249883333333333
2614957629 -0.15826766666666667 -0.6248163333333334
2616438560 -0.155076 -0.6241563333333333
2617919491 -0.15793333333333331 -0.6255053333333334
2619400422 -0.15584733333333334 -0.6280729999999999
2620881353 -0.15600866666666666 -0.6287400000000001
2622362284 -0.15660833333333332 -0.6307226666666667
2623843215 -0.157941 -0.63978
2625324146 -0.154051 -0.6321663333333333
2626805077 -0.15436066666666665 -0.6336806666666667
2628286008 -0.154671 -0.633518
2629766939 -0.16145199999999998 -0.6285556666666665
2631247870 -0.16929266666666667 -0.616201
2632728801 -0.15956666666666666 -0.6272
2634209732 -0.16097099999999998 -0.6254853333333332
2635690663 -0.16448866666666667 -0.6219783333333333
2637171594 -0.157661 -0.6247893333333333
2638652525 -0.15960366666666667 -0.6229333333333333
2640133456 -0.164485 -0.6179353333333333
2641614387 -0.16536499999999998 -0.6172259999999998
2643095318 -0.16296633333333332 -0.6221226666666666
2644576249 -0.16136666666666666 -0.6270203333333333
2646057180 -0.16664299999999999 -0.6265313333333333
2647538111 -0.159433 -0.6290749999999999
2649019042 -0.163874 -0.6288746666666666
2650499973 -0.162513 -0.636174
2651980904 -0.16216566666666665 -0.6339233333333333
2653461835 -0.156255 -0.6395993333333333
2654942766 -0.15893766666666664 -0.6373443333333333
2656423697 -0.1629223333333333 -0.6375559999999999
2657904628 -0.16500133333333333 -0.637223
2659385559 -0.15341833333333332 -0.642708
2660866490 -0.17035533333333333 -0.6311789999999999
2662347421 -0.1625663333333333 -0.6352203333333333
2663828352 -0.16864400000000002 -0.6341013333333333
2665309283 -0.15843599999999997 -0.6362346666666667
2666790214 -0.16126666666666667 -0.6293733333333333
2668271145 -0.15807300000000002 -0.6290543333333333
2669752076 -0.16608566666666666 -0.6242466666666666
2671233007 -0.15740933333333332 -0.6267383333333334
2672713938 -0.16800966666666664 -0.626006
2674194869 -0.15688266666666667 -0.6339239999999999
2675675800 -0.16693499999999997 -0.6363876666666666
2677156731 -0.1612056666666667 -0.6369046666666666
2678637662 -0.15924299999999997 -0.6387259999999999
2680118593 -0.15425533333333333 -0.6413026666666666
2681599524 -0.157986 -0.6411923333333333
2683080455 -0.146276 -0.6470719999999999
2684561386 -0.15746933333333335 -0.640091
2686042317 -0.15208566666666667 -0.6445623333333332
2687523248 -0.157289 -0.6414176666666667
2689004179 -0.14219333333333334 -0.6428449999999999
2690485110 -0.15043666666666666 -0.6377496666666667
2691966041 -0.14352066666666666 -0.6407293333333333
2693446972 -0.15679866666666667 -0.6364146666666666
2694927903 -0.14801533333333333 -0.6343936666666666
2696408834 -0.14776466666666666 -0.6326319999999999
2697889765 -0.13829266666666667 -0.636192
2699370696 -0.153398 -0.627359
2700851627 -0.13756566666666664 -0.6253746666666666
2702332558 -0.152395 -0.6259616666666666
2703813489 -0.148241 -0.62878
2705294420 -0.14436233333333331 -0.6307673333333332
2706775351 -0.14560299999999998 -0.6321656666666666
2708256282 -0.15360033333333334 -0.6317266666666665
2709737213 -0.14659166666666668 -0.634795
2711218144 -0.155017 -0.6338886666666667
2712699075 -0.14772566666666664 -0.6368419999999999
2714180006 -0.15994333333333333 -0.6341216666666667
2715660937 -0.15565033333333333 -0.634953
2717141868 -0.15908933333333333 -0.6335193333333333
2718622799 -0.15288666666666664 -0.6359006666666667
2720103730 -0.13490066666666667 -0.6546036666666667
2721584661 -0.16407699999999997 -0.633405
2723065592 -0.162621 -0.6357723333333333
2724546523 -0.16336366666666663 -0.6276536666666666
2726027454 -0.16522066666666665 -0.6290563333333333
2727508385 -0.16865766666666665 -0.624143
2728989316 -0.16902066666666665 -0.620871
2730470247 -0.16704199999999997 -0.6190453333333333
2731951178 -0.163237 -0.619803
2733432109 -0.17481866666666668 -0.624029
2734913040 -0.16938966666666666 -0.6240013333333333
2736393971 -0.16995766666666667 -0.625537
2737874902 -0.175452 -0.6289973333333332
2739355833 -0.17751366666666668 -0.6278789999999999
2740836764 -0.174118 -0.6318659999999999
2742317695 -0.17357033333333333 -0.6314573333333333
2743798626 -0.17964366666666665 -0.6324533333333333
2745279557 -0.16128733333333334 -0.63327
2746760488 -0.16529266666666664 -0.6343843333333333
2748241419 -0.17125566666666664 -0.6353343333333332
2749722350 -0.168291 -0.6334759999999999
2751203281 -0.170199 -0.6316246666666666
2752684212 -0.17093466666666668 -0.6315236666666666
2754165143 -0.171439 -0.6303046666666666
2755646074 -0.173583 -0.629226
2757127005 -0.17731600000000003 -0.6275346666666666
2758607936 -0.1731393333333333 -0.623987
2760088867 -0.167404 -0.6244243333333334
2761569798 -0.16975366666666664 -0.6227513333333332
2763050729 -0.168789 -0.6258433333333333
2764531660 -0.17471033333333333 -0.6266196666666666
2766012591 -0.17340633333333333 -0.6311403333333333
2767493522 -0.1726813333333333 -0.6309989999999999
2768974453 -0.1746293333333333 -0.6306
2770455384 -0.17294733333333334 -0.6357149999999999
2771936315 -0.17192166666666667 -0.6322859999999999
2773417246 -0.15350199999999997 -0.6413183333333332
2774898177 -0.17336866666666664 -0.6377539999999999
2776379108 -0.17026633333333333 -0.6371183333333332
2777860039 -0.167686 -0.6350646666666666
2779340970 -0.1682263333333333 -0.6361883333333332
2780821901 -0.16624 -0.636138
2782302832 -0.16635033333333332 -0.6350046666666667
2783783763 -0.16615066666666667 -0.6280883333333334
2785264694 -0.16570066666666666 -0.630451
2786745625 -0.16317099999999998 -0.6310823333333333
2788226556 -0.1637323333333333 -0.6238226666666666
2789707487 -0.1630063333333333 -0.6225273333333333
2791188418 -0.16473733333333332 -0.62045
2792669349 -0.166406 -0.6202083333333334
2794150280 -0.167308 -0.6241716666666666
2795631211 -0.16589566666666666 -0.6261236666666666
2797112142 -0.1655963333333333 -0.6248670000000001
2798593073 -0.16641666666666666 -0.6273446666666667
2800074004 -0.16437366666666667 -0.629229
2801554935 -0.16924266666666665 -0.6345526666666667
2803035866 -0.16857766666666665 -0.6296246666666666
2804516797 -0.16841466666666666 -0.6309526666666666
2805997728 -0.17129066666666665 -0.633568
2807478659 -0.16731633333333332 -0.6298616666666665
2808959590 -0.16617933333333335 -0.631419
2810440521 -0.16849966666666666 -0.6293066666666667
2811921452 -0.17094133333333333 -0.631703
2813402383 -0.168618 -0.6304286666666666
2814883314 -0.16944966666666664 -0.6267833333333332
2816364245 -0.1693986666666667 -0.6251709999999999
2817845176 -0.16880699999999998 -0.6238239999999999
2819326107 -0.16842433333333334 -0.620565
2820807038 -0.16811999999999996 -0.6215266666666666
2822287969 -0.16443566666666665 -0.6241946666666667
2823768900 -0.17025066666666666 -0.628308
2825249831 -0.17309566666666668 -0.628698
2826730762 -0.16739933333333334 -0.6318729999999999
2828211693 -0.16770566666666667 -0.6333746666666666
2829692624 -0.17221933333333334 -0.6355899999999999
2831173555 -0.16841966666666663 -0.6330359999999999
2832654486 -0.16914166666666666 -0.6318393333333333
2834135417 -0.17092833333333335 -0.6394476666666666
2835616348 -0.17065766666666665 -0.6362743333333333
2837097279 -0.17049266666666665 -0.6357863333333333
2838578210 -0.17236999999999997 -0.6294676666666666
2840059141 -0.16864966666666664 -0.6350163333333333
2841540072 -0.16620233333333329 -0.631243
2843021003 -0.16985399999999998 -0.6281996666666667
2844501934 -0.167291 -0.6281206666666665
2845982865 -0.1713843333333333 -0.6274906666666666
2847463796 -0.16623 -0.628925
2848944727 -0.17096866666666666 -0.623236
2850425658 -0.1699403333333333 -0.619953
2851906589 -0.16983666666666666 -0.618687
2853387520 -0.17342533333333332 -0.6179986666666666
2854868451 -0.171956 -0.6255186666666666
2856349382 -0.17207166666666665 -0.6248823333333333
2857830313 -0.17396899999999996 -0.621536
2859311244 -0.17537599999999998 -0.625585
2860792175 -0.17529533333333336 -0.629828
2862273106 -0.17052266666666666 -0.6288446666666667
2863754037 -0.1760253333333333 -0.629266
2865234968 -0.17446866666666666 -0.622687
2866715899 -0.17385999999999996 -0.6252126666666666
2868196830 -0.167168 -0.6448429999999999
2869677761 -0.175568 -0.6216436666666667
2871158692 -0.17482866666666666 -0.6192986666666667
2872639623 -0.17212466666666665 -0.6172196666666667
2874120554 -0.17481533333333332 -0.6162203333333333
2875601485 -0.17454099999999997 -0.6134553333333332
2877082416 -0.17337000000000002 -0.6113999999999999
2878563347 -0.17682166666666665 -0.60703
2880044278 -0.17770133333333332 -0.6043053333333332
2881525209 -0.17720166666666665 -0.6071269999999999
2883006140 -0.17800766666666668 -0.607072
2884487071 -0.17725266666666664 -0.6113513333333334
2885968002 -0.17975766666666665 -0.614174
2887448933 -0.17808800000000002 -0.6161943333333333
2888929864 -0.175839 -0.6189393333333333
2890410795 -0.1769693333333333 -0.6198133333333333
2891891726 -0.17791833333333332 -0.620638
2893372657 -0.1765243333333333 -0.620218
2894853588 -0.177479 -0.6223329999999999
2896334519 -0.174404 -0.6225876666666667
2897815450 -0.17256133333333334 -0.6242666666666666
2899296381 -0.176504 -0.6233513333333333
2900777312 -0.17613966666666664 -0.622682
2902258243 -0.17585966666666666 -0.6226953333333334
2903739174 -0.17712299999999997 -0.6212116666666666
2905220105 -0.17348833333333336 -0.619821
2906701036 -0.17095033333333334 -0.616676
2908181967 -0.1706393333333333 -0.6194266666666666
2909662898 -0.17081066666666667 -0.6154263333333333
2911143829 -0.17469566666666664 -0.6151229999999999
2912624760 -0.17047733333333331 -0.6157643333333334
2914105691 -0.17493266666666665 -0.6172423333333333
2915586622 -0.17325766666666667 -0.618498
2917067553 -0.17657899999999999 -0.6193946666666665
2918548484 -0.17736933333333332 -0.6206923333333333
2920029415 -0.17682466666666666 -0.6205246666666666
2921510346 -0.18760366666666667 -0.6191976666666666
2922991277 -0.17721199999999998 -0.6189093333333333
2924472208 -0.18083633333333332 -0.6206406666666666
2925953139 -0.17958299999999996 -0.6201853333333333
2927434070 -0.18024366666666664 -0.6177533333333334
2928915001 -0.18053199999999997 -0.6191376666666667
2930395932 -0.177746 -0.6180203333333332
2931876863 -0.18109433333333336 -0.6145313333333333
2933357794 -0.18281933333333333 -0.6157546666666667
2934838725 -0.18145499999999998 -0.6114153333333332
2936319656 -0.18367233333333333 -0.6085433333333332
2937800587 -0.183556 -0.6087670000000001
2939281518 -0.18388566666666667 -0.6036103333333332
2940762449 -0.183766 -0.6040236666666666
2942243380 -0.190538 -0.6060923333333333
2943724311 -0.19071299999999997 -0.6077886666666666
2945205242 -0.1846583333333333 -0.6110703333333333
2946686173 -0.18856333333333333 -0.610833
2948167104 -0.190685 -0.6127103333333332
2949648035 -0.187893 -0.613678
2951128966 -0.1870696666666667 -0.6102996666666667
2952609897 -0.18948666666666664 -0.612084
2954090828 -0.190688 -0.615704
2955571759 -0.18530333333333332 -0.6134846666666666
2957052690 -0.18831266666666668 -0.6157403333333333
2958533621 -0.18608433333333332 -0.61048
2960014552 -0.18351666666666666 -0.6114146666666667
2961495483 -0.18260899999999997 -0.6094739999999998
2962976414 -0.18246933333333332 -0.6114496666666667
2964457345 -0.18094866666666667 -0.6053243333333332
2965938276 -0.18424600000000002 -0.6019293333333333
2967419207 -0.181296 -0.6029199999999999
2968900138 -0.17750033333333332 -0.6027123333333333
2970381069 -0.183108 -0.5911493333333333
2971862000 -0.18406766666666666 -0.599487
2973342931 -0.18326133333333333 -0.598357
2974823862 -0.18469066666666667 -0.6040959999999999
2976304793 -0.18412066666666665 -0.605212
2977785724 -0.1878123333333333 -0.6064096666666666
2979266655 -0.18256033333333332 -0.61008
2980747586 -0.1876813333333333 -0.6062676666666666
2982228517 -0.182688 -0.6075976666666666
2983709448 -0.185709 -0.6112706666666666
2985190379 -0.1831253333333333 -0.6093706666666667
2986671310 -0.18307133333333336 -0.6142503333333333
2988152241 -0.18189066666666664 -0.6098466666666666
2989633172 -0.183139 -0.6088516666666666
2991114103 -0.181886 -0.6065963333333333
2992595034 -0.17993433333333334 -0.6119066666666666
2994075965 -0.177547 -0.6020923333333332
2995556896 -0.1777233333333333 -0.6019566666666667
2997037827 -0.1784043333333333 -0.6006626666666667
2998518758 -0.18008899999999997 -0.5957756666666666
2999999689 -0.17876933333333334 -0.5971289999999999
