# HZ S RI R 50
10000000 1.0003716666666667 -0.0004626666666666666
11480931 1.0004986666666666 -0.0011753333333333331
12961862 1.002182333333333 -0.0027619999999999997
14442793 1.0048903333333334 -0.0027530000000000002
15923724 1.007636 -0.0052963333333333334
17404655 1.0105993333333334 -0.005881666666666667
18885586 1.0116399999999999 -0.006663666666666667
20366517 1.0137336666666665 -0.006931
21847448 1.016611333333333 -0.006625
23328379 1.0177049999999999 -0.007637666666666666
24809310 1.0174763333333332 -0.00746
26290241 1.0184806666666666 -0.007039333333333333
27771172 1.0180066666666667 -0.006723333333333333
29252103 1.0182623333333334 -0.005852
30733034 1.0165163333333331 -0.004281
32213965 1.015143333333333 -0.003909666666666666
33694896 1.0121556666666667 -0.0036016666666666666
35175827 1.0088356666666667 0.01877833333333333
36656758 1.0083469999999999 -0.013255
38137689 1.0043496666666665 -0.00039833333333333333
39618620 0.9998856666666667 0.0005273333333333332
41099551 1.0019363333333333 0.008455999999999998
42580482 1.0055583333333333 -0.0029393333333333337
44061413 1.0096113333333332 -0.025591666666666665
45542344 1.0122159999999998 0.009028333333333333
47023275 1.01552 -0.005204
48504206 1.0162833333333332 0.024552666666666667
49985137 1.018675 0.003782666666666667
51466068 1.0210133333333333 -0.006522333333333333
52946999 1.021715333333333 -0.015899
54427930 1.0228746666666666 -0.0066033333333333335
55908861 1.0225293333333332 -0.005780333333333333
57389792 1.0220473333333333 0.007110666666666666
58870723 1.0223066666666665 -0.025495999999999998
60351654 1.0198623333333332 -0.004005666666666666
61832585 1.018308 -0.003561333333333333
63313516 1.0157676666666666 -0.006435
64794447 1.012257 -0.0019623333333333333
66275378 1.0100393333333333 -0.03977366666666666
67756309 1.0055293333333335 -0.05047966666666666
69237240 1.0013913333333333 -0.0005133333333333333
70718171 0.9996193333333332 0.02865533333333333
72199102 1.0042356666666667 -0.07332899999999999
73680033 1.0085469999999996 -0.003978
75160964 1.0058536666666664 0.06886566666666666
76641895 1.0133653333333332 -0.003640666666666666
78122826 1.0157906666666667 -0.005755000000000001
79603757 1.013458 0.06392033333333333
81084688 1.0071586666666665 0.12777433333333332
82565619 1.0187536666666666 -0.006052666666666666
84046550 1.0199053333333332 -0.006058999999999999
85527481 0.9798336666666666 -0.05574933333333333
87008412 1.0197886666666667 -0.005285333333333333
88489343 1.0173573333333332 -0.027268666666666663
89970274 1.0167346666666666 -0.022768666666666666
91451205 1.015331 -0.0031136666666666665
92932136 1.012778 -0.012628666666666665
94413067 1.0099796666666667 0.012165666666666667
95893998 1.0075913333333333 -0.0033690000000000005
97374929 1.0034293333333333 0.0019243333333333335
98855860 1.0000079999999998 -0.0018873333333333333
100336791 1.0008256666666666 -0.0021873333333333332
101817722 1.0024549999999999 -0.002739
103298653 1.0058429999999998 -0.00476
104779584 1.009446 -0.005012333333333333
106260515 1.0115476666666665 -0.005325
107741446 1.0136843333333332 -0.004611666666666667
109222377 1.0151583333333332 -0.005926999999999999
110703308 1.017614 -0.005588333333333332
112184239 1.0180833333333332 -0.005315333333333333
113665170 1.0188216666666667 -0.004239666666666667
115146101 1.0179446666666667 -0.004842
116627032 1.0180303333333334 -0.002861
118107963 1.0175333333333334 -0.003954666666666666
119588894 1.0162930000000001 -0.003333333333333333
121069825 1.0146906666666666 -0.002000333333333333
122550756 1.0126546666666667 -0.0027273333333333333
124031687 1.0107579999999998 -0.0026123333333333333
125512618 1.0083343333333332 -0.0028699999999999997
126993549 1.0050233333333332 -0.002118
128474480 1.0025069999999998 -0.0008489999999999999
129955411 1.0002183333333332 -0.0005626666666666666
131436342 1.005244 -0.000977333333333333
132917273 1.0086689999999998 -0.0024033333333333333
134398204 1.013116 -0.0012356666666666666
135879135 1.003763 -0.013438666666666665
137360066 1.0055953333333334 -0.014098
138840997 1.0085236666666666 -0.013391
140321928 1.010666 -0.013017999999999998
141802859 1.0118616666666667 -0.01192
143283790 1.013019 -0.010549666666666666
144764721 1.0141276666666665 -0.010298999999999999
146245652 1.0137159999999998 -0.009168666666666665
147726583 1.0142919999999997 -0.007904666666666666
149207514 1.0141956666666667 -0.00789
150688445 1.0132013333333332 -0.006703666666666667
152169376 1.0118713333333331 -0.006011333333333334
153650307 1.0106943333333334 -0.003992333333333334
155131238 1.0078719999999999 -0.003008666666666667
156612169 1.0060263333333332 -0.002666
158093100 1.0023476666666666 -0.0019553333333333332
159574031 0.9995273333333332 -0.0018546666666666664
161054962 1.0033173333333334 -0.0021526666666666664
162535893 1.006565333333333 -0.0027743333333333335
164016824 1.0092643333333333 -0.001992333333333333
165497755 1.0122173333333333 -0.0023369999999999997
166978686 1.01368 -0.0019953333333333333
168459617 1.0160093333333333 -0.0017589999999999997
169940548 1.0173689999999997 -0.0013949999999999998
171421479 1.018627 -0.0018440000000000002
172902410 1.0191716666666664 -0.001248
174383341 1.0188863333333333 -0.0011813333333333333
175864272 1.0195333333333334 -0.0006363333333333333
177345203 1.0196003333333332 -0.001305
178826134 1.0175646666666665 -0.000158
180307065 1.0165479999999998 -3.614007241618348e-20
181787996 1.014052 -0.00047566666666666656
183268927 1.0130569999999999 -0.000992
184749858 1.0096936666666665 -0.0006706666666666666
186230789 1.0073379999999998 -0.001545333333333333
187711720 1.00406 -0.0011576666666666667
189192651 1.0009373333333333 -0.0027133333333333332
190673582 1.0034433333333332 -0.0021166666666666664
192154513 1.0066523333333333 -0.002156
193635444 1.0105243333333331 -0.0018396666666666665
195116375 1.0132763333333332 -0.0013766666666666667
196597306 1.0155776666666665 -0.001104
198078237 1.0176583333333333 -0.001363
199559168 1.0192573333333335 -0.0006306666666666666
201040099 1.020815 -0.0011266666666666667
202521030 1.0217319999999999 -0.000192
204001961 1.0217696666666667 -4.3333333333333334e-05
205482892 1.0216273333333332 0.000725
206963823 1.0213766666666668 0.00047533333333333336
208444754 1.020117 0.0006213333333333333
209925685 1.0182163333333332 0.0007989999999999999
211406616 1.0166579999999998 0.0013226666666666667
212887547 1.0141636666666667 0.0005683333333333333
214368478 1.0113076666666665 -0.000313
215849409 1.0088116666666664 -0.0003606666666666667
217330340 1.005579 -0.0009733333333333334
218811271 1.0015693333333333 -0.0024863333333333335
220292202 1.0032116666666666 -0.002372333333333333
221773133 1.0067273333333333 -0.002756
223254064 1.011302 -0.0011446666666666667
224734995 1.0139846666666665 -0.0015799999999999998
226215926 1.0163406666666668 -0.0007139999999999999
227696857 1.019008 -0.0007936666666666667
229177788 1.020425 -0.00017366666666666661
230658719 1.0220259999999999 0.0005686666666666666
232139650 1.023494 6.4e-05
233620581 1.023629 0.0007103333333333333
235101512 1.0224023333333334 -0.005259999999999999
236582443 1.023183 0.00131
238063374 1.0219610000000001 0.002484333333333333
239544305 1.0206703333333333 0.0018706666666666665
241025236 1.0182796666666667 0.001952333333333333
242506167 1.015332 0.0014459999999999998
243987098 1.0133203333333332 0.000861
245468029 1.0094933333333334 0.0009229999999999999
246948960 1.0060443333333335 0.000314
248429891 1.001678 -0.0012026666666666666
249910822 1.002098333333333 -0.001578
251391753 1.0069296666666665 -0.0015586666666666668
252872684 1.0104979999999997 -0.0023573333333333332
254353615 1.0147446666666666 -0.0024636666666666665
255834546 1.0176546666666666 -0.0013063333333333334
257315477 1.0206303333333333 -0.0013276666666666664
258796408 1.022605 -0.000354
260277339 1.0233196666666666 -0.0001676666666666667
261758270 1.0253123333333334 0.0001316666666666666
263239201 1.0264903333333333 0.0007246666666666665
264720132 1.0259053333333332 0.0007826666666666668
266201063 1.0260596666666666 0.0007996666666666666
267681994 1.0252036666666666 0.0009676666666666667
269162925 1.0234193333333332 0.0011723333333333332
270643856 1.021156 0.0006073333333333333
272124787 1.018675 0.0005986666666666666
273605718 1.0161306666666665 0.000649
275086649 1.0126386666666667 -3.3333333333337756e-07
276567580 1.0090366666666668 -0.0013846666666666664
278048511 1.0049350000000001 -0.001762
279529442 1.0028816666666667 -0.003904
281010373 1.0085586666666666 -0.0023543333333333333
282491304 1.011806 -0.0032946666666666667
283972235 1.0159356666666666 -0.0034809999999999997
285453166 1.0190009999999998 -0.004256333333333333
286934097 1.0220609999999999 -0.003
288415028 1.023766 -0.0016023333333333332
289895959 1.0254576666666666 -0.0014746666666666667
291376890 1.026727333333333 -0.000784
292857821 1.0271543333333333 -0.0008836666666666665
294338752 1.027005 -0.0002096666666666667
295819683 1.0260253333333333 -2.2333333333333332e-05
297300614 1.0256083333333332 0.0008173333333333333
298781545 1.024334 -5.466666666666662e-05
300262476 1.021672 0.0005583333333333332
301743407 1.0186176666666666 8.833333333333334e-05
303224338 1.0155776666666665 0.00011233333333333332
304705269 1.012454 -0.001436
306186200 1.0079926666666665 -0.0003436666666666667
307667131 1.003604 -0.002332333333333333
309148062 0.9993453333333333 -0.004853
310628993 1.0042136666666663 -0.0040999999999999995
312109924 1.0096733333333332 -0.003939333333333333
313590855 1.0122823333333333 -0.0048389999999999996
315071786 1.0170783333333333 -0.006103666666666667
316552717 1.0203813333333334 -0.004916333333333333
318033648 1.0223369999999998 -0.004795666666666667
319514579 1.0238800000000001 -0.004065333333333334
320995510 1.0256476666666665 -0.0052646666666666675
322476441 1.026595 -0.004418333333333333
323957372 1.027332 -0.003193333333333333
325438303 1.027558 -0.0029003333333333333
326919234 1.0249796666666664 -0.003375333333333333
328400165 1.0253393333333334 -0.002310333333333333
329881096 1.022829 -0.002216333333333333
331362027 1.0039293333333332 -0.024195333333333333
332842958 1.0166503333333332 -0.007892333333333331
334323889 1.0136463333333332 -0.001313
335804820 1.0111886666666665 -0.002085
337285751 1.00605 -0.0026163333333333334
338766682 1.0005309999999998 -0.003805333333333333
340247613 1.005847333333333 -0.005175666666666666
341728544 1.0093186666666667 -0.004430666666666666
343209475 1.013583 -0.0057723333333333324
344690406 1.0169273333333333 -0.006517333333333333
346171337 1.0197913333333333 -0.005874333333333333
347652268 1.0218006666666666 -0.006593333333333333
349133199 1.0248836666666667 -0.007195
350614130 1.0256106666666667 -0.005994666666666666
352095061 1.0270869999999999 -0.006841666666666667
353575992 1.026406 -0.005886
355056923 1.0272503333333334 -0.006022333333333333
356537854 1.0257613333333333 -0.005032666666666666
358018785 1.0239906666666667 -0.006170333333333333
359499716 1.0230783333333333 -0.005397666666666666
360980647 1.020626 -0.005471333333333333
362461578 1.0179036666666665 -0.005078333333333333
363942509 1.0138886666666667 -0.005195333333333333
365423440 1.011025 -0.0049363333333333325
366904371 1.0060183333333332 -0.005845999999999999
368385302 1.001774 -0.006206
369866233 1.0030533333333331 -0.007409333333333332
371347164 1.0080786666666666 -0.009131666666666666
372828095 1.0112973333333333 -0.008581666666666666
374309026 1.0149279999999998 -0.009733666666666665
375789957 1.0179596666666666 -0.010084333333333334
377270888 1.021162 -0.010135666666666666
378751819 1.023178333333333 -0.009145333333333333
380232750 1.024854333333333 -0.008838666666666667
381713681 1.031217 0.007496666666666665
383194612 1.0258033333333334 -0.009155
384675543 1.0254963333333333 -0.008622333333333333
386156474 1.025888333333333 -0.008438333333333332
387637405 1.0238276666666666 -0.008032
389118336 1.022752333333333 -0.006796666666666667
390599267 1.0203976666666668 -0.008022666666666666
392080198 1.0177773333333333 -0.006694333333333333
393561129 1.0141999999999998 -0.007234999999999999
395042060 1.0103010000000001 -0.006768999999999999
396522991 1.007216 -0.006608
398003922 1.0020186666666666 -0.0071846666666666665
399484853 1.0022293333333334 -0.006144333333333333
400965784 1.007586 -0.007046333333333332
402446715 1.0102526666666667 -0.009679
403927646 1.0142456666666666 -0.009787333333333332
405408577 1.0171676666666667 -0.009722333333333333
406889508 1.0193606666666666 -0.011214333333333335
408370439 1.0217286666666665 -0.010798999999999998
409851370 1.0232333333333332 -0.010584999999999999
411332301 1.0241903333333333 -0.009882
412813232 1.024873 -0.010133666666666666
414294163 1.0246199999999999 -0.009989666666666666
415775094 1.0250136666666667 -0.009148333333333331
417256025 1.0239596666666666 -0.009389666666666666
418736956 1.0225493333333333 -0.007947
420217887 1.0204846666666665 -0.008191333333333332
421698818 1.0179113333333332 -0.006331333333333333
423179749 1.0158796666666667 -0.0064919999999999995
424660680 1.0119109999999998 -0.0069303333333333335
426141611 1.0085003333333333 -0.0068976666666666665
427622542 1.0049039999999998 -0.007378666666666666
429103473 1.0031576666666666 -0.006063666666666666
430584404 1.0058406666666664 -0.008523999999999999
432065335 1.0105713333333333 -0.00797
433546266 1.0130463333333335 -0.009142333333333332
435027197 1.0154266666666667 -0.010049666666666665
436508128 1.0179783333333332 -0.009253
437989059 1.0195323333333333 -0.012107333333333331
439469990 1.0207953333333333 -0.010017333333333333
440950921 1.0222866666666666 -0.010157666666666666
442431852 1.0222086666666668 -0.009117666666666666
443912783 1.0227076666666666 -0.009800666666666666
445393714 1.021552 -0.00856
446874645 1.020425333333333 -0.008124333333333332
448355576 1.0199863333333332 -0.007828666666666666
449836507 1.0171199999999998 -0.008683
451317438 1.0149473333333332 -0.008956333333333332
452798369 1.0124446666666667 -0.007126333333333333
454279300 1.0080163333333332 -0.006351333333333334
455760231 1.0058043333333333 -0.007499666666666666
457241162 1.0015066666666665 -0.006985
458722093 0.9970456666666667 -0.007115999999999999
460203024 1.001726 -0.008565333333333333
461683955 1.0065953333333333 -0.009804
463164886 1.0089143333333332 -0.010603000000000001
464645817 1.0125663333333332 -0.009557666666666667
466126748 1.0151246666666667 -0.010258
467607679 1.0172253333333332 -0.009571333333333334
469088610 1.0187213333333331 -0.009424666666666665
470569541 1.0202120000000001 -0.009252666666666666
472050472 1.0221086666666666 -0.007517
473531403 1.0222663333333333 -0.006534
475012334 1.0227466666666665 -0.006636999999999999
476493265 1.0220699999999998 -0.006183666666666667
477974196 1.0204513333333334 -0.004774333333333333
479455127 1.0182663333333333 -0.012322666666666666
480936058 1.0098856666666667 -0.03415066666666666
482416989 1.0149266666666668 -0.00303
483897920 1.010546 -0.004555
485378851 1.0090323333333333 -0.0021076666666666665
486859782 1.0040496666666665 -0.002564
488340713 1.0008606666666666 -0.003103
489821644 1.0041676666666668 -0.004097333333333333
491302575 1.0080836666666666 -0.005477666666666667
492783506 1.011248 -0.005523999999999999
494264437 1.0140233333333333 0.001749
495745368 1.0170393333333332 0.0010303333333333332
497226299 1.0191766666666666 0.0011010000000000006
498707230 1.021128 0.0015906666666666667
500188161 1.0219646666666666 0.0006769999999999999
501669092 1.023193 0.00019633333333333365
503150023 1.0222996666666666 0.0002760000000000002
504630954 1.0223939999999998 0.0013463333333333335
506111885 1.022379 0.0007123333333333333
507592816 1.0208149999999998 0.0005989999999999999
509073747 1.0193326666666667 0.0004506666666666669
510554678 1.0171646666666665 0.001442666666666667
512035609 1.0154376666666667 0.0013203333333333335
513516540 1.0111513333333333 -0.0001363333333333332
514997471 1.0087876666666666 7.966666666666712e-05
516478402 1.005277 0.0011660000000000004
517959333 1.000928 -0.00019899999999999952
519440264 1.0030666666666666 0.005109
520921195 1.005234 -0.008272666666666666
522402126 1.0094103333333333 -0.009090666666666665
523883057 1.0132743333333334 -0.008886666666666664
525363988 1.016378 -0.008959333333333333
526844919 1.0185106666666668 -0.008947333333333331
528325850 1.0201743333333333 -0.007780333333333332
529806781 1.0209506666666663 -0.007951
531287712 1.0225623333333334 -0.008180333333333333
532768643 1.0228096666666666 -0.0062699999999999995
534249574 1.0227463333333333 -0.0065973333333333335
535730505 1.022502 -0.007679333333333333
537211436 1.0216873333333334 -0.006267333333333333
538692367 1.0196756666666666 -0.006660333333333332
540173298 1.0186836666666665 -0.005925999999999999
541654229 1.0162763333333333 -0.007455999999999999
543135160 1.013029 -0.006753333333333333
544616091 1.0095359999999998 -0.007978666666666665
546097022 1.0062909999999998 -0.007163666666666666
547577953 1.0017296666666666 -0.007098666666666666
549058884 1.0015356666666666 -0.007744999999999999
550539815 1.0073866666666667 -0.008806666666666666
552020746 1.0113706666666666 -0.008392333333333332
553501677 1.013234 -0.009418999999999999
554982608 1.017204 -0.009352333333333334
556463539 1.0193596666666667 -0.008492666666666666
557944470 1.0203429999999998 -0.008562
559425401 1.021392 -0.007572
560906332 1.0232086666666664 -0.007542666666666666
562387263 1.023567 -0.006198666666666666
563868194 1.0229116666666667 -0.006852333333333333
565349125 1.022704 -0.00539
566830056 1.0216886666666665 -0.005450333333333332
568310987 1.0198593333333332 -0.006633
569791918 1.0177183333333333 -0.005694333333333333
571272849 1.0162156666666666 -0.005045333333333333
572753780 1.0124456666666666 -0.004581666666666666
574234711 1.0090616666666667 -0.004605666666666666
575715642 1.0052073333333331 -0.005388
577196573 1.0003106666666666 -0.006168333333333333
578677504 0.9996623333333333 -0.0069099999999999995
580158435 1.0039393333333333 -0.007658333333333334
581639366 1.008543 -0.008095666666666666
583120297 1.0127716666666666 -0.009887
584601228 1.016533 -0.008951333333333334
586082159 1.018157 -0.007817666666666667
587563090 1.0199023333333335 -0.009557
589044021 1.0227119999999998 -0.008138999999999999
590524952 1.0224886666666666 -0.010252666666666667
592005883 1.0247853333333332 -0.0074733333333333336
593486814 1.0245533333333334 -0.007816333333333331
594967745 1.0249823333333332 -0.007045666666666667
596448676 1.023044 -0.009118999999999999
597929607 1.021916 -0.006521
599410538 1.0187719999999998 -0.006104666666666666
600891469 1.0171756666666667 -0.007299333333333333
602372400 1.0146503333333332 -0.007930666666666666
603853331 1.0116196666666666 -0.00753
605334262 1.0076739999999997 -0.007186666666666668
606815193 1.0035986666666665 -0.008232999999999999
608296124 0.99978 -0.009159666666666667
609777055 1.0038496666666665 -0.008359666666666666
611257986 1.0092706666666666 -0.010628333333333333
612738917 1.013395 -0.010671333333333333
614219848 1.0176196666666666 -0.011006666666666666
615700779 1.0203879999999999 -0.013578666666666666
617181710 1.0223126666666666 -0.010082
618662641 1.0235583333333333 -0.009637333333333333
620143572 1.0255163333333333 -0.011634333333333333
621624503 1.025394 -0.012207333333333334
623105434 1.0261879999999999 -0.008824666666666665
624586365 1.0259483333333332 -0.010414
626067296 1.0236029999999998 -0.00999
627548227 1.0236956666666663 -0.008381666666666666
629029158 1.0213196666666664 -0.009002333333333333
630510089 1.0194043333333331 -0.008114333333333333
631991020 1.0158963333333333 -0.008344333333333332
633471951 1.0124223333333333 -0.006543333333333333
634952882 1.0076829999999997 -0.007355999999999999
636433813 1.004192 -0.007059
637914744 0.9981783333333333 -0.0076619999999999995
639395675 1.0036826666666665 -0.009273666666666666
640876606 1.0299906666666667 0.01567833333333333
642357537 1.0119923333333332 -0.011055333333333334
643838468 1.0145853333333332 -0.011563333333333332
645319399 1.0191089999999998 -0.010714000000000001
646800330 1.0207639999999998 -0.011235333333333333
648281261 1.021904 -0.012275333333333333
649762192 1.0237833333333333 -0.011804333333333333
651243123 1.025943 -0.014263666666666664
652724054 1.0258969999999998 -0.008660333333333332
654204985 1.0243476666666667 -0.009035333333333333
655685916 1.0248016666666666 -0.008068333333333332
657166847 1.0230163333333333 -0.008011
658647778 1.0213406666666667 -0.006416666666666666
660128709 1.0191219999999999 -0.006833333333333334
661609640 1.017153 -0.005599666666666667
663090571 1.0144526666666667 -0.005463666666666667
664571502 1.0095683333333332 -0.005084666666666666
666052433 1.0048086666666665 -0.005020999999999999
667533364 1.0017716666666667 -0.004194999999999999
669014295 1.0031643333333333 -0.007515999999999999
670495226 1.0063149999999998 -0.007141
671976157 1.0112236666666665 -0.009451
673457088 1.0150473333333334 -0.009014000000000001
674938019 1.0165616666666666 -0.008427333333333332
676418950 1.0199093333333333 -0.011511
677899881 1.021632333333333 -0.008915666666666665
679380812 1.0231273333333333 -0.0036200000000000004
680861743 1.024371 -0.009446999999999999
682342674 1.0242946666666666 -0.008469
683823605 1.024767 -0.007424999999999999
685304536 1.024076 -0.008581666666666666
686785467 1.02231 -0.007066999999999999
688266398 1.0204713333333333 -0.006373666666666666
689747329 1.0184393333333333 -0.004592333333333333
691228260 1.0169256666666666 -0.005900666666666667
692709191 1.0115576666666666 -0.005925666666666667
694190122 1.00975 -0.004657
695671053 1.0038343333333333 -0.004055666666666667
697151984 1.002421 0.003031666666666667
698632915 1.0014206666666667 -0.005321666666666666
700113846 1.0062796666666665 -0.00012900000000000005
701594777 1.0082893333333331 -0.013486666666666668
703075708 1.0132383333333332 -0.003497
704556639 1.014854 -0.014231999999999998
706037570 1.0175903333333332 -0.002490666666666666
707518501 1.0180586666666667 -0.015596
708999432 1.0219643333333333 -0.004134
710480363 1.0213409999999998 -0.018656666666666665
711961294 1.0222413333333333 -0.006215333333333333
713442225 1.0225876666666667 -0.018522999999999998
714923156 1.0228946666666665 -0.005657666666666667
716404087 1.0212036666666666 -0.016878999999999998
717885018 1.0192643333333333 -0.004522
719365949 1.0147203333333332 -0.019025
720846880 1.0162226666666667 -0.003940666666666666
722327811 1.011402 -0.014942333333333335
723808742 1.0112023333333333 -0.006372666666666666
725289673 1.0050953333333335 -0.016259333333333334
726770604 1.0023723333333332 -0.005795
728251535 1.00043 -0.017012666666666666
729732466 1.007098333333333 -0.006182333333333332
731213397 1.007874 -0.019613666666666668
732694328 1.0127073333333332 -0.008212666666666667
734175259 1.0139569999999998 -0.020053
735656190 1.0190006666666667 -0.007324000000000001
737137121 1.0184823333333333 -0.02042533333333333
738618052 1.023279 -0.008034666666666666
740098983 1.0215486666666667 -0.020185333333333333
741579914 1.023654 -0.006919666666666666
743060845 1.0218920000000002 -0.019844333333333332
744541776 1.022609333333333 -0.005718999999999999
746022707 1.0221276666666665 -0.012386000000000001
747503638 1.0203136666666666 -0.010170333333333333
748984569 1.0177266666666667 -0.010449333333333333
750465500 1.016488 -0.012028999999999998
751946431 1.0118893333333334 -0.010537
753427362 1.0094779999999999 -0.009437999999999998
754908293 1.006062 -0.007810666666666667
756389224 1.0022343333333334 -0.009660666666666666
757870155 0.999047 -0.017535333333333333
759351086 1.003887 -0.010238666666666667
760832017 1.0072863333333333 -0.011354666666666666
762312948 1.0114086666666666 -0.012033666666666666
763793879 1.013593 -0.013173666666666667
765274810 1.0160363333333333 -0.011408999999999999
766755741 1.0194653333333332 -0.013414666666666667
768236672 1.0192443333333332 -0.013180666666666667
769717603 1.0201716666666665 -0.012729333333333332
771198534 1.0233866666666664 -0.01103
772679465 1.0214586666666665 -0.0132
774160396 1.0223026666666666 -0.012813999999999999
775641327 1.0212839999999999 -0.012289333333333333
777122258 1.0199496666666665 -0.009590999999999999
778603189 1.0223933333333333 0.006036000000000001
780084120 1.0541829999999999 0.012571333333333334
781565051 1.0131373333333333 -0.010204333333333333
783045982 1.0101533333333332 -0.009987
784526913 1.006425333333333 -0.011344
786007844 1.0023313333333332 -0.009084666666666665
787488775 0.998916 -0.011798666666666666
788969706 1.0046066666666666 -0.010517333333333333
790450637 1.0066643333333332 -0.017421666666666665
791931568 1.0093633333333332 -0.018833333333333334
793412499 1.0120093333333333 -0.01843533333333333
794893430 1.0139446666666667 -0.019996666666666666
796374361 1.016584 -0.019173333333333334
797855292 1.0193053333333333 -0.01988433333333333
799336223 1.0195746666666665 -0.01998133333333333
800817154 1.0197506666666665 -0.019715333333333335
802298085 1.0200536666666666 -0.018215666666666665
803779016 1.0205359999999999 -0.020092666666666665
805259947 1.021648 -0.010884
806740878 1.0190586666666666 -0.011718666666666665
808221809 1.0182153333333333 -0.012946333333333332
809702740 1.0163496666666667 -0.010877666666666664
811183671 1.0130846666666664 -0.012449666666666666
812664602 1.0106519999999999 -0.011492666666666667
814145533 1.0075093333333331 -0.012148333333333332
815626464 1.0031466666666664 -0.012053333333333333
817107395 0.999282 -0.012811
818588326 1.0026283333333335 -0.015052666666666667
820069257 1.0063746666666664 -0.014062666666666668
821550188 1.0098696666666667 -0.014022666666666664
823031119 1.0140896666666666 -0.013680333333333333
824512050 1.0164393333333335 -0.015686
825992981 1.018491 -0.014412999999999999
827473912 1.0195486666666664 -0.014211333333333334
828954843 1.0221743333333333 -0.014229666666666665
830435774 1.0237206666666667 -0.011923333333333334
831916705 1.0235056666666669 -0.012968999999999998
833397636 1.0235233333333331 -0.012379333333333334
834878567 1.0230616666666665 -0.011781
836359498 1.0218553333333331 -0.012684
837840429 1.0197793333333334 -0.011157
839321360 1.0184676666666665 -0.011090666666666665
840802291 1.014663 -0.010505
842283222 1.0126606666666667 -0.009838666666666666
843764153 1.0098156666666664 -0.009622333333333332
845245084 1.0044423333333334 -0.010275666666666666
846726015 1.0001963333333332 -0.011150333333333332
848206946 1.0019863333333334 -0.011294666666666665
849687877 1.0063476666666666 -0.014643333333333331
851168808 1.0092876666666664 -0.013139666666666664
852649739 1.014437 -0.012663333333333334
854130670 1.0165819999999999 -0.014355
855611601 1.0189756666666665 -0.016316333333333332
857092532 1.0217323333333335 -0.014995666666666666
858573463 1.0218643333333333 -0.015349666666666666
860054394 1.0225710000000001 -0.016500999999999995
861535325 1.0235616666666667 -0.01650333333333333
863016256 1.0228653333333333 -0.015996
864497187 1.021932 -0.015854999999999998
865978118 1.0204883333333332 -0.016286333333333333
867459049 1.0202186666666666 -0.01517633333333333
868939980 1.018239 -0.016655666666666666
870420911 1.0162593333333332 -0.014789666666666668
871901842 1.0116393333333333 -0.016057666666666665
873382773 1.0082033333333333 -0.017787666666666663
874863704 1.0037079999999998 -0.01662333333333333
876344635 0.9993849999999999 -0.015169333333333333
877825566 1.0000453333333335 -0.017203333333333334
879306497 1.0051953333333334 -0.018741666666666663
880787428 1.0088840000000001 -0.019138000000000002
882268359 1.0124909999999998 -0.019786666666666664
883749290 1.0167363333333332 -0.020593666666666666
885230221 1.0191983333333332 -0.020941999999999995
886711152 1.0213919999999999 -0.021366333333333334
888192083 1.0226773333333332 -0.021087
889673014 1.0234156666666667 -0.020202
891153945 1.024023 -0.019577333333333332
892634876 1.0254953333333332 -0.020742333333333335
894115807 1.024807 -0.018859
895596738 1.024328 -0.018732
897077669 1.020938 -0.017979999999999996
898558600 1.0198426666666667 -0.019375666666666666
900039531 1.0173949999999998 -0.016737666666666665
901520462 1.0147456666666665 -0.017943666666666663
903001393 1.0112116666666666 -0.014917333333333333
904482324 1.005512 -0.014621333333333333
905963255 1.0032819999999998 -0.015247666666666668
907444186 0.9997599999999999 -0.018222
908925117 1.0041526666666667 -0.017506999999999998
910406048 1.00723 -0.017343333333333336
911886979 1.011928333333333 -0.019349666666666668
913367910 1.015388 -0.020395
914848841 1.0159396666666667 -0.019985999999999997
916329772 1.0185376666666666 -0.021879666666666665
917810703 1.0219616666666667 -0.018813333333333328
919291634 1.0233303333333332 -0.01984
920772565 1.0234766666666666 -0.018441
922253496 1.0256859999999999 -0.018338666666666666
923734427 1.0235003333333332 -0.016822666666666666
925215358 1.023317 -0.017522666666666666
926696289 1.0205363333333333 -0.015298666666666665
928177220 1.0188916666666663 -0.016594333333333332
929658151 1.0151176666666666 -0.017601
931139082 1.0136313333333333 -0.016117666666666666
932620013 1.0093389999999998 -0.014307333333333333
934100944 1.0049706666666665 -0.015501666666666665
935581875 1.0008409999999999 -0.015479
937062806 0.9957836666666667 -0.015063333333333333
938543737 1.000708 -0.016389
940024668 1.0054556666666665 -0.017442
941505599 1.0076973333333332 -0.020867666666666666
942986530 1.0104996666666666 -0.020011333333333332
944467461 1.014341 -0.020825
945948392 1.0174716666666666 -0.019846333333333334
947429323 1.0179306666666665 -0.01996833333333333
948910254 1.0201083333333332 -0.021792999999999996
950391185 1.0216696666666665 -0.021277333333333332
951872116 1.0211933333333332 -0.019203333333333336
953353047 1.0210936666666666 -0.021143333333333333
954833978 1.021012 -0.017891999999999998
956314909 1.019696 -0.017183999999999998
957795840 1.017135 -0.017514333333333333
959276771 1.0173313333333334 -0.01649933333333333
960757702 1.014037333333333 -0.016212999999999998
962238633 1.0107786666666665 -0.014105
963719564 1.0060053333333334 -0.016315
965200495 1.0029533333333331 -0.012207999999999998
966681426 0.9990696666666665 -0.015961999999999997
968162357 1.0015519999999998 -0.012944666666666667
969643288 1.0053466666666666 -0.01568033333333333
971124219 1.0084673333333334 -0.013674666666666665
972605150 1.0118593333333332 -0.01762633333333333
974086081 1.014535 -0.016738666666666666
975567012 1.0164779999999998 -0.018770000000000002
977047943 1.018339 -0.018249
978528874 1.0194733333333332 -0.015503666666666667
980009805 1.0205126666666664 -0.017929666666666667
981490736 1.0212763333333332 -0.018973999999999998
982971667 1.021127 -0.01775533333333333
984452598 1.0205246666666665 -0.016034
985933529 1.0200909999999999 -0.014268999999999999
987414460 1.0189483333333333 -0.014919666666666666
988895391 1.017134 -0.013266999999999998
990376322 1.0143166666666668 -0.012556666666666667
991857253 0.9989656666666666 -0.03564933333333333
993338184 1.0204886666666666 0.008525333333333333
994819115 1.0036813333333332 -0.010758666666666666
996300046 1.0009766666666666 -0.011533333333333333
997780977 1.0030449999999997 -0.013200666666666666
999261908 1.0060823333333333 -0.013540333333333335
1000742839 1.0072466666666666 -0.013841333333333332
1002223770 1.011383 -0.015846666666666665
1003704701 1.0138566666666666 -0.014395
1005185632 1.0160390000000001 -0.013351333333333333
1006666563 1.0171613333333334 -0.014671666666666666
1008147494 1.0191846666666668 -0.015561333333333333
1009628425 1.0207973333333333 -0.016002999999999996
1011109356 1.0197163333333332 -0.015604333333333333
1012590287 1.0212439999999998 -0.015105999999999998
1014071218 1.0197903333333331 -0.013459666666666665
1015552149 1.0192696666666665 -0.013470666666666667
1017033080 1.018338 -0.014719666666666667
1018514011 1.0159123333333333 -0.012579333333333333
1019994942 1.0137033333333332 -0.013705333333333333
1021475873 1.0109353333333333 -0.01164533333333333
1022956804 1.0088453333333334 -0.010225999999999999
1024437735 1.0037773333333333 -0.008865
1025918666 1.0011446666666668 -0.010246666666666666
1027399597 1.0008606666666666 -0.011375999999999999
1028880528 1.0055956666666666 -0.011226666666666666
1030361459 1.0069979999999998 -0.013866333333333331
1031842390 1.0104716666666667 -0.010563999999999999
1033323321 1.012889 -0.013382999999999999
1034804252 1.0148456666666665 -0.012795333333333332
1036285183 1.0164316666666666 -0.016076666666666663
1037766114 1.0173746666666665 -0.015069666666666665
1039247045 1.0183813333333331 -0.014105333333333333
1040727976 1.0188686666666666 -0.015569333333333333
1042208907 1.0186986666666666 -0.014375666666666665
1043689838 1.0181076666666666 -0.013198999999999999
1045170769 1.017297333333333 -0.016881666666666666
1046651700 1.0157786666666666 -0.013351000000000002
1048132631 1.0142203333333333 -0.016473333333333333
1049613562 1.0123609999999998 -0.01190833333333333
1051094493 1.0087679999999999 -0.013402333333333332
1052575424 1.006999 -0.013991666666666666
1054056355 1.0036100000000001 -0.013491666666666666
1055537286 0.9995163333333332 -0.011194333333333334
1057018217 0.9979993333333332 -0.012403666666666667
1058499148 1.0017476666666667 -0.013713666666666667
1059980079 1.0049229999999998 -0.014584
1061461010 1.0084716666666667 -0.015168999999999998
1062941941 1.0105826666666666 -0.013370999999999997
1064422872 1.0126673333333331 -0.014624
1065903803 1.0155586666666665 -0.014183333333333333
1067384734 1.0157273333333332 -0.01479
1068865665 1.0167263333333332 -0.014650333333333331
1070346596 1.0175513333333333 -0.016321333333333334
1071827527 1.0183623333333331 -0.013614000000000001
1073308458 1.0174883333333333 -0.012362666666666664
1074789389 1.0164659999999999 -0.012828666666666665
1076270320 1.0150583333333332 -0.013378333333333334
1077751251 1.0137903333333331 -0.010455
1079232182 1.0158003333333332 0.0015210000000000002
1080713113 1.0092673333333333 -0.010913
1082194044 1.0054926666666666 -0.00983
1083674975 1.0038883333333333 -0.010040666666666665
1085155906 0.9999766666666666 -0.012271333333333332
1086636837 0.997747 -0.012094999999999998
1088117768 1.001753 -0.012192999999999999
1089598699 1.0056323333333332 -0.011008666666666667
1091079630 1.0087913333333332 -0.012307333333333332
1092560561 1.0119663333333333 -0.013066000000000001
1094041492 1.0134016666666668 -0.012254666666666665
1095522423 1.016997 -0.010524333333333333
1097003354 1.0179376666666666 -0.011366999999999999
1098484285 1.0199673333333332 -0.014188000000000001
1099965216 1.0205293333333332 -0.010259999999999998
1101446147 1.0198029999999998 -0.012635333333333332
1102927078 1.021291 -0.011722999999999999
1104408009 1.0201806666666666 -0.011934333333333333
1105888940 1.0185903333333333 -0.010823333333333332
1107369871 1.0173956666666666 -0.011750333333333331
1108850802 1.0149983333333332 -0.011261999999999998
1110331733 1.0139806666666666 -0.011706000000000001
1111812664 1.0119266666666666 -0.009362666666666667
1113293595 1.0071136666666665 -0.0076026666666666656
1114774526 1.0034919999999998 -0.012909333333333332
1116255457 1.0007666666666666 -0.012166
1117736388 1.0045803333333332 -0.012605
1119217319 1.008514 -0.014168666666666666
1120698250 1.0114496666666666 -0.012994666666666668
1122179181 1.014808333333333 -0.015199666666666667
1123660112 1.0171856666666665 -0.013647000000000001
1125141043 1.020099 -0.014098
1126621974 1.0204666666666666 -0.013850000000000001
1128102905 1.0208126666666666 -0.013717333333333333
1129583836 1.023394 -0.011604999999999999
1131064767 1.0227256666666666 -0.012934666666666665
1132545698 1.048438 0.008420333333333332
1134026629 1.0229409999999999 -0.013179
1135507560 1.0213343333333331 -0.013455666666666666
1136988491 1.0210836666666667 -0.012865333333333333
1138469422 1.0167453333333332 -0.012209
1139950353 1.0138263333333333 -0.015664333333333332
1141431284 1.0108066666666666 -0.010383333333333331
1142912215 1.0062349999999998 -0.015983999999999998
1144393146 1.0037716666666667 -0.017342999999999997
1145874077 0.999512 -0.013724
1147355008 1.002281 -0.022254
1148835939 1.0091409999999998 -0.014722333333333332
1150316870 1.010052 -0.014048333333333333
1151797801 1.0149243333333333 -0.016609333333333334
1153278732 1.0179556666666667 -0.016676
1154759663 1.0208726666666665 -0.015222333333333333
1156240594 1.0179803333333333 -0.015833
1157721525 1.023288 -0.013759
1159202456 1.0242786666666666 -0.013652666666666667
1160683387 1.0240099999999999 -0.014310333333333331
1162164318 1.0258159999999998 -0.008867666666666666
1163645249 1.0245129999999998 -0.013566666666666666
1165126180 1.020754 -0.014784
1166607111 1.0223689999999999 -0.010034666666666666
1168088042 1.0190366666666666 -0.011299666666666666
1169568973 1.0155546666666666 -0.009336333333333332
1171049904 1.0121449999999999 -0.009071666666666667
1172530835 1.0085819999999999 -0.012480666666666668
1174011766 1.0041269999999998 -0.012025666666666665
1175492697 1.0001796666666665 -0.013632666666666668
1176973628 1.0013739999999998 -0.011409666666666665
1178454559 1.005469333333333 -0.013996333333333333
1179935490 1.0097793333333331 -0.011916333333333334
1181416421 1.0137116666666666 -0.014448333333333334
1182897352 1.019717 -0.013489000000000001
1184378283 1.0191113333333333 -0.014320666666666666
1185859214 1.0220099999999999 -0.012971666666666666
1187340145 1.0213233333333331 -0.012843999999999998
1188821076 1.0262529999999999 -0.014913333333333334
1190302007 1.024645 -0.012214666666666665
1191782938 1.0239263333333333 -0.012211666666666666
1193263869 1.022692 -0.012314666666666668
1194744800 1.0232063333333332 -0.009285999999999999
1196225731 1.0207556666666666 -0.012765
1197706662 1.0195189999999998 -0.008998666666666665
1199187593 1.016794 -0.010474666666666667
1200668524 1.013647 -0.008728666666666666
1202149455 1.0091579999999998 -0.010571666666666667
1203630386 1.0051866666666665 -0.012264666666666667
1205111317 1.0005393333333332 -0.010854999999999998
1206592248 1.0008586666666668 -0.010624666666666666
1208073179 1.0046356666666667 -0.012124333333333334
1209554110 1.0084719999999998 -0.013842333333333333
1211035041 1.011129333333333 -0.018947
1212515972 1.0172229999999998 -0.016552333333333332
1213996903 1.0218556666666665 -0.014713333333333332
1215477834 1.0213236666666665 -0.018101666666666665
1216958765 1.025162 -0.017839999999999998
1218439696 1.0233996666666667 -0.01556
1219920627 1.025404 -0.015594999999999998
1221401558 1.0258636666666665 -0.014903666666666666
1222882489 1.0252556666666666 -0.018833666666666665
1224363420 1.0240793333333333 -0.014260333333333333
1225844351 1.0440463333333332 0.0067403333333333326
1227325282 1.0215503333333331 -0.012291333333333335
1228806213 1.0181966666666666 -0.016455666666666667
1230287144 1.0151543333333333 -0.014393999999999999
1231768075 1.0099269999999998 -0.01699133333333333
1233249006 1.0069086666666665 -0.014397333333333331
1234729937 1.0037533333333333 -0.014322999999999999
1236210868 0.9986096666666665 -0.016506999999999997
1237691799 1.0054866666666666 -0.015581666666666664
1239172730 1.0079053333333332 -0.018749999999999996
1240653661 0.9652596666666666 -0.010104333333333333
1242134592 1.015644 -0.021805999999999996
1243615523 1.0189466666666664 -0.018602
1245096454 1.0206849999999998 -0.02178066666666667
1246577385 1.0222903333333333 -0.022340000000000002
1248058316 1.0230056666666665 -0.021949666666666666
1249539247 1.023901 -0.023270666666666665
1251020178 1.0243529999999998 -0.020253666666666663
1252501109 1.0241396666666667 -0.021081666666666665
1253982040 1.022762 -0.022549
1255462971 1.0213343333333333 -0.019565
1256943902 1.0192353333333335 -0.02008666666666667
1258424833 1.0169243333333333 -0.02252866666666667
1259905764 1.0127186666666665 -0.019323666666666663
1261386695 1.0102673333333332 -0.020936
1262867626 1.005413 -0.020916999999999998
1264348557 1.001042 -0.019355999999999998
1265829488 0.9956196666666666 -0.021921
1267310419 1.0004323333333334 -0.023139333333333335
1268791350 1.0060656666666665 -0.023305999999999997
1270272281 1.0083706666666665 -0.023064
1271753212 1.0122623333333332 -0.023773999999999997
1273234143 1.0147933333333334 -0.024942
1274715074 1.0176719999999997 -0.024915
1276196005 1.0213259999999997 -0.022876666666666663
1277676936 1.0199756666666666 -0.02417233333333333
1279157867 1.0217766666666668 -0.020464333333333334
1280638798 1.0222496666666665 -0.01993033333333333
1282119729 1.0209943333333333 -0.02185333333333333
1283600660 1.0206143333333333 -0.022182999999999998
1285081591 1.019542333333333 -0.018448666666666665
1286562522 1.0191406666666665 -0.018065333333333336
1288043453 1.0157936666666665 -0.021119
1289524384 1.0134056666666666 -0.017447999999999998
1291005315 1.0102246666666668 -0.016343666666666666
1292486246 1.0062456666666666 -0.016173
1293967177 1.0009486666666665 -0.012725666666666666
1295448108 0.9954509999999999 -0.013647
1296929039 0.9974983333333333 -0.014247666666666667
1298409970 1.0027143333333335 -0.016765999999999996
1299890901 1.004701 -0.015403
1301371832 1.0082909999999998 -0.017387
1302852763 1.011239 -0.022116
1304333694 1.014287333333333 -0.020562666666666667
1305814625 1.015107 -0.024142333333333328
1307295556 1.0161769999999999 -0.021694666666666668
1308776487 1.0191016666666668 -0.02252866666666667
1310257418 1.018098333333333 -0.02138333333333333
1311738349 1.017291333333333 -0.021743
1313219280 1.017777333333333 -0.024991666666666666
1314700211 1.0173886666666665 -0.02381233333333333
1316181142 1.0152986666666666 -0.020769333333333334
1317662073 1.0147016666666666 -0.023387333333333333
1319143004 1.0107273333333335 -0.022226666666666665
1320623935 1.0057049999999998 -0.021796
1322104866 1.004973 -0.025577333333333334
1323585797 1.0019719999999999 -0.023909999999999994
1325066728 0.9971986666666666 -0.02059433333333333
1326547659 0.9974916666666667 -0.02334033333333333
1328028590 1.0007933333333332 -0.027319333333333334
1329509521 1.0058906666666667 -0.024420666666666663
1330990452 1.0071833333333333 -0.021760999999999996
1332471383 1.0098133333333332 -0.031230333333333332
1333952314 1.0109626666666665 -0.026593
1335433245 1.0129333333333332 -0.029727000000000003
1336914176 1.0131023333333333 -0.026521999999999997
1338395107 1.0142786666666668 -0.02505133333333333
1339876038 1.0150016666666666 -0.023257
1341356969 1.0153363333333334 -0.02786433333333333
1342837900 1.0133029999999998 -0.02594733333333333
1344318831 1.0124996666666664 -0.02579633333333333
1345799762 1.0136426666666667 -0.025917
1347280693 1.0088336666666664 -0.02631033333333333
1348761624 1.0074779999999999 -0.02120666666666667
1350242555 1.0043156666666668 -0.02556033333333333
1351723486 1.0021383333333334 -0.025517333333333336
1353204417 0.9995426666666667 -0.022392333333333334
1354685348 0.9936896666666667 -0.020175
1356166279 0.9945376666666667 -0.020827666666666664
1357647210 0.9980143333333333 -0.026609
1359128141 1.0016473333333331 -0.023218999999999997
1360609072 1.0043703333333334 -0.018345666666666666
1362090003 1.0061726666666666 -0.025849666666666663
1363570934 1.0093336666666666 -0.027090000000000003
1365051865 1.0130223333333332 -0.024242666666666666
1366532796 1.012275 -0.027957666666666665
1368013727 1.017016 -0.034179666666666664
1369494658 1.0135859999999999 -0.029238333333333328
1370975589 1.0141573333333334 -0.021520333333333336
1372456520 1.0158580000000001 -0.023018333333333335
1373937451 1.0154506666666667 -0.021721333333333332
1375418382 1.0143516666666665 -0.019508666666666667
1376899313 1.0101716666666667 -0.024050666666666665
1378380244 1.009232 -0.021159
1379861175 1.008198333333333 -0.017425666666666666
1381342106 1.0068449999999998 -0.02072833333333333
1382823037 1.003667 -0.020465666666666663
1384303968 0.997636 -0.018002666666666667
1385784899 0.997071 -0.017367
1387265830 1.001526 -0.01761633333333333
1388746761 1.0045089999999999 -0.020028666666666667
1390227692 1.0070139999999999 -0.019278666666666666
1391708623 1.0118676666666666 -0.022084999999999997
1393189554 1.013482 -0.01836533333333333
1394670485 1.014812 -0.02122933333333333
1396151416 1.0167336666666666 -0.022268999999999997
1397632347 1.0178186666666664 -0.021502999999999998
1399113278 1.0174973333333333 -0.022108999999999997
1400594209 1.0183416666666665 -0.020153666666666667
1402075140 1.0173906666666666 -0.020148
1403556071 1.0166313333333332 -0.019123666666666667
1405037002 1.0170299999999997 -0.017938999999999997
1406517933 1.0128233333333334 -0.020279333333333333
1407998864 1.0098723333333333 -0.021729666666666664
1409479795 1.0130873333333332 -0.018830666666666666
1410960726 1.008236 -0.020946333333333334
1412441657 1.0045289999999998 -0.01776133333333333
1413922588 1.004541 -0.017646666666666665
1415403519 1.001469333333333 -0.021860666666666667
1416884450 1.0049659999999998 -0.02028
1418365381 1.0083856666666666 -0.020899
1419846312 1.0105183333333332 -0.017087333333333333
1421327243 1.0121513333333332 -0.01935133333333333
1422808174 1.0136983333333334 -0.020284666666666666
1424289105 1.0164613333333334 -0.021283999999999997
1425770036 1.0179803333333333 -0.016388666666666666
1427250967 1.0195303333333332 -0.017324999999999997
1428731898 1.0197483333333333 -0.019951999999999998
1430212829 1.019787 -0.017448666666666668
1431693760 1.0279690000000001 -0.0016106666666666676
1433174691 1.0199506666666667 -0.019485333333333334
1434655622 1.0162883333333332 -0.021613333333333335
1436136553 1.0149196666666667 -0.019217666666666664
1437617484 1.0138786666666664 -0.017476666666666665
1439098415 1.0106789999999999 -0.01503133333333333
1440579346 1.005903 -0.017753333333333333
1442060277 1.005507 -0.021298
1443541208 0.9989526666666666 -0.01722833333333333
1445022139 0.9991033333333333 -0.021105
1446503070 1.0014393333333333 -0.017224
1447984001 1.0046136666666667 -0.01851533333333333
1449464932 1.007262 -0.018620666666666664
1450945863 1.0124726666666666 -0.019902999999999997
1452426794 1.0148396666666666 -0.017070666666666668
1453907725 1.016202 -0.017789333333333334
1455388656 1.0184266666666666 -0.01686633333333333
1456869587 1.019179 -0.01801133333333333
1458350518 1.020662 -0.01782
1459831449 1.020728333333333 -0.016584666666666664
1461312380 1.02138 -0.015125666666666666
1462793311 1.0204339999999998 -0.017443666666666666
1464274242 1.0193503333333334 -0.015225333333333334
1465755173 1.0170736666666667 -0.015602
1467236104 1.0150236666666665 -0.01566733333333333
1468717035 1.013236 -0.018223666666666666
1470197966 1.0103773333333332 -0.012941666666666666
1471678897 1.006501333333333 -0.017035666666666664
1473159828 1.0028609999999998 -0.01869233333333333
1474640759 0.9990433333333333 -0.018925666666666667
1476121690 1.0006946666666665 -0.018012
1477602621 1.0052656666666666 -0.016891
1479083552 1.008711 -0.017474666666666666
1480564483 1.0126749999999998 -0.015608666666666667
1482045414 1.0151173333333332 -0.01818466666666667
1483526345 1.017124 -0.016884
1485007276 1.020625 -0.016191
1486488207 1.020097 -0.018895333333333333
1487969138 1.0222126666666667 -0.016187999999999998
1489450069 1.022167 -0.015783
1490931000 1.0226713333333333 -0.011638333333333334
1492411931 1.0210626666666667 -0.014970666666666669
1493892862 1.0212649999999999 -0.014729333333333332
1495373793 1.0189016666666666 -0.013967
1496854724 1.0173293333333333 -0.01569133333333333
1498335655 1.015248 -0.011604
1499816586 1.0123393333333333 -0.015789666666666667
1501297517 1.007836 -0.016623666666666665
1502778448 1.005226 -0.013787333333333332
1504259379 1.0012666666666665 -0.014624333333333331
1505740310 1.0015743333333333 -0.01623533333333333
1507221241 1.005326 -0.019116333333333332
1508702172 1.0101023333333332 -0.019846999999999997
1510183103 1.0130626666666664 -0.020732333333333332
1511664034 1.0158973333333332 -0.019012333333333332
1513144965 1.0185046666666664 -0.020100666666666666
1514625896 1.0212996666666665 -0.018492666666666664
1516106827 1.0212476666666666 -0.021391666666666663
1517587758 1.0219123333333333 -0.019689666666666664
1519068689 1.0245496666666667 -0.016423
1520549620 1.023326 -0.019469999999999998
1522030551 1.0226799999999998 -0.016254333333333332
1523511482 1.020041 -0.017484
1524992413 1.0187476666666666 -0.02016233333333333
1526473344 1.0164633333333333 -0.017945666666666665
1527954275 1.0156676666666666 -0.017004666666666668
1529435206 1.0113773333333334 -0.021788000000000002
1530916137 1.0055443333333332 -0.02100166666666667
1532397068 1.0040559999999998 -0.018839333333333333
1533877999 0.9984316666666666 -0.020346999999999997
1535358930 0.997467 -0.015182000000000001
1536839861 1.0033936666666667 -0.017842666666666663
1538320792 1.0074333333333332 -0.02510633333333333
1539801723 1.0122803333333332 -0.016171333333333333
1541282654 1.0170153333333332 -0.020927999999999995
1542763585 1.0200283333333333 -0.01912466666666667
1544244516 1.022583 -0.01815
1545725447 1.0247876666666667 -0.017643666666666665
1547206378 1.0264793333333335 -0.014266000000000001
1548687309 1.0290403333333331 -0.013508333333333332
1550168240 1.0280369999999999 -0.009982666666666667
1551649171 1.0242353333333334 -0.024554
1553130102 1.0262926666666667 -0.011969333333333332
1554611033 1.0214249999999998 -0.02108033333333333
1556091964 1.022029 -0.011780666666666665
1557572895 1.017396 -0.021283666666666666
1559053826 1.0165643333333334 -0.006248
1560534757 1.0095329999999998 -0.023632666666666666
1562015688 1.0092733333333332 -0.007562666666666666
1563496619 1.000939 -0.019146666666666666
1564977550 0.9990536666666667 -0.006362666666666667
1566458481 1.0011866666666664 -0.020149666666666666
1567939412 1.0091936666666665 -0.010985666666666666
1569420343 1.0107023333333331 -0.024465
1570901274 1.017568 -0.015357333333333334
1572382205 1.0159056666666666 -0.02748733333333333
1573863136 1.0211486666666665 -0.014759333333333333
1575344067 1.02137 -0.029387333333333335
1576824998 1.0255223333333332 -0.015919333333333334
1578305929 1.0230596666666667 -0.026214333333333333
1579786860 1.0273406666666665 -0.019451999999999997
1581267791 1.0267586666666666 -0.01925933333333333
1582748722 1.0241049999999998 -0.020504999999999995
1584229653 1.0221396666666667 -0.023808333333333327
1585710584 1.0196826666666665 -0.021474333333333335
1587191515 1.0189093333333332 -0.02134833333333333
1588672446 1.0153599999999998 -0.02421833333333333
1590153377 1.0113139999999998 -0.021658333333333335
1591634308 1.0113656666666666 -0.020240666666666664
1593115239 1.0037633333333331 -0.018702999999999997
1594596170 0.9966556666666666 -0.01994333333333333
1596077101 1.0031926666666666 -0.02121633333333333
1597558032 1.008547333333333 -0.024335666666666665
1599038963 1.0109819999999998 -0.02592033333333333
1600519894 1.0130293333333333 -0.03093966666666667
1602000825 1.0168746666666666 -0.026304
1603481756 1.0206549999999999 -0.025344333333333333
1604962687 1.0220076666666666 -0.02629533333333333
1606443618 1.0222776666666666 -0.032494
1607924549 1.02246 -0.028186666666666665
1609405480 1.023409 -0.028040666666666665
1610886411 1.0219656666666666 -0.02969533333333333
1612367342 1.0238986666666667 -0.021648666666666667
1613848273 1.022903 -0.028262333333333334
1615329204 1.0201096666666667 -0.023919999999999997
1616810135 1.0189483333333333 -0.023484666666666668
1618291066 1.014815 -0.021715666666666668
1619771997 1.0117026666666666 -0.023766
1621252928 1.006914 -0.020325
1622733859 1.0031789999999998 -0.020834666666666668
1624214790 0.9993666666666666 -0.018709666666666666
1625695721 0.9987776666666666 -0.022114333333333333
1627176652 1.0047323333333333 -0.02543733333333333
1628657583 1.0071936666666665 -0.02587166666666666
1630138514 1.010318 -0.025981666666666667
1631619445 1.0153166666666666 -0.030849999999999995
1633100376 1.0174453333333333 -0.026877666666666668
1634581307 1.0174073333333333 -0.030221
1636062238 1.018549 -0.028403333333333336
1637543169 1.0209396666666666 -0.026254666666666666
1639024100 1.0209936666666666 -0.026484666666666663
1640505031 1.0214236666666665 -0.024333333333333335
1641985962 1.0222216666666668 -0.026690666666666668
1643466893 1.0190169999999998 -0.02992533333333333
1644947824 1.0174056666666667 -0.025506666666666667
1646428755 1.0152349999999999 -0.027369666666666667
1647909686 1.0125659999999999 -0.024847333333333332
1649390617 1.0075033333333332 -0.026711666666666665
1650871548 1.0063829999999998 -0.025184666666666664
1652352479 1.0026343333333334 -0.022534666666666665
1653833410 0.9966976666666666 -0.022751
1655314341 0.9972323333333334 -0.022993666666666662
1656795272 1.0017523333333334 -0.028218333333333335
1658276203 1.0038186666666666 -0.028181
1659757134 1.0070986666666666 -0.030506
1661238065 1.0105093333333333 -0.027263333333333334
1662718996 1.0128616666666665 -0.03015
1664199927 1.013523333333333 -0.03151399999999999
1665680858 1.0150583333333334 -0.03407133333333333
1667161789 1.0168643333333334 -0.032696666666666666
1668642720 1.0149193333333333 -0.03374
1670123651 1.0169853333333334 -0.035027
1671604582 1.0167169999999999 -0.03151333333333333
1673085513 1.0160770000000001 -0.029351666666666668
1674566444 1.014774 -0.028848666666666665
1676047375 1.0018213333333332 -0.04983533333333333
1677528306 1.0136943333333333 -0.01852233333333333
1679009237 1.0112313333333331 -0.020242333333333334
1680490168 1.002059 -0.041645666666666664
1681971099 1.0046756666666665 -0.019343666666666665
1683452030 1.0014146666666666 -0.01671133333333333
1684932961 0.9996789999999998 -0.023849666666666665
1686413892 1.0022906666666667 -0.020458999999999998
1687894823 1.0012386666666666 -0.043648
1689375754 1.008686 -0.021545999999999996
1690856685 1.0098479999999999 -0.03365733333333333
1692337616 1.0154756666666664 -0.02335533333333334
1693818547 1.018263 -0.019575
1695299478 1.0179649999999998 -0.023543333333333333
1696780409 1.019333 -0.02324833333333333
1698261340 1.0203023333333334 -0.026549999999999997
1699742271 1.0207709999999999 -0.02160633333333333
1701223202 1.0176646666666667 -0.027036333333333332
1702704133 1.0158573333333332 -0.03636966666666667
1704185064 1.0132753333333333 -0.03364866666666666
1705665995 1.0140206666666665 -0.030848
1707146926 1.0110029999999999 -0.030169999999999995
1708627857 1.007181 -0.02753
1710108788 1.005273 -0.032357333333333335
1711589719 1.0020829999999998 -0.027995
1713070650 0.9983296666666666 -0.026982
1714551581 0.9936183333333333 -0.025822666666666667
1716032512 0.999526 -0.026233666666666662
1717513443 1.0036346666666667 -0.030555
1718994374 1.00491 -0.03200566666666666
1720475305 1.0086286666666666 -0.029583666666666664
1721956236 1.010847 -0.029968333333333333
1723437167 1.0120723333333332 -0.03057866666666667
1724918098 1.0147559999999998 -0.027574
1726399029 1.0153293333333333 -0.032229999999999995
1727879960 1.014065 -0.03189366666666666
1729360891 1.0208473333333332 -0.014081666666666668
1730841822 1.014082333333333 -0.03188
1732322753 1.0134673333333333 -0.028554333333333334
1733803684 1.0112229999999998 -0.027197666666666665
1735284615 1.0109146666666666 -0.02929233333333333
1736765546 1.0091096666666666 -0.027639999999999998
1738246477 1.008208 -0.029458666666666668
1739727408 1.0032783333333333 -0.020490666666666664
1741208339 1.0000066666666667 -0.023769333333333337
1742689270 0.9952229999999999 -0.02546233333333333
1744170201 0.9908393333333333 -0.02744833333333333
1745651132 0.9965636666666666 -0.024091999999999995
1747132063 0.9987253333333334 -0.02661333333333333
1748612994 1.0020616666666664 -0.02958066666666666
1750093925 1.00595 -0.025617
1751574856 1.007933 -0.026099666666666667
1753055787 1.0110433333333333 -0.02774566666666667
1754536718 1.0119850000000001 -0.030293333333333332
1756017649 1.0136846666666666 -0.025764666666666665
1757498580 1.0137913333333333 -0.032657
1758979511 1.0150299999999999 -0.02717
1760460442 1.0140819999999997 -0.024685333333333337
1761941373 1.0116283333333334 -0.025627333333333335
1763422304 1.0109013333333332 -0.02399533333333333
1764903235 1.0090633333333332 -0.025112333333333334
1766384166 1.0088089999999998 -0.025724333333333328
1767865097 1.006823 -0.02133233333333333
1769346028 1.000718 -0.025937666666666664
1770826959 0.9970873333333332 -0.027665
1772307890 0.9957316666666666 -0.024184333333333335
1773788821 0.989775 -0.024046666666666664
1775269752 0.9949223333333334 -0.02476133333333333
1776750683 0.9963213333333332 -0.026715666666666665
1778231614 1.0015316666666667 -0.02655933333333333
1779712545 1.005736 -0.029282000000000002
1781193476 1.005567 -0.02724033333333333
1782674407 1.0111113333333333 -0.023163999999999997
1784155338 1.0124513333333334 -0.026717333333333333
1785636269 1.011438 -0.02964433333333333
1787117200 1.0139049999999998 -0.027134666666666668
1788598131 1.015669 -0.030426333333333333
1790079062 1.0136063333333332 -0.027638999999999997
1791559993 1.0156333333333332 -0.02517033333333333
1793040924 1.014139333333333 -0.025437666666666667
1794521855 1.0112459999999999 -0.02305233333333333
1796002786 1.0096889999999998 -0.02783433333333333
1797483717 1.0092653333333332 -0.026457666666666664
1798964648 1.0071463333333333 -0.028532666666666668
1800445579 1.0043776666666666 -0.025294666666666667
1801926510 0.9982583333333334 -0.02835
1803407441 0.9948036666666666 -0.027316666666666663
1804888372 0.9977280000000001 -0.026023666666666667
1806369303 0.9985033333333333 -0.028181666666666667
1807850234 1.0037636666666665 -0.026119999999999997
1809331165 1.0070026666666665 -0.026781
1810812096 1.0088783333333333 -0.030930333333333337
1812293027 1.0104409999999997 -0.03315733333333333
1813773958 1.0129966666666665 -0.032115000000000005
1815254889 1.0136629999999998 -0.030487
1816735820 1.0154199999999998 -0.034704
1818216751 1.020745 -0.03238866666666666
1819697682 1.0199063333333334 -0.03081166666666666
1821178613 1.018176 -0.03388933333333333
1822659544 1.012835 -0.03394133333333333
1824140475 1.019141 -0.029314
1825621406 1.0116376666666667 -0.031888
1827102337 1.0079339999999999 -0.03186533333333333
1828583268 1.0077223333333332 -0.028599
1830064199 1.0031953333333334 -0.028428333333333333
1831545130 1.0005893333333333 -0.03371433333333333
1833026061 0.9927980000000001 -0.03078366666666667
1834506992 0.9877676666666666 -0.045475666666666664
1835987923 0.9992593333333334 -0.03560366666666666
1837468854 1.0050836666666665 -0.03183166666666666
1838949785 1.008532 -0.03385166666666666
1840430716 1.0107329999999999 -0.03178299999999999
1841911647 1.0135626666666666 -0.03538133333333333
1843392578 1.0160666666666667 -0.033957666666666664
1844873509 1.0148206666666666 -0.028634333333333335
1846354440 1.0194639999999997 -0.03242766666666666
1847835371 1.0205989999999998 -0.031446
1849316302 1.021989 -0.030935666666666667
1850797233 1.0198166666666666 -0.026437000000000002
1852278164 1.018603 -0.02843
1853759095 1.0203943333333332 -0.02656033333333333
1855240026 1.0153966666666667 -0.026698666666666666
1856720957 1.012862333333333 -0.026230000000000003
1858201888 1.010309 -0.023800999999999996
1859682819 1.0062426666666666 -0.020927666666666667
1861163750 1.0029133333333333 -0.023141
1862644681 0.9970596666666666 -0.024642666666666663
1864125612 0.9939836666666666 -0.024330333333333332
1865606543 0.9989453333333334 -0.024542333333333333
1867087474 1.0050053333333333 -0.025439666666666666
1868568405 1.0078266666666666 -0.023084
1870049336 1.0107599999999999 -0.02678
1871530267 1.0137936666666665 -0.027498333333333333
1873011198 1.016921 -0.028020666666666666
1874492129 1.01931 -0.024469666666666667
1875973060 1.0181816666666665 -0.027599666666666668
1877453991 1.0217573333333334 -0.024818666666666662
1878934922 1.0209519999999999 -0.022893666666666666
1880415853 1.022552 -0.023372666666666667
1881896784 1.018789 -0.022545666666666665
1883377715 1.0192443333333332 -0.022146666666666665
1884858646 1.0162456666666666 -0.019235999999999996
1886339577 1.0158243333333332 -0.018669666666666668
1887820508 1.0106176666666666 -0.02129833333333333
1889301439 1.009557 -0.017374666666666663
1890782370 1.003178 -0.018280666666666667
1892263301 1.001356 -0.016600333333333335
1893744232 0.9936136666666666 -0.01821633333333333
1895225163 0.9980443333333332 -0.019988
1896706094 1.0010783333333333 -0.02675133333333333
1898187025 1.0059196666666665 -0.025074666666666665
1899667956 1.0067803333333332 -0.026498666666666663
1901148887 1.01084 -0.026608
1902629818 1.0122659999999999 -0.026235333333333333
1904110749 1.0125639999999998 -0.025580333333333333
1905591680 1.0182819999999997 -0.027771333333333332
1907072611 1.0153796666666666 -0.029911666666666663
1908553542 1.015807 -0.028059333333333332
1910034473 1.0142096666666665 -0.03075366666666667
1911515404 1.0135156666666667 -0.03458933333333333
1912996335 1.0130923333333333 -0.029284999999999995
1914477266 1.0118523333333331 -0.028562666666666667
1915958197 1.0087516666666665 -0.029310999999999997
1917439128 1.0054946666666666 -0.031139
1918920059 1.0041666666666664 -0.029478666666666667
1920400990 1.0005183333333332 -0.030885333333333334
1921881921 0.9963013333333334 -0.031071333333333333
1923362852 0.9911399999999999 -0.03270133333333333
1924843783 0.9954603333333332 -0.030467
1926324714 0.9979103333333332 -0.031718333333333334
1927805645 1.0029516666666667 -0.031349999999999996
1929286576 1.0048946666666665 -0.03522333333333333
1930767507 1.0083123333333333 -0.031517666666666666
1932248438 1.012079 -0.03225299999999999
1933729369 1.015943 -0.03264233333333333
1935210300 1.0158696666666664 -0.032750666666666664
1936691231 1.0176676666666666 -0.03376666666666667
1938172162 1.0196393333333333 -0.028290666666666665
1939653093 1.0187853333333332 -0.023879333333333336
1941134024 1.0163493333333333 -0.03152633333333333
1942614955 1.0168969999999997 -0.028052666666666663
1944095886 1.0149386666666667 -0.027972333333333335
1945576817 1.0117256666666665 -0.031130666666666668
1947057748 1.009198 -0.025779999999999997
1948538679 1.0060163333333332 -0.024327999999999995
1950019610 1.0048356666666667 -0.017668666666666666
1951500541 0.9988053333333333 -0.021482333333333332
1952981472 0.9949326666666667 -0.021690333333333332
1954462403 0.9966109999999999 -0.024427333333333332
1955943334 1.0013533333333333 -0.023745000000000002
1957424265 1.0034426666666665 -0.022833
1958905196 1.006849 -0.025591666666666665
1960386127 1.0090849999999998 -0.026403333333333334
1961867058 1.0105836666666665 -0.030311333333333332
1963347989 1.0115889999999998 -0.024099666666666665
1964828920 1.0140996666666666 -0.028886999999999996
1966309851 1.016835 -0.022008
1967790782 1.0169243333333333 -0.025884666666666667
1969271713 1.0137713333333331 -0.03322866666666666
1970752644 1.0148506666666668 -0.031292
1972233575 1.016681 -0.023473333333333332
1973714506 1.0064739999999999 -0.04056133333333333
1975195437 1.0148553333333332 -0.023799
1976676368 1.0085966666666666 -0.024106666666666665
1978157299 1.0050086666666664 -0.023765333333333333
1979638230 1.0020476666666664 -0.030397333333333332
1981119161 0.9980309999999999 -0.026825
1982600092 0.994235 -0.025231999999999997
1984081023 0.9925866666666666 -0.02563033333333333
1985561954 0.997881 -0.024542666666666664
1987042885 0.9975273333333333 -0.03684
1988523816 1.0013319999999999 -0.029206666666666665
1990004747 1.0060976666666666 -0.02849033333333333
1991485678 1.0096776666666667 -0.029991999999999998
1992966609 1.0110139999999999 -0.03225333333333333
1994447540 1.014066 -0.029241666666666666
1995928471 1.0102036666666665 -0.03297033333333333
1997409402 1.0146959999999998 -0.03150833333333333
1998890333 1.0137676666666666 -0.031712
2000371264 1.0137806666666667 -0.030415666666666667
2001852195 1.011876 -0.034924
2003333126 1.0100333333333333 -0.029089666666666666
2004814057 1.00998 -0.033140333333333334
2006294988 1.0085846666666667 -0.030944666666666665
2007775919 1.00598 -0.026925666666666667
2009256850 1.0026853333333332 -0.029554999999999998
2010737781 0.9992256666666666 -0.02940333333333333
2012218712 0.9957006666666667 -0.029518999999999997
2013699643 0.9947046666666666 -0.030076333333333333
2015180574 0.9979106666666666 -0.028661333333333334
2016661505 1.0018243333333334 -0.028427333333333332
2018142436 1.0034226666666666 -0.033569333333333326
2019623367 1.0067519999999999 -0.03207466666666667
2021104298 1.0100616666666666 -0.035417
2022585229 1.0117216666666666 -0.035007333333333335
2024066160 1.0103323333333334 -0.03199366666666666
2025547091 1.0146419999999998 -0.031507999999999994
2027028022 1.0127143333333333 -0.029726666666666665
2028508953 1.0131103333333331 -0.031546
2029989884 1.0153833333333333 -0.02825033333333333
2031470815 1.0130516666666667 -0.03411366666666667
2032951746 1.0130063333333332 -0.03665966666666666
2034432677 1.0104953333333333 -0.03043766666666667
2035913608 1.0105276666666667 -0.032606333333333334
2037394539 1.00782 -0.028734333333333334
2038875470 1.0043423333333332 -0.03215233333333333
2040356401 1.0003393333333332 -0.030460333333333332
2041837332 0.9982146666666667 -0.02981166666666666
2043318263 0.9939123333333333 -0.030262666666666667
2044799194 0.9990743333333333 -0.032531333333333336
2046280125 1.0017163333333332 -0.034506666666666665
2047761056 1.0032756666666665 -0.031850666666666666
2049241987 1.0071966666666665 -0.03264266666666667
2050722918 1.0085943333333331 -0.030766666666666664
2052203849 1.009572 -0.038481
2053684780 1.0129759999999997 -0.035425333333333336
2055165711 1.0111046666666668 -0.03419166666666666
2056646642 1.0122993333333332 -0.030628999999999997
2058127573 1.0112729999999996 -0.03212733333333333
2059608504 1.0144483333333334 -0.037385666666666664
2061089435 1.0113533333333333 -0.037729
2062570366 1.0086136666666665 -0.03155366666666666
2064051297 1.0108293333333331 -0.03699266666666666
2065532228 1.0067266666666665 -0.036601999999999996
2067013159 1.0043019999999998 -0.03497433333333333
2068494090 1.0003016666666666 -0.036463333333333334
2069975021 0.9970596666666667 -0.039321999999999996
2071455952 0.9935776666666666 -0.03657833333333333
2072936883 0.988499 -0.036815333333333325
2074417814 0.9919469999999999 -0.041178
2075898745 0.997196 -0.03861833333333333
2077379676 1.0006013333333332 -0.03858533333333333
2078860607 1.0055026666666667 -0.03915766666666666
2080341538 1.008331 -0.03763866666666666
2081822469 1.0097653333333332 -0.03861866666666666
2083303400 1.0113383333333332 -0.035307
2084784331 1.0138099999999999 -0.038727333333333336
2086265262 1.0138546666666666 -0.03452933333333333
2087746193 1.0163126666666664 -0.03338333333333333
2089227124 1.014066 -0.031247999999999998
2090708055 1.013985 -0.034431
2092188986 1.0140826666666665 -0.029541333333333336
2093669917 1.0133233333333331 -0.035792
2095150848 1.0104456666666666 -0.029004333333333333
2096631779 1.008725 -0.029399333333333333
2098112710 1.0047956666666664 -0.035462
2099593641 1.0014086666666666 -0.024558333333333328
2101074572 0.9976039999999999 -0.02900133333333333
2102555503 0.9949349999999999 -0.03152933333333333
2104036434 0.9954213333333334 -0.024224
2105517365 0.99828 -0.024010666666666666
2106998296 1.0029739999999998 -0.028560999999999996
2108479227 1.0063276666666665 -0.027277666666666665
2109960158 1.0080703333333334 -0.028688333333333333
2111441089 1.0111906666666663 -0.03275599999999999
2112922020 1.0116316666666665 -0.03115333333333333
2114402951 1.0118076666666664 -0.03551966666666667
2115883882 1.0137353333333334 -0.030939333333333336
2117364813 1.0128896666666667 -0.029537333333333332
2118845744 1.012314 -0.03280133333333333
2120326675 1.0123876666666667 -0.032676
2121807606 1.0138159999999998 -0.03427066666666666
2123288537 1.011413333333333 -0.033090999999999995
2124769468 1.0079416666666665 -0.027220333333333332
2126250399 1.005414 -0.030078333333333332
2127731330 1.0017686666666665 -0.028071
2129212261 0.9975323333333332 -0.03344233333333333
2130693192 0.9940889999999999 -0.030132999999999997
2132174123 0.9889816666666666 -0.035978666666666666
2133655054 0.9909493333333332 -0.035222333333333335
2135135985 0.9952786666666666 -0.03092266666666666
2136616916 1.014486 -0.012863999999999997
2138097847 1.0007303333333333 -0.034314333333333336
2139578778 1.005931 -0.035110999999999996
2141059709 1.0067206666666666 -0.034234999999999995
2142540640 1.0092126666666665 -0.03265766666666667
2144021571 1.011229333333333 -0.03677933333333333
2145502502 1.0124706666666665 -0.03588466666666666
2146983433 1.0123353333333334 -0.03561433333333333
2148464364 1.0136506666666665 -0.035725
2149945295 1.010924333333333 -0.032674666666666664
2151426226 1.0119633333333333 -0.036874
2152907157 1.010917 -0.03222833333333333
2154388088 1.0111546666666664 -0.03595633333333333
2155869019 1.0077766666666665 -0.03374333333333333
2157349950 1.0022346666666666 -0.03349133333333333
2158830881 0.999253 -0.03569033333333333
2160311812 0.9971583333333334 -0.02932333333333333
2161792743 0.9918226666666667 -0.033000666666666664
2163273674 0.9910436666666667 -0.030213666666666666
2164754605 0.9938059999999999 -0.031065666666666665
2166235536 0.9976889999999999 -0.03286133333333333
2167716467 1.0026186666666665 -0.03728066666666666
2169197398 1.0046276666666665 -0.03486233333333333
2170678329 1.006784 -0.033597666666666665
2172159260 1.0100133333333332 -0.03573066666666666
2173640191 1.011151 -0.03558633333333333
2175121122 1.01377 -0.035931
2176602053 1.0130436666666665 -0.03378866666666666
2178082984 1.0123736666666665 -0.032675333333333334
2179563915 1.0117593333333332 -0.034356
2181044846 1.0105716666666666 -0.028557666666666665
2182525777 1.0121986666666667 -0.03211066666666666
2184006708 1.0055939999999999 -0.03385866666666666
2185487639 1.004621 -0.03479233333333333
2186968570 1.0027846666666664 -0.026907666666666667
2188449501 0.9985969999999998 -0.030948333333333335
2189930432 0.9938996666666666 -0.029280333333333332
2191411363 0.9912996666666667 -0.031681666666666664
2192892294 0.9893510000000001 -0.03223366666666667
2194373225 0.9923143333333333 -0.035833666666666666
2195854156 0.9961719999999998 -0.036168
2197335087 1.0026356666666665 -0.031676333333333334
2198816018 1.0066906666666666 -0.040404333333333334
2200296949 1.004967 -0.041481
2201777880 1.0093809999999999 -0.041462
2203258811 1.0092589999999997 -0.03715333333333333
2204739742 1.0117610000000001 -0.04408833333333333
2206220673 1.0140366666666667 -0.039723999999999995
2207701604 1.0153166666666666 -0.03743233333333333
2209182535 1.014253 -0.04117666666666667
2210663466 1.0139486666666666 -0.04536166666666667
2212144397 1.01327 -0.040274
2213625328 1.0097676666666666 -0.04045666666666667
2215106259 1.010154 -0.03549033333333333
2216587190 1.0093966666666665 -0.03563433333333333
2218068121 1.000997 -0.037865666666666666
2219549052 0.9962026666666667 -0.03847933333333334
2221029983 0.993142 -0.037571
2222510914 0.990159 -0.039071333333333326
2223991845 0.991358 -0.044675
2225472776 0.9949013333333334 -0.04274533333333334
2226953707 1.0026886666666668 -0.046229
2228434638 1.0026929999999998 -0.041591333333333334
2229915569 1.007647 -0.046407333333333335
2231396500 1.010112 -0.042243666666666665
2232877431 1.0125336666666664 -0.04563299999999999
2234358362 1.0104789999999997 -0.041562999999999996
2235839293 1.0113696666666665 -0.046814999999999996
2237320224 1.0174086666666666 -0.035229333333333335
2238801155 1.014271 -0.04463166666666666
2240282086 1.0172799999999997 -0.0388
2241763017 1.0122109999999997 -0.04859066666666666
2243243948 1.0112236666666665 -0.03738866666666666
2244724879 1.0103543333333334 -0.046239333333333334
2246205810 1.0104073333333334 -0.032955333333333336
2247686741 1.0003186666666668 -0.03793666666666666
2249167672 1.0007359999999998 -0.03347533333333333
2250648603 0.9957689999999999 -0.040113666666666666
2252129534 0.996069 -0.028149333333333332
2253610465 0.9924203333333332 -0.034683
2255091396 0.9947043333333334 -0.04113566666666667
2256572327 1.0014426666666667 -0.03568166666666667
2258053258 1.001402 -0.040263
2259534189 1.0044426666666666 -0.038685333333333335
2261015120 1.0081296666666666 -0.042933
2262496051 1.0096123333333333 -0.041800000000000004
2263976982 1.0137823333333333 -0.035749333333333334
2265457913 1.0092856666666665 -0.040675666666666666
2266938844 1.0121126666666664 -0.04266933333333334
2268419775 1.0074716666666665 -0.04164433333333334
2269900706 1.0043706666666665 -0.03859633333333333
2271381637 1.0062259999999998 -0.039146
2272862568 0.9990356666666665 -0.04212133333333333
2274343499 1.007004 -0.03889633333333333
2275824430 1.0029633333333332 -0.03552966666666667
2277305361 0.9983663333333334 -0.039302333333333335
2278786292 0.996645 -0.035416666666666666
2280267223 0.994643 -0.035133
2281748154 0.9885576666666667 -0.034637
2283229085 0.987209 -0.03436733333333333
2284710016 0.9921736666666666 -0.035708666666666666
2286190947 0.9959343333333333 -0.035856
2287671878 0.9960249999999999 -0.041556666666666665
2289152809 1.0039319999999998 -0.03361
2290633740 1.0010536666666665 -0.035806000000000004
2292114671 1.00665 -0.039214
2293595602 1.0124106666666668 -0.029312666666666667
2295076533 1.0064826666666664 -0.03952733333333333
2296557464 1.0110046666666666 -0.033555666666666664
2298038395 1.0118399999999999 -0.03211133333333333
2299519326 1.0135489999999998 -0.035048333333333334
2301000257 1.0130863333333333 -0.03064233333333333
2302481188 1.007569 -0.03376666666666667
2303962119 1.0053783333333333 -0.032910333333333326
2305443050 1.0051553333333332 -0.03388633333333333
2306923981 1.0053256666666666 -0.034818999999999996
2308404912 1.0010303333333332 -0.028610333333333328
2309885843 0.997897 -0.03395733333333333
2311366774 0.9949916666666666 -0.029321
2312847705 0.9882169999999999 -0.043272000000000005
2314328636 0.9953113333333334 -0.029162
2315809567 0.994329 -0.044850666666666664
2317290498 1.0004396666666664 -0.03292066666666667
2318771429 0.9979296666666666 -0.049782
2320252360 1.0044303333333333 -0.03233233333333333
2321733291 1.0038453333333333 -0.039731999999999996
2323214222 1.0101096666666667 -0.03209533333333333
2324695153 1.007872 -0.046603000000000006
2326176084 1.001998 -0.043477666666666664
2327657015 1.0064453333333332 -0.043865333333333326
2329137946 1.0086546666666665 -0.03400466666666666
2330618877 1.0046503333333334 -0.041706
2332099808 1.0080113333333331 -0.028712666666666668
2333580739 1.0085713333333333 -0.036123999999999996
2335061670 0.9987746666666666 -0.03764666666666666
2336542601 1.0005116666666667 -0.035137666666666664
2338023532 0.9954316666666667 -0.04155166666666666
2339504463 0.9999659999999999 -0.021046666666666665
2340985394 0.9888976666666666 -0.035301
2342466325 0.9874633333333334 -0.03616
2343947256 0.9923496666666667 -0.03434966666666667
2345428187 0.9901243333333333 -0.03835499999999999
2346909118 0.9991636666666667 -0.03802599999999999
2348390049 1.0014079999999999 -0.03520366666666666
2349870980 1.0025353333333333 -0.04063833333333333
2351351911 1.0051333333333332 -0.036386666666666664
2352832842 1.0096036666666666 -0.035712999999999995
2354313773 1.0130073333333334 -0.031131
2355794704 1.0136636666666665 -0.03227566666666666
2357275635 1.0111066666666668 -0.03405233333333334
2358756566 1.0132536666666665 -0.02896033333333333
2360237497 1.0116433333333332 -0.036698666666666664
2361718428 1.0136116666666666 -0.03308733333333333
2363199359 1.011203 -0.028538666666666664
2364680290 1.0086356666666667 -0.03223033333333333
2366161221 1.0075273333333332 -0.02752133333333333
2367642152 1.0025573333333333 -0.029570333333333337
2369123083 1.003741 -0.028535333333333333
2370604014 0.9998480000000001 -0.031031999999999994
2372084945 0.99657 -0.02901733333333333
2373565876 0.999014 -0.033889666666666665
2375046807 1.0036909999999999 -0.028775333333333333
2376527738 1.0040646666666666 -0.026390666666666666
2378008669 1.010058 -0.02997133333333333
2379489600 1.013201 -0.03181033333333333
2380970531 1.0167903333333332 -0.027130666666666664
2382451462 1.0139546666666668 -0.023127666666666664
2383932393 1.0169473333333334 -0.019307666666666667
2385413324 1.0121226666666667 -0.02732633333333333
2386894255 1.0151356666666667 -0.026457333333333333
2388375186 1.0153623333333333 -0.024619000000000002
2389856117 1.0137476666666665 -0.01753333333333333
2391337048 1.0121133333333332 -0.026730000000000004
2392817979 1.0119473333333333 -0.017492
2394298910 1.012363 -0.01805733333333333
2395779841 1.0055753333333333 -0.026349333333333336
2397260772 1.00677 -0.022022
2398741703 1.0012383333333332 -0.02525933333333333
2400222634 0.9997303333333332 -0.011485333333333334
2401703565 0.9936403333333332 -0.02227533333333333
2403184496 0.995241 -0.025493000000000002
2404665427 0.9993113333333332 -0.022080000000000002
2406146358 1.0016189999999998 -0.023753333333333328
2407627289 1.0029939999999997 -0.027023
2409108220 1.0083833333333332 -0.021075999999999998
2410589151 1.0080770000000001 -0.022111333333333334
2412070082 1.0128059999999999 -0.025325
2413551013 1.015836 -0.02402333333333333
2415031944 1.0119743333333333 -0.026417
2416512875 1.0145716666666664 -0.025168333333333334
2417993806 1.010951333333333 -0.028606666666666662
2419474737 1.0099136666666666 -0.027191333333333335
2420955668 1.0101486666666664 -0.030588000000000004
2422436599 1.0106259999999998 -0.025001
2423917530 1.0081196666666667 -0.030997666666666666
2425398461 1.0064466666666667 -0.034845
2426879392 1.0027133333333333 -0.030915666666666664
2428360323 1.0000293333333332 -0.03451066666666667
2429841254 0.9974116666666666 -0.027686666666666665
2431322185 0.9950479999999999 -0.03172033333333333
2432803116 0.9997236666666667 -0.03056733333333333
2434284047 0.9604966666666668 -0.05126633333333333
2435764978 1.0052113333333335 -0.029168666666666666
2437245909 1.0027723333333332 -0.040259666666666666
2438726840 1.0069529999999998 -0.037728
2440207771 1.0105046666666666 -0.03185399999999999
2441688702 1.0121636666666665 -0.038154999999999994
2443169633 1.0117649999999998 -0.04399166666666666
2444650564 1.0165803333333332 -0.03932566666666666
2446131495 1.0195503333333333 -0.033957666666666664
2447612426 1.0109249999999999 -0.05625133333333333
2449093357 1.0149393333333332 -0.03668766666666666
2450574288 1.0149096666666666 -0.040208999999999995
2452055219 1.0120333333333333 -0.04139399999999999
2453536150 1.0091496666666666 -0.03886233333333333
2455017081 1.0094919999999998 -0.04385299999999999
2456498012 1.0088076666666663 -0.043155
2457978943 1.0015459999999998 -0.044252
2459459874 1.0007183333333334 -0.03746833333333333
2460940805 0.9941826666666667 -0.05242633333333333
2462421736 0.9911133333333333 -0.04893733333333333
2463902667 1.0005686666666664 -0.052184666666666664
2465383598 1.0038913333333332 -0.04398633333333333
2466864529 1.0096306666666666 -0.047497
2468345460 1.0150886666666668 -0.048426000000000004
2469826391 1.0089816666666667 -0.043910000000000005
2471307322 1.0148433333333333 -0.046108666666666666
2472788253 1.0189773333333332 -0.04922966666666667
2474269184 1.0181689999999999 -0.034895999999999996
2475750115 1.0210813333333333 -0.030520666666666668
2477231046 1.0215283333333334 -0.03455433333333333
2478711977 1.0176223333333332 -0.046697999999999996
2480192908 1.0188389999999998 -0.04258766666666666
2481673839 1.0177656666666666 -0.038779999999999995
2483154770 1.0146993333333332 -0.03650133333333333
2484635701 1.0095746666666665 -0.035447
2486116632 1.009093 -0.034245
2487597563 1.0139983333333333 -0.016748
2489078494 1.0050456666666667 -0.033346
2490559425 0.9975099999999999 -0.03163666666666667
2492040356 0.994589 -0.034204
2493521287 1.002066 -0.033888666666666664
2495002218 1.0039639999999999 -0.036701333333333336
2496483149 1.0087886666666668 -0.040410999999999996
2497964080 1.0138266666666667 -0.03926333333333333
2499445011 1.010212 -0.029681
2500925942 1.016006 -0.04166566666666666
2502406873 1.0139456666666666 -0.031287999999999996
2503887804 1.0189903333333332 -0.04520933333333333
2505368735 1.0211066666666666 -0.03248933333333333
2506849666 1.020887 -0.03826333333333333
2508330597 1.023355 -0.031662666666666665
2509811528 1.0187796666666666 -0.04404966666666666
2511292459 1.0166836666666665 -0.033452333333333334
2512773390 1.0141559999999998 -0.042103666666666664
2514254321 1.0184113333333333 -0.029736666666666665
2515735252 1.0099106666666666 -0.04404366666666666
2517216183 1.0074480000000001 -0.03317833333333334
2518697114 1.0029503333333332 -0.045342999999999994
2520178045 1.0015329999999998 -0.03262166666666667
2521658976 0.9973213333333333 -0.046062
2523139907 1.0024746666666666 -0.032150333333333336
2524620838 1.0043160000000002 -0.048388
2526101769 1.012696 -0.033689
2527582700 1.0079216666666666 -0.047385
2529063631 1.0154446666666666 -0.04129533333333333
2530544562 1.0100963333333333 -0.049236
2532025493 1.0151063333333332 -0.035139
2533506424 1.0186786666666667 -0.048444
2534987355 1.0195796666666666 -0.03735333333333333
2536468286 1.0169833333333334 -0.04603966666666666
2537949217 1.0183846666666665 -0.036615666666666664
2539430148 1.019641 -0.050191999999999994
2540911079 1.0174703333333333 -0.036331333333333334
2542392010 1.0156990000000001 -0.047718666666666666
2543872941 1.0105056666666665 -0.03275733333333333
2545353872 1.0081030000000002 -0.041365
2546834803 1.0064223333333333 -0.03202466666666666
2548315734 1.0002443333333333 -0.04141633333333333
2549796665 0.9980803333333332 -0.03362166666666666
2551277596 0.9917583333333333 -0.04267566666666667
2552758527 0.9940633333333333 -0.03215433333333333
2554239458 0.9984933333333333 -0.03917333333333333
2555720389 1.0048613333333334 -0.039854
2557201320 1.0056816666666664 -0.038485
2558682251 1.0059613333333335 -0.03928166666666666
2560163182 1.0077936666666665 -0.03990166666666667
2561644113 1.0086613333333332 -0.043531333333333325
2563125044 1.0118573333333332 -0.04051266666666667
2564605975 1.0115436666666664 -0.039412
2566086906 1.0121983333333333 -0.04035233333333333
2567567837 1.0115493333333332 -0.042693666666666664
2569048768 1.009108 -0.041550000000000004
2570529699 1.0101753333333332 -0.035900999999999995
2572010630 1.009259333333333 -0.043374
2573491561 0.9994403333333333 -0.04398966666666666
2574972492 1.0092513333333333 -0.022682666666666663
2576453423 1.0092996666666667 -0.025121666666666667
2577934354 1.0036889999999998 -0.027376666666666667
2579415285 1.0020853333333333 -0.02569166666666666
2580896216 0.9904979999999999 -0.04090266666666667
2582377147 0.9930276666666666 -0.044157666666666665
2583858078 0.9963479999999999 -0.04206766666666667
2585339009 0.9986453333333333 -0.042862333333333336
2586819940 1.0027099999999998 -0.046247333333333335
2588300871 1.0038823333333333 -0.044467999999999994
2589781802 1.0051513333333333 -0.047052333333333335
2591262733 1.0060440000000002 -0.05021233333333333
2592743664 1.0098696666666664 -0.04002499999999999
2594224595 1.0078383333333334 -0.04997833333333333
2595705526 1.0074793333333334 -0.04613766666666667
2597186457 1.0101366666666665 -0.037752999999999995
2598667388 1.0092493333333332 -0.045481666666666656
2600148319 1.0045923333333333 -0.04754699999999999
2601629250 1.005464 -0.04492333333333333
2603110181 1.0057803333333333 -0.04224733333333334
2604591112 1.0020376666666666 -0.041191
2606072043 1.0007246666666667 -0.037064
2607552974 0.9987736666666667 -0.043045
2609033905 0.9947553333333332 -0.04547933333333333
2610514836 0.9886029999999999 -0.04582833333333333
2611995767 0.9876553333333332 -0.04274599999999999
2613476698 0.9958146666666666 -0.039094
2614957629 0.9956713333333332 -0.04459066666666667
2616438560 0.9968566666666666 -0.04577699999999999
2617919491 0.9997870000000001 -0.053377999999999995
2619400422 1.0023256666666667 -0.04413433333333333
2620881353 1.0014106666666667 -0.04894066666666667
2622362284 1.004383 -0.045651000000000004
2623843215 1.0079556666666667 -0.041127333333333335
2625324146 1.0073413333333332 -0.035759
2626805077 1.0072153333333334 -0.040235
2628286008 1.0058893333333334 -0.040010333333333335
2629766939 1.0082156666666666 -0.04134966666666666
2631247870 1.0016943333333332 -0.043325
2632728801 1.0014556666666667 -0.039108000000000004
2634209732 1.0011173333333332 -0.03960066666666666
2635690663 0.9978273333333332 -0.04301066666666667
2637171594 0.996394 -0.04252999999999999
2638652525 0.9893693333333333 -0.041556666666666665
2640133456 0.9852063333333333 -0.041267
2641614387 0.9856446666666666 -0.045748333333333335
2643095318 0.9895909999999999 -0.04171266666666666
2644576249 0.9898676666666667 -0.04170666666666667
2646057180 0.9978560000000001 -0.04291033333333333
2647538111 0.9982149999999999 -0.039932999999999996
2649019042 0.9981969999999999 -0.04302566666666666
2650499973 1.004951333333333 -0.038642666666666665
2651980904 1.0103273333333331 -0.04364733333333333
2653461835 0.9982243333333334 -0.04684666666666666
2654942766 1.008487333333333 -0.043635999999999994
2656423697 1.0105186666666666 -0.03858133333333333
2657904628 1.0097023333333333 -0.03569433333333333
2659385559 1.008824 -0.04028466666666666
2660866490 1.007662 -0.04083766666666666
2662347421 1.0012303333333332 -0.044215333333333336
2663828352 1.006762 -0.04308066666666666
2665309283 1.0050683333333332 -0.042654
2666790214 0.9995613333333333 -0.03763899999999999
2668271145 0.9953043333333333 -0.042678666666666656
2669752076 0.9969086666666667 -0.036278
2671233007 0.9896573333333333 -0.040655000000000004
2672713938 0.995449 -0.04165933333333333
2674194869 0.9957493333333332 -0.04143566666666666
2675675800 1.0031476666666665 -0.040745
2677156731 1.000183 -0.046099666666666664
2678637662 1.0069526666666666 -0.04452533333333333
2680118593 1.0064903333333333 -0.042453
2681599524 1.0040116666666665 -0.035094
2683080455 1.0028169999999998 -0.042757
2684561386 1.012006 -0.043527333333333335
2686042317 1.008776 -0.036657999999999996
2687523248 1.0089259999999998 -0.03457866666666666
2689004179 1.0058443333333333 -0.03816833333333333
2690485110 1.005855 -0.036324333333333333
2691966041 1.0052843333333332 -0.037664666666666666
2693446972 1.0017576666666665 -0.03968933333333333
2694927903 1.004638 -0.043699999999999996
2696408834 0.9958373333333334 -0.038968
2697889765 0.9962436666666666 -0.044061666666666666
2699370696 0.990075 -0.03571833333333333
2700851627 0.9929763333333332 -0.036345999999999996
2702332558 0.988834 -0.036949666666666665
2703813489 0.9921499999999999 -0.04300233333333332
2705294420 0.9889203333333333 -0.047264
2706775351 0.9929209999999999 -0.04618533333333333
2708256282 0.9977983333333333 -0.04474233333333333
2709737213 1.0024893333333331 -0.04606966666666666
2711218144 1.0021533333333332 -0.046717666666666664
2712699075 0.9963016666666666 -0.05095
2714180006 1.0028249999999999 -0.044519
2715660937 0.9995343333333333 -0.04659666666666666
2717141868 1.0009126666666666 -0.045801999999999995
2718622799 0.9935776666666666 -0.04638233333333333
2720103730 0.9936446666666666 -0.05021833333333332
2721584661 0.9887913333333334 -0.049647
2723065592 0.9876616666666665 -0.052745999999999994
2724546523 0.9828063333333332 -0.05887099999999999
2726027454 0.9948039999999999 -0.046906666666666666
2727508385 0.9773929999999998 -0.054694333333333324
2728989316 0.9680019999999999 -0.060658666666666666
2730470247 0.9682343333333332 -0.05721633333333333
2731951178 0.9711069999999999 -0.05876033333333333
2733432109 0.9952243333333334 -0.04666766666666666
2734913040 0.980739 -0.061453999999999995
2736393971 0.9830923333333332 -0.05958233333333333
2737874902 0.9895956666666665 -0.05544233333333333
2739355833 0.9909839999999999 -0.05886966666666667
2740836764 0.9912166666666666 -0.060903
2742317695 0.988505 -0.06359366666666666
2743798626 0.9865083333333333 -0.06475533333333333
2745279557 0.9937416666666667 -0.066036
2746760488 0.9986583333333332 -0.05024066666666666
2748241419 0.998901 -0.05625333333333333
2749722350 0.995979 -0.056457999999999994
2751203281 0.9952716666666666 -0.05812866666666667
2752684212 0.9979593333333333 -0.053101999999999996
2754165143 0.9894523333333332 -0.05558866666666666
2755646074 0.9907943333333332 -0.05458833333333333
2757127005 0.9874509999999999 -0.055496000000000004
2758607936 0.9866219999999999 -0.056546
2760088867 0.9813696666666667 -0.05779566666666667
2761569798 0.9820736666666666 -0.054515666666666664
2763050729 0.9872153333333333 -0.05315199999999999
2764531660 0.9904493333333333 -0.053335999999999995
2766012591 0.9949679999999999 -0.058268
2767493522 0.997438 -0.06155366666666666
2768974453 1.0021149999999999 -0.04971066666666667
2770455384 1.0004426666666666 -0.05972533333333333
2771936315 1.004077 -0.051725
2773417246 1.0541399999999999 -0.05062833333333333
2774898177 1.0052036666666666 -0.05178733333333333
2776379108 1.000413 -0.058982999999999994
2777860039 1.0019046666666667 -0.05228233333333333
2779340970 1.0098386666666666 -0.04970666666666666
2780821901 1.004057 -0.054462666666666666
2782302832 1.0042883333333332 -0.04728433333333333
2783783763 0.9997133333333333 -0.05177166666666666
2785264694 1.0034016666666665 -0.04452266666666667
2786745625 0.9986036666666667 -0.04886866666666667
2788226556 0.9977783333333333 -0.041284666666666664
2789707487 0.9929073333333333 -0.038575333333333336
2791188418 0.9896916666666666 -0.045953
2792669349 0.993838 -0.050992666666666665
2794150280 0.9992996666666666 -0.04628933333333333
2795631211 1.0010326666666667 -0.04837733333333333
2797112142 1.0017559999999999 -0.04928433333333333
2798593073 1.0109683333333335 -0.051664666666666664
2800074004 1.0133933333333334 -0.052887666666666666
2801554935 1.0191916666666665 -0.042945333333333335
2803035866 1.0207496666666667 -0.035057
2804516797 1.021399333333333 -0.04033833333333334
2805997728 1.0190036666666666 -0.047304
2807478659 1.0207966666666666 -0.036334000000000005
2808959590 1.0221899999999997 -0.04439099999999999
2810440521 1.0201166666666666 -0.03866533333333333
2811921452 1.0217546666666668 -0.024886
2813402383 1.0155539999999998 -0.03652833333333333
2814883314 1.0110886666666667 -0.030986
2816364245 1.0115276666666666 -0.029335
2817845176 1.0085363333333333 -0.032480999999999996
2819326107 0.9989909999999999 -0.02447833333333333
2820807038 0.9937076666666667 -0.040961
2822287969 0.9997910000000001 -0.037205333333333326
2823768900 1.0070816666666667 -0.042723
2825249831 1.0092683333333332 -0.04010166666666666
2826730762 1.0148826666666666 -0.04645633333333333
2828211693 1.0111273333333333 -0.051741666666666665
2829692624 1.0081286666666667 -0.049423
2831173555 1.005518 -0.055099333333333333
2832654486 1.0154296666666665 -0.047164333333333336
2834135417 1.0161833333333332 -0.049137333333333325
2835616348 1.0137103333333333 -0.050877000000000006
2837097279 1.011277 -0.056487333333333334
2838578210 1.0170586666666666 -0.06324666666666667
2840059141 1.0118876666666665 -0.05756999999999999
2841540072 1.0063913333333334 -0.045941333333333334
2843021003 1.009519 -0.06457866666666666
2844501934 1.0033559999999997 -0.05735166666666667
2845982865 1.000391 -0.055292999999999995
2847463796 0.9975373333333334 -0.06726833333333332
2848944727 0.9896373333333333 -0.06764533333333334
2850425658 0.9840353333333334 -0.06510966666666665
2851906589 0.9882696666666666 -0.053383
2853387520 0.9923333333333333 -0.06883433333333333
2854868451 0.9992469999999998 -0.067802
2856349382 0.9929456666666666 -0.06523000000000001
2857830313 0.9966286666666667 -0.05785566666666667
2859311244 1.0051633333333334 -0.06957466666666665
2860792175 0.9756173333333333 -0.060761333333333334
2862273106 1.0066009999999999 -0.068572
2863754037 1.005122 -0.070628
2865234968 1.010495 -0.07275833333333334
2866715899 1.0000353333333332 -0.061849333333333326
2868196830 1.0074226666666668 -0.072291
2869677761 1.0033369999999997 -0.07133933333333332
2871158692 1.0599963333333333 -0.08992966666666664
2872639623 1.0004976666666665 -0.06596166666666667
2874120554 0.9963093333333332 -0.06402766666666666
2875601485 0.989922 -0.06255566666666666
2877082416 0.9918109999999999 -0.061609666666666674
2878563347 0.9845439999999999 -0.050686999999999996
2880044278 0.9826836666666666 -0.063266
2881525209 0.9836583333333333 -0.06282766666666667
2883006140 0.9281409999999999 -0.053908333333333336
2884487071 0.9983146666666667 -0.069189
2885968002 0.9962246666666666 -0.06313099999999999
2887448933 1.0007023333333334 -0.06514633333333332
2888929864 1.008839 -0.06950799999999999
2890410795 1.006997333333333 -0.056363333333333335
2891891726 1.0080096666666667 -0.066924
2893372657 1.0055556666666665 -0.05590233333333333
2894853588 1.0076389999999997 -0.05631866666666666
2896334519 1.0056826666666665 -0.05901133333333333
2897815450 1.0045979999999999 -0.04889933333333333
2899296381 1.0060166666666666 -0.050152333333333333
2900777312 1.0027703333333333 -0.05306066666666666
2902258243 1.0032753333333333 -0.04656133333333333
2903739174 1.0055496666666666 -0.04797533333333333
2905220105 1.0000539999999998 -0.045031
2906701036 0.9970486666666667 -0.04690133333333333
2908181967 0.9905139999999999 -0.04307233333333333
2909662898 0.9857959999999999 -0.043622333333333325
2911143829 0.9864346666666666 -0.035878
2912624760 0.9973719999999999 -0.046821666666666664
2914105691 0.992377 -0.04349466666666666
2915586622 0.9965303333333333 -0.048088
2917067553 0.9972433333333333 -0.04063033333333333
2918548484 1.0012783333333333 -0.050298333333333334
2920029415 1.0004106666666666 -0.04559933333333333
2921510346 1.0007766666666664 -0.051209333333333336
2922991277 1.0042793333333333 -0.054404999999999995
2924472208 0.9720153333333332 -0.08546233333333333
2925953139 0.9991073333333333 -0.04965699999999999
2927434070 1.0015026666666664 -0.046263
2928915001 0.9940946666666666 -0.05526133333333333
2930395932 0.9979833333333334 -0.051955
2931876863 0.9937256666666665 -0.04626133333333333
2933357794 0.992263 -0.05761966666666666
2934838725 0.991147 -0.04754699999999999
2936319656 0.9876856666666667 -0.05403733333333333
2937800587 0.9862946666666668 -0.052824333333333334
2939281518 0.9810559999999999 -0.05300466666666666
2940762449 0.978373 -0.05185033333333333
2942243380 0.9828786666666667 -0.06145133333333334
2943724311 0.9865143333333333 -0.05423633333333333
2945205242 0.9898536666666665 -0.060053
2946686173 0.9924926666666667 -0.06424333333333332
2948167104 0.9946866666666666 -0.054368
2949648035 0.9952426666666666 -0.056432666666666666
2951128966 0.9984696666666668 -0.057532
2952609897 1.0012726666666665 -0.05477966666666667
2954090828 1.0041733333333331 -0.05399233333333334
2955571759 1.0028783333333333 -0.05532033333333333
2957052690 1.0023476666666666 -0.055418999999999996
2958533621 1.0041526666666665 -0.055936999999999994
2960014552 1.0063403333333332 -0.049335
2961495483 1.0020703333333332 -0.05480666666666667
2962976414 0.9947046666666666 -0.05077466666666667
2964457345 0.9941803333333334 -0.047063999999999995
2965938276 0.9907696666666667 -0.044492000000000004
2967419207 0.9848173333333332 -0.04619933333333333
2968900138 0.98826 -0.040889666666666664
2970381069 0.9826269999999999 -0.04546833333333333
2971862000 0.9866193333333332 -0.046603000000000006
2973342931 0.9886753333333332 -0.04161033333333333
2974823862 0.9921596666666666 -0.052317666666666665
2976304793 0.9979193333333334 -0.045506
2977785724 0.9967433333333334 -0.048328666666666666
2979266655 0.9989913333333332 -0.048883666666666666
2980747586 1.0024583333333332 -0.05220666666666666
2982228517 0.9996713333333332 -0.05318099999999999
2983709448 1.0044026666666666 -0.04864533333333333
2985190379 1.0022256666666665 -0.050325999999999996
2986671310 1.0021823333333333 -0.056147333333333334
2988152241 1.0018783333333334 -0.05224266666666666
2989633172 0.9998619999999999 -0.052463666666666665
2991114103 0.9982479999999999 -0.04903566666666667
2992595034 0.9978186666666666 -0.04309166666666667
2994075965 0.9959116666666665 -0.04509833333333333
2995556896 0.9930206666666666 -0.044169
2997037827 0.9895796666666667 -0.04723333333333333
2998518758 0.9860853333333333 -0.047702
2999999689 0.985706 -0.04490766666666666
