# HZ S RI R 50
10000 1.014479 -0.10620133333333333
1495879 0.7991280000000001 1.2632946666666667
2981758 0.5778406666666666 0.6888123333333334
4467637 0.5811623333333333 0.32669133333333333
5953516 0.6509303333333333 0.13729900000000003
7439395 0.7435893333333333 0.011961666666666667
8925274 1.0580593333333335 -0.06097
10411153 1.0964393333333333 0.03788233333333333
11897032 1.0836803333333334 0.168816
13382911 1.0153553333333334 0.29122366666666666
14868790 0.9123143333333333 0.377636
16354669 0.8005023333333333 0.4231563333333333
17840548 0.696649 0.43692233333333336
19326427 0.6082736666666666 0.429813
20812306 0.5356753333333334 0.4113003333333333
22298185 0.4768676666666667 0.38733866666666666
23784064 0.429883 0.361342
25269943 0.3914746666666667 0.335543
26755822 0.36049133333333333 0.310733
28241701 0.33451533333333333 0.28712133333333334
29727580 0.31272733333333336 0.26555966666666664
31213459 0.3229876666666667 0.24998733333333334
32699338 0.3396063333333333 0.2353086666666667
34185217 0.3542626666666666 0.22152966666666665
35671096 0.36958866666666673 0.20526033333333335
37156975 0.38460099999999997 0.18629833333333332
38642854 0.3984563333333333 0.16953700000000002
40128733 0.412807 0.14665566666666666
41614612 0.425279 0.13436900000000002
43100491 0.438398 0.11226533333333333
44586370 0.45141400000000004 0.09375966666666667
46072249 0.4646773333333334 0.06977333333333334
47558128 0.47920366666666664 0.05497766666666667
49044007 0.4953103333333333 0.03560166666666666
50529886 0.5140603333333333 0.020290000000000002
52015765 0.535611 -0.009847333333333333
53501644 0.564094 -0.02889833333333333
54987523 0.6018983333333333 -0.055205666666666674
56473402 0.6542406666666667 -0.09445666666666667
57959281 0.7416293333333334 -0.11338433333333332
59445160 0.9006959999999999 -0.09807733333333334
60931039 0.996306 -0.071393
62416918 0.999491 -0.081485
63902797 1.0027350000000002 -0.091181
65388676 1.0043846666666667 -0.10135433333333334
66874555 1.0067076666666666 -0.09763133333333333
68360434 0.9983380000000001 -0.18290466666666663
69846313 1.0122416666666665 -0.07767533333333333
71332192 1.0135346666666667 -0.07289166666666667
72818071 1.0110136666666667 -0.11796000000000001
74303950 1.0128093333333335 -0.10993599999999999
75789829 1.0168266666666668 -0.04310266666666667
77275708 1.0157333333333334 -0.052001
78761587 1.0157073333333333 -0.04636200000000001
80247466 1.0036906666666665 -0.16385233333333335
81733345 1.0077643333333333 -0.11676033333333334
83219224 1.00492 -0.12839866666666666
84705103 0.9993026666666668 -0.15413866666666665
86190982 1.0050566666666667 -0.03018533333333333
87676861 0.9930683333333333 -0.147191
89162740 0.9919753333333334 -0.122151
90648619 0.9884373333333333 -0.14122566666666667
92134498 0.9922713333333334 -0.13943966666666666
93620377 0.9987646666666666 -0.10835366666666667
95106256 0.9983813333333332 -0.13737033333333334
96592135 1.001076 -0.13677566666666666
98078014 1.0042126666666666 -0.13289633333333334
99563893 1.0058276666666666 -0.13063433333333332
101049772 1.006292 -0.14473133333333332
102535651 1.0052966666666665 -0.14601733333333333
104021530 1.0060883333333333 -0.14827333333333334
105507409 1.0054633333333332 -0.14979033333333333
106993288 1.0047366666666664 -0.150753
108479167 1.0031663333333334 -0.15336566666666665
109965046 1.0024430000000002 -0.15270033333333335
111450925 1.0006273333333333 -0.1668913333333333
112936804 0.9985900000000001 -0.15701766666666664
114422683 0.9955766666666667 -0.15784366666666666
115908562 0.992215 -0.15732466666666667
117394441 0.9888763333333334 -0.159651
118880320 0.9858949999999999 -0.16030033333333335
120366199 0.9831783333333334 -0.16208799999999998
121852078 0.987353 -0.165805
123337957 0.9910783333333333 -0.16832233333333332
124823836 0.9939533333333332 -0.17110566666666668
126309715 0.9965303333333333 -0.17363133333333333
127795594 0.9993259999999999 -0.18174800000000002
129281473 1.0025126666666668 -0.17856166666666665
130767352 1.0038040000000001 -0.179642
132253231 1.0059063333333333 -0.18215599999999998
133739110 1.0076346666666667 -0.18205033333333331
135224989 0.9901516666666668 -0.19402299999999997
136710868 0.9909013333333334 -0.19509966666666667
138196747 0.9901023333333333 -0.19649166666666665
139682626 0.9891753333333334 -0.19820300000000002
141168505 0.9934119999999999 -0.18032
142654384 0.9869703333333333 -0.20076400000000003
144140263 0.985464 -0.20078533333333334
145626142 0.982186 -0.20132366666666668
147112021 0.9802833333333334 -0.20205233333333336
148597900 0.9723316666666667 -0.21550566666666668
150083779 0.9736509999999999 -0.2042203333333333
151569658 0.9761853333333333 -0.20750833333333332
153055537 0.9792353333333333 -0.20910366666666666
154541416 0.981932 -0.21216566666666667
156027295 0.9838100000000001 -0.21457133333333334
157513174 0.9853096666666668 -0.217244
158999053 0.9867686666666667 -0.218503
160484932 0.9872726666666667 -0.2204276666666667
161970811 0.9882696666666666 -0.22243766666666667
163456690 0.988724 -0.22394233333333333
164942569 0.9878969999999999 -0.225541
166428448 0.9880909999999999 -0.226975
167914327 0.986733 -0.22908333333333333
169400206 0.9847670000000001 -0.230034
170886085 0.9831343333333334 -0.2326153333333333
172371964 0.9810690000000001 -0.23371733333333333
173857843 0.9791569999999999 -0.23520533333333335
175343722 0.9755520000000001 -0.237216
176829601 0.9726036666666666 -0.23708433333333334
178315480 0.9678623333333333 -0.23954566666666666
179801359 0.9635416666666666 -0.24080833333333332
181287238 0.9662316666666667 -0.24382133333333333
182773117 0.9694246666666667 -0.24686433333333335
184258996 0.9718866666666667 -0.2486543333333333
185744875 0.9739656666666666 -0.25118
187230754 0.9764753333333335 -0.2530673333333333
188716633 0.9778173333333333 -0.2561273333333333
190202512 0.9788306666666666 -0.257538
191688391 0.9794053333333333 -0.2594636666666667
193174270 0.979483 -0.2615713333333334
194660149 0.979899 -0.26338
196146028 0.9787013333333333 -0.26489866666666667
197631907 0.977664 -0.26627633333333334
199117786 0.9765406666666667 -0.26807699999999995
200603665 0.9743486666666666 -0.2698293333333333
202089544 0.9720020000000001 -0.27134766666666665
203575423 0.9688343333333332 -0.2726536666666667
205061302 0.9654496666666667 -0.274508
206547181 0.9613983333333334 -0.276535
208033060 0.9575779999999999 -0.2783936666666667
209518939 0.9535026666666666 -0.2796013333333333
211004818 0.9544686666666667 -0.2826836666666667
212490697 0.9572823333333332 -0.28516733333333333
213976576 0.9601253333333334 -0.287757
215462455 0.962106 -0.29033766666666666
216948334 0.964823 -0.2924603333333333
218434213 0.9664813333333333 -0.2953453333333333
219920092 0.9675766666666666 -0.2976166666666667
221405971 0.9685666666666667 -0.29859833333333335
222891850 0.9683453333333333 -0.300939
224377729 0.9686126666666667 -0.30281033333333335
225863608 0.9666546666666666 -0.3040443333333333
227349487 0.9658783333333334 -0.3055476666666666
228835366 0.9649800000000001 -0.307082
230321245 0.9626863333333334 -0.3085873333333333
231807124 0.960019 -0.30937
233293003 0.9569843333333333 -0.31154299999999996
234778882 0.953843 -0.31266066666666664
236264761 0.9492653333333333 -0.3144726666666666
237750640 0.9450716666666666 -0.3159746666666667
239236519 0.9401999999999999 -0.3176423333333333
240722398 0.9392773333333334 -0.32049599999999995
242208277 0.9433006666666666 -0.3235863333333333
243694156 0.945729 -0.32650799999999996
245180035 0.9488519999999999 -0.32860533333333336
246665914 0.9509176666666667 -0.331876
248151793 0.952543 -0.33393566666666663
249637672 0.9533523333333335 -0.335952
251123551 0.9549536666666668 -0.33760166666666663
252609430 0.955714 -0.33904666666666666
254095309 0.9550786666666667 -0.34100400000000003
255581188 0.9546979999999999 -0.343301
257067067 0.9534056666666667 -0.3446453333333334
258552946 0.9512513333333333 -0.345461
260038825 0.9493993333333334 -0.34705199999999997
261524704 0.946241 -0.34761233333333336
263010583 0.9429856666666666 -0.34950566666666666
264496462 0.9388893333333334 -0.350551
265982341 0.9348663333333334 -0.35101166666666667
267468220 0.9306643333333334 -0.352145
268954099 0.924786 -0.35411299999999996
270439978 0.9222693333333334 -0.3561176666666667
271925857 0.925287 -0.36047133333333337
273411736 0.9290946666666667 -0.3626686666666667
274897615 0.9318063333333334 -0.366227
276383494 0.9344266666666666 -0.3694806666666666
277869373 0.9370600000000001 -0.37196466666666667
279355252 0.9372293333333332 -0.3745483333333333
280841131 0.9383096666666666 -0.3765353333333333
282327010 0.9391333333333334 -0.37821366666666667
283812889 0.9390473333333333 -0.3801273333333333
285298768 0.9383863333333333 -0.381084
286784647 0.9371473333333332 -0.38282866666666665
288270526 0.9357573333333334 -0.38378033333333333
289756405 0.9329283333333334 -0.3859776666666666
291242284 0.9306890000000001 -0.3862663333333334
292728163 0.9292183333333334 -0.38704500000000003
294214042 0.9236303333333334 -0.38839533333333326
295699921 0.9194446666666667 -0.3898106666666667
297185800 0.9145523333333333 -0.38993666666666665
298671679 0.9096513333333333 -0.3903216666666667
300157558 0.9057483333333334 -0.3910626666666667
301643437 0.9080396666666667 -0.39566666666666667
303129316 0.9112616666666667 -0.39974166666666666
304615195 0.9139550000000001 -0.4028116666666666
306101074 0.9162996666666667 -0.407311
307586953 0.9182826666666667 -0.40976366666666664
309072832 0.9205796666666668 -0.4121873333333334
310558711 0.9213166666666667 -0.41458
312044590 0.9220183333333333 -0.4151933333333333
313530469 0.9208806666666666 -0.4175803333333333
315016348 0.9209966666666668 -0.418674
316502227 0.9207356666666667 -0.419491
317988106 0.9181763333333333 -0.4212956666666667
319473985 0.9158103333333333 -0.42233600000000004
320959864 0.9141943333333332 -0.42219500000000004
322445743 0.910351 -0.42235200000000006
323931622 0.9068616666666668 -0.423805
325417501 0.902802 -0.42378566666666667
326903380 0.8980480000000001 -0.42342199999999997
328389259 0.8928213333333334 -0.424398
329875138 0.8881053333333333 -0.424359
331361017 0.887579 -0.43206833333333333
332846896 0.8888586666666667 -0.437308
334332775 0.8915346666666665 -0.44025033333333335
335818654 0.8919406666666667 -0.44437366666666667
337304533 0.8943463333333334 -0.4473586666666667
338790412 0.8948429999999999 -0.4509283333333333
340276291 0.8952676666666667 -0.452514
341762170 0.8956136666666666 -0.4547476666666666
343248049 0.895492 -0.45590166666666665
344733928 0.8955746666666666 -0.45783100000000004
346219807 0.8932183333333334 -0.4602286666666667
347705686 0.8910589999999999 -0.46097666666666665
349191565 0.8888623333333333 -0.462645
350677444 0.8871196666666666 -0.4619506666666667
352163323 0.883823 -0.4629586666666667
353649202 0.8799233333333335 -0.46231133333333335
355135081 0.879378 -0.4584456666666667
356620960 0.8718083333333334 -0.461539
358106839 0.8698356666666666 -0.4580376666666666
359592718 0.860074 -0.46261599999999997
361078597 0.8652553333333334 -0.46175733333333335
362564476 0.8639199999999999 -0.4693426666666667
364050355 0.8690963333333334 -0.4690796666666666
365536234 0.867663 -0.477146
367022113 0.8716400000000001 -0.47703366666666663
368507992 0.8703933333333334 -0.48302500000000004
369993871 0.873771 -0.4813523333333333
371479750 0.8707790000000001 -0.48794466666666664
372965629 0.8743956666666666 -0.4861676666666667
374451508 0.8699186666666666 -0.49162833333333333
375937387 0.8730113333333334 -0.48861299999999996
377423266 0.8683493333333333 -0.494329
378909145 0.8700076666666666 -0.489778
380395024 0.864521 -0.49474100000000004
381880903 0.8650233333333333 -0.48995733333333336
383366782 0.8586883333333333 -0.49495400000000006
384852661 0.8584893333333333 -0.48963
386338540 0.8512003333333333 -0.49504566666666666
387824419 0.8509666666666668 -0.488833
389310298 0.8413773333333333 -0.49368900000000004
390796177 0.8443483333333334 -0.49063233333333334
392282056 0.8431859999999999 -0.49967133333333336
393767935 0.8472676666666666 -0.49919033333333335
395253814 0.8465193333333332 -0.5065296666666667
396739693 0.8504793333333334 -0.5048806666666666
398225572 0.8515796666666667 -0.5085623333333333
399711451 0.8520953333333333 -0.5109353333333333
401197330 0.8526593333333334 -0.5134853333333333
402683209 0.8521863333333334 -0.5156333333333333
404169088 0.8518659999999999 -0.5167346666666667
405654967 0.8506413333333334 -0.517681
407140846 0.8509526666666667 -0.5184070000000001
408626725 0.8482119999999999 -0.5190766666666667
410112604 0.8465570000000001 -0.5193976666666668
411598483 0.8438676666666667 -0.519974
413084362 0.8411273333333332 -0.51964
414570241 0.838171 -0.5189106666666666
416056120 0.8347256666666666 -0.5185766666666667
417541999 0.829938 -0.5181963333333334
419027878 0.8251093333333334 -0.5167486666666666
420513757 0.8229373333333333 -0.51813
421999636 0.823792 -0.52317
423485515 0.8259446666666665 -0.5267033333333333
424971394 0.8276606666666666 -0.5294846666666667
426457273 0.8267066666666668 -0.5331359999999999
427943152 0.8286426666666666 -0.535844
429429031 0.8289856666666666 -0.5392769999999999
430914910 0.8287866666666667 -0.540885
432400789 0.8293400000000001 -0.5428499999999999
433886668 0.8283606666666666 -0.545049
435372547 0.8270533333333333 -0.546253
436858426 0.8257246666666666 -0.5481429999999999
438344305 0.8246136666666667 -0.5485436666666667
439830184 0.8209753333333333 -0.54945
441316063 0.8189163333333332 -0.5492023333333333
442801942 0.8170320000000001 -0.5482459999999999
444287821 0.813139 -0.5494433333333333
445773700 0.8108270000000001 -0.5488506666666666
447259579 0.8059743333333333 -0.5487576666666667
448745458 0.802064 -0.5473563333333334
450231337 0.7980706666666668 -0.547362
451717216 0.8005353333333334 -0.5514979999999999
453203095 0.8014236666666666 -0.555231
454688974 0.8014100000000001 -0.5577736666666667
456174853 0.8046293333333333 -0.5605319999999999
457660732 0.8048893333333332 -0.5638433333333334
459146611 0.8054146666666666 -0.5658110000000001
460632490 0.8045270000000001 -0.5687463333333334
462118369 0.8043986666666667 -0.5694153333333333
463604248 0.8057979999999999 -0.5707976666666666
465090127 0.8040193333333333 -0.5724973333333333
466576006 0.8022966666666665 -0.5733326666666666
468061885 0.8011940000000001 -0.5740026666666666
469547764 0.7991419999999999 -0.5738676666666667
471033643 0.7968616666666666 -0.573802
472519522 0.7944396666666668 -0.5737800000000001
474005401 0.7912423333333334 -0.5726429999999999
475491280 0.78764 -0.572534
476977159 0.7839510000000001 -0.572638
478463038 0.7793233333333333 -0.5704750000000001
479948917 0.7745093333333332 -0.5693986666666667
481434796 0.7343356666666666 -0.5651723333333334
482920675 0.7780566666666667 -0.5777803333333332
484406554 0.7792146666666667 -0.580819
485892433 0.7801793333333334 -0.5849009999999999
487378312 0.7818256666666666 -0.5871086666666666
488864191 0.7822203333333334 -0.5901333333333333
490350070 0.7824156666666667 -0.591669
491835949 0.7824716666666666 -0.5933123333333333
493321828 0.782325 -0.595078
494807707 0.7808756666666666 -0.5961690000000001
496293586 0.7801866666666667 -0.5960086666666666
497779465 0.7792676666666667 -0.5980913333333334
499265344 0.7774519999999999 -0.5973856666666667
500751223 0.7747273333333333 -0.5979913333333332
502237102 0.7722793333333332 -0.5973839999999999
503722981 0.7692826666666667 -0.5968559999999999
505208860 0.7661203333333333 -0.5964466666666667
506694739 0.7622833333333334 -0.5962606666666667
508180618 0.7584576666666667 -0.5954416666666666
509666497 0.7529813333333334 -0.5941506666666667
511152376 0.752948 -0.59827
512638255 0.7546233333333333 -0.601764
514124134 0.757032 -0.604951
515610013 0.7584303333333334 -0.608145
517095892 0.7592533333333332 -0.611194
518581771 0.7609906666666667 -0.6128399999999999
520067650 0.760576 -0.6165379999999999
521553529 0.7597243333333333 -0.618345
523039408 0.7592409999999999 -0.6177023333333334
524525287 0.759618 -0.61962
526011166 0.7596210000000001 -0.619798
527497045 0.756218 -0.621789
528982924 0.7542249999999999 -0.6210836666666667
530468803 0.7522066666666666 -0.6217846666666667
531954682 0.7499026666666667 -0.6200806666666666
533440561 0.747148 -0.6211843333333333
534926440 0.74214 -0.6214006666666666
536412319 0.7387609999999999 -0.619015
537898198 0.7353343333333333 -0.6182773333333333
539384077 0.7295556666666667 -0.617646
540869956 0.7304496666666668 -0.6189966666666668
542355835 0.7310946666666666 -0.6211453333333333
543841714 0.73242 -0.6256336666666668
545327593 0.733698 -0.6281956666666667
546813472 0.7354036666666666 -0.6289083333333333
548299351 0.7374913333333333 -0.630356
549785230 0.7377163333333333 -0.6320473333333333
551271109 0.7377793333333335 -0.6327513333333333
552756988 0.7370146666666666 -0.632667
554242867 0.7367633333333333 -0.6331083333333334
555728746 0.7367750000000001 -0.6324106666666666
557214625 0.73433 -0.6322173333333333
558700504 0.733009 -0.6315093333333333
560186383 0.7295016666666666 -0.63047
561672262 0.7280396666666666 -0.6289656666666668
563158141 0.7238686666666667 -0.6274493333333333
564644020 0.7204873333333333 -0.626992
566129899 0.7173973333333333 -0.6243026666666668
567615778 0.7114646666666666 -0.6225193333333333
569101657 0.706836 -0.6195226666666667
570587536 0.7041256666666666 -0.6201136666666667
572073415 0.7040056666666668 -0.6259033333333334
573559294 0.7060493333333332 -0.6290826666666667
575045173 0.7069306666666666 -0.6345616666666667
576531052 0.7065146666666666 -0.6397283333333333
578016931 0.7061820000000001 -0.642545
579502810 0.7063533333333334 -0.6457876666666666
580988689 0.7067013333333333 -0.6482559999999999
582474568 0.7043066666666666 -0.652143
583960447 0.7039390000000001 -0.6531913333333333
585446326 0.7021830000000001 -0.6558820000000001
586932205 0.7002333333333333 -0.6569993333333333
588418084 0.6976869999999998 -0.6591813333333333
589903963 0.6959116666666668 -0.6589453333333334
591389842 0.6937566666666667 -0.6595263333333333
592875721 0.6913503333333333 -0.661137
594361600 0.6860693333333333 -0.6612776666666668
595847479 0.682848 -0.6607556666666666
597333358 0.6787153333333333 -0.660437
598819237 0.675137 -0.6594633333333334
600305116 0.670255 -0.66044
601790995 0.6765006666666666 -0.6601036666666666
603276874 0.6695393333333334 -0.6727343333333334
604762753 0.6778890000000001 -0.6688689999999999
606248632 0.6704806666666667 -0.6792116666666667
607734511 0.6788523333333334 -0.6761366666666667
609220390 0.6717939999999999 -0.6857463333333333
610706269 0.6815000000000001 -0.6806763333333333
612192148 0.6729473333333332 -0.6885956666666666
613678027 0.681817 -0.6826433333333334
615163906 0.6720386666666666 -0.6913666666666667
616649785 0.6792346666666665 -0.6851046666666667
618135664 0.6682276666666667 -0.6921933333333333
619621543 0.667515 -0.6907973333333333
621107422 0.6639973333333332 -0.6912283333333334
622593301 0.6715706666666668 -0.6844769999999999
624079180 0.6601216666666666 -0.6905243333333333
625565059 0.6669833333333334 -0.6799529999999999
627050938 0.6543863333333333 -0.6862256666666666
628536817 0.6498643333333334 -0.6848913333333334
630022696 0.6450673333333333 -0.683024
631508575 0.6476763333333334 -0.687345
632994454 0.6477136666666666 -0.6902803333333333
634480333 0.649116 -0.6943033333333334
635966212 0.6489676666666667 -0.6986403333333334
637452091 0.6495786666666666 -0.7014976666666666
638937970 0.649005 -0.7054883333333333
640423849 0.6508013333333333 -0.706319
641909728 0.654097 -0.7054063333333334
643395607 0.6539196666666667 -0.7054969999999999
644881486 0.6538533333333333 -0.7075066666666666
646367365 0.6516313333333333 -0.7073406666666666
647853244 0.6515296666666667 -0.706516
649339123 0.6500143333333334 -0.7060156666666666
650825002 0.6472976666666667 -0.706474
652310881 0.6451443333333334 -0.7042343333333333
653796760 0.642742 -0.7028406666666668
655282639 0.6406566666666667 -0.7015613333333333
656768518 0.6371093333333333 -0.7004206666666666
658254397 0.632857 -0.6966389999999999
659740276 0.628141 -0.6956183333333333
661226155 0.6287553333333332 -0.6988196666666667
662712034 0.630827 -0.7024126666666667
664197913 0.6308919999999999 -0.706584
665683792 0.6315666666666667 -0.708975
667169671 0.6313536666666667 -0.7124433333333333
668655550 0.6335343333333333 -0.7131466666666667
670141429 0.6342006666666666 -0.716854
671627308 0.6329443333333333 -0.71868
673113187 0.6329243333333333 -0.7196319999999999
674599066 0.6601713333333333 -0.715573
676084945 0.6319863333333333 -0.7204119999999999
677570824 0.632339 -0.719477
679056703 0.6298616666666667 -0.7186573333333333
680542582 0.6296339999999999 -0.7174683333333333
682028461 0.6256636666666666 -0.7179563333333333
683514340 0.62587 -0.7135793333333332
685000219 0.6227010000000001 -0.713725
686486098 0.6199493333333334 -0.7116906666666667
687971977 0.6150760000000001 -0.7097443333333334
689457856 0.6110456666666667 -0.7066556666666667
690943735 0.611093 -0.7076006666666667
692429614 0.6118016666666667 -0.712526
693915493 0.6119396666666667 -0.715907
695401372 0.611384 -0.7193693333333333
696887251 0.6121856666666666 -0.7229749999999999
698373130 0.6109503333333333 -0.7238976666666668
699859009 0.6090063333333333 -0.7262063333333333
701344888 0.6078466666666666 -0.7284079999999999
702830767 0.6067486666666667 -0.7289333333333333
704316646 0.6059496666666667 -0.7310586666666667
705802525 0.6036260000000001 -0.7316996666666666
707288404 0.6031893333333334 -0.7325576666666667
708774283 0.5997596666666668 -0.732419
710260162 0.5970270000000001 -0.7328016666666667
711746041 0.5955586666666667 -0.7321806666666667
713231920 0.5913136666666667 -0.7312150000000001
714717799 0.5914506666666667 -0.7301496666666667
716203678 0.5844143333333333 -0.7296763333333334
717689557 0.5825426666666667 -0.7266416666666666
719175436 0.5787939999999999 -0.7258736666666668
720661315 0.5750173333333334 -0.727721
722147194 0.5767656666666667 -0.7313113333333333
723633073 0.5765423333333334 -0.7337533333333334
725118952 0.5761046666666666 -0.7378859999999999
726604831 0.5766079999999999 -0.7408966666666666
728090710 0.5764856666666667 -0.7435756666666666
729576589 0.5766593333333333 -0.746121
731062468 0.5766443333333333 -0.7475273333333333
732548347 0.5762870000000001 -0.7483613333333334
734034226 0.575093 -0.7491026666666666
735520105 0.5751376666666667 -0.7495660000000001
737005984 0.5742266666666667 -0.7501369999999999
738491863 0.5711206666666667 -0.7506836666666666
739977742 0.571288 -0.7492336666666667
741463621 0.5689080000000001 -0.7487643333333333
742949500 0.5664953333333332 -0.7480106666666666
744435379 0.5634429999999999 -0.7463303333333333
745921258 0.5620279999999999 -0.7448966666666667
747407137 0.5573796666666667 -0.7431616666666666
748893016 0.5532690000000001 -0.7425486666666666
750378895 0.5523323333333333 -0.7406333333333333
751864774 0.551724 -0.7452679999999999
753350653 0.5499143333333333 -0.7472833333333333
754836532 0.5525563333333333 -0.7507023333333334
756322411 0.5534346666666666 -0.7546573333333333
757808290 0.5519780000000001 -0.7564426666666667
759294169 0.5523056666666667 -0.7588986666666666
760780048 0.553403 -0.7592913333333334
762265927 0.5520256666666666 -0.760784
763751806 0.550406 -0.7613013333333334
765237685 0.5478213333333334 -0.762665
766723564 0.546843 -0.7633716666666667
768209443 0.5440536666666667 -0.7631126666666667
769695322 0.5448013333333334 -0.7613233333333334
771181201 0.5416563333333334 -0.7608953333333334
772667080 0.5386423333333333 -0.759737
774152959 0.535679 -0.7591846666666667
775638838 0.529219 -0.7587313333333334
777124717 0.5288663333333333 -0.7550086666666666
778610596 0.5254463333333333 -0.7522443333333334
780096475 0.521078 -0.7509836666666666
781582354 0.5220813333333334 -0.7545046666666666
783068233 0.5224563333333333 -0.75934
784554112 0.524277 -0.7627646666666666
786039991 0.5254433333333334 -0.764198
787525870 0.5269716666666666 -0.767458
789011749 0.5259723333333334 -0.7699703333333333
790497628 0.526809 -0.7704883333333333
791983507 0.5262366666666667 -0.7735666666666666
793469386 0.526313 -0.7733120000000001
794955265 0.526526 -0.7727046666666667
796441144 0.5240046666666667 -0.7741813333333334
797927023 0.5230326666666666 -0.7738046666666666
799412902 0.5205416666666666 -0.7743053333333333
800898781 0.5204013333333334 -0.7718599999999999
802384660 0.5208646666666666 -0.7699896666666666
803870539 0.5160953333333334 -0.7699759999999999
805356418 0.5124996666666667 -0.7675263333333332
806842297 0.5111063333333333 -0.7643050000000001
808328176 0.5086626666666666 -0.7621223333333335
809814055 0.50375 -0.7601666666666667
811299934 0.5031556666666667 -0.762473
812785813 0.5028426666666667 -0.7664573333333333
814271692 0.5045163333333333 -0.770266
815757571 0.504754 -0.7729050000000001
817243450 0.5039243333333334 -0.7763836666666667
818729329 0.5018333333333334 -0.7805353333333334
820215208 0.503425 -0.781806
821701087 0.5031626666666668 -0.7828940000000001
823186966 0.5017076666666667 -0.7841443333333333
824672845 0.5013676666666665 -0.7846509999999999
826158724 0.49836733333333333 -0.7864760000000001
827644603 0.4980003333333333 -0.7866523333333334
829130482 0.4961706666666667 -0.784497
830616361 0.49351066666666665 -0.7859236666666666
832102240 0.4913723333333333 -0.7845976666666666
833588119 0.488052 -0.7829196666666666
835073998 0.48667400000000005 -0.7807666666666666
836559877 0.484704 -0.7790903333333333
838045756 0.4789413333333334 -0.7772579999999999
839531635 0.47516766666666665 -0.7754166666666666
841017514 0.474664 -0.7763746666666665
842503393 0.4753673333333333 -0.781845
843989272 0.4758963333333333 -0.7845103333333334
845475151 0.47522466666666663 -0.7885153333333333
846961030 0.47572666666666663 -0.7920953333333335
848446909 0.4795426666666667 -0.7915739999999999
849932788 0.474705 -0.7961776666666666
851418667 0.48049233333333335 -0.7961063333333334
852904546 0.4729613333333333 -0.7981996666666666
854390425 0.48060433333333336 -0.7952483333333333
855876304 0.4667596666666667 -0.800636
857362183 0.47616433333333336 -0.797501
858848062 0.4653833333333333 -0.8008226666666668
860333941 0.47429499999999997 -0.7959846666666667
861819820 0.46159066666666665 -0.7989006666666666
863305699 0.46906266666666663 -0.7932836666666666
864791578 0.4588663333333333 -0.794026
866277457 0.464775 -0.7878866666666666
867763336 0.4532306666666666 -0.7889326666666667
869249215 0.45924733333333334 -0.7813663333333333
870735094 0.4472826666666667 -0.7868529999999999
872220973 0.4570943333333333 -0.7865626666666667
873706852 0.44752166666666665 -0.794473
875192731 0.458024 -0.7938666666666666
876678610 0.4481366666666666 -0.8001933333333332
878164489 0.45766666666666667 -0.7997986666666667
879650368 0.4484296666666667 -0.8056003333333335
881136247 0.4564373333333333 -0.8019553333333334
882622126 0.4455636666666667 -0.8078476666666666
884108005 0.45416833333333334 -0.805316
885593884 0.44470766666666667 -0.8097566666666666
887079763 0.4541176666666667 -0.8039816666666667
888565642 0.44347833333333336 -0.8086366666666667
890051521 0.45134199999999997 -0.8030123333333333
891537400 0.4413733333333334 -0.804663
893023279 0.44745566666666664 -0.8002303333333334
894509158 0.4359766666666667 -0.8014706666666666
895995037 0.4431800000000001 -0.795477
897480916 0.436129 -0.7933116666666665
898966795 0.444596 -0.7865446666666666
900452674 0.4311486666666667 -0.790353
901938553 0.431071 -0.7937283333333335
903424432 0.43058 -0.79833
904910311 0.43034833333333333 -0.802413
906396190 0.4305456666666667 -0.8036203333333334
907882069 0.4294366666666667 -0.806226
909367948 0.428493 -0.8099169999999999
910853827 0.427077 -0.8110390000000001
912339706 0.427595 -0.8096803333333332
913825585 0.4273486666666666 -0.8110826666666666
915311464 0.4251373333333333 -0.8132496666666666
916797343 0.4254596666666666 -0.8114906666666667
918283222 0.4239716666666667 -0.8123326666666667
919769101 0.4233713333333333 -0.8117826666666668
921254980 0.42240733333333336 -0.8104203333333334
922740859 0.42094666666666664 -0.809103
924226738 0.4193 -0.805305
925712617 0.4149856666666667 -0.8039550000000001
927198496 0.4142783333333333 -0.8006823333333334
928684375 0.4088863333333333 -0.7996876666666667
930170254 0.4088133333333333 -0.793648
931656133 0.4093576666666667 -0.798756
933142012 0.4090396666666667 -0.8033813333333333
934627891 0.4078646666666666 -0.8070933333333333
936113770 0.4042333333333333 -0.8110413333333334
937599649 0.408403 -0.8119010000000001
939085528 0.4088586666666667 -0.8141986666666666
940571407 0.40729966666666667 -0.8162980000000001
942057286 0.40787866666666667 -0.8170476666666667
943543165 0.4083056666666667 -0.8191446666666667
945029044 0.4064033333333333 -0.8198420000000001
946514923 0.40856200000000004 -0.8187989999999999
948000802 0.4068 -0.818334
949486681 0.40482833333333335 -0.818555
950972560 0.404341 -0.8167556666666665
952458439 0.40469533333333335 -0.8155039999999999
953944318 0.40218899999999996 -0.8155723333333333
955430197 0.40306633333333336 -0.8118843333333333
956916076 0.39861233333333335 -0.8105720000000001
958401955 0.39650633333333335 -0.808177
959887834 0.39680133333333334 -0.8043813333333333
961373713 0.3961403333333333 -0.8068613333333333
962859592 0.3940413333333333 -0.8115296666666666
964345471 0.39388400000000007 -0.814615
965831350 0.39300766666666664 -0.8176353333333334
967317229 0.39232766666666663 -0.8183763333333335
968803108 0.3920706666666667 -0.8204103333333334
970288987 0.3925383333333334 -0.8217453333333333
971774866 0.3896566666666666 -0.8213483333333333
973260745 0.38936666666666664 -0.8253713333333333
974746624 0.3899323333333333 -0.8247553333333334
976232503 0.387745 -0.824823
977718382 0.38727400000000006 -0.8246403333333334
979204261 0.38486266666666663 -0.824304
980690140 0.38317766666666664 -0.8242240000000001
982176019 0.382349 -0.8223350000000001
983661898 0.37947333333333333 -0.8199223333333333
985147777 0.3788196666666667 -0.8190966666666667
986633656 0.37599333333333335 -0.8165153333333334
988119535 0.3727756666666666 -0.8160073333333333
989605414 0.37081400000000003 -0.8132780000000001
991091293 0.369871 -0.813848
992577172 0.3723976666666667 -0.816226
994063051 0.37084066666666665 -0.8204836666666667
995548930 0.37111 -0.8225836666666667
997034809 0.368336 -0.825557
998520688 0.36890833333333334 -0.8269656666666667
1000006567 0.36973933333333336 -0.8272499999999999
1001492446 0.3680106666666667 -0.829719
1002978325 0.3686 -0.8286026666666665
1004464204 0.3667606666666667 -0.8308093333333334
1005950083 0.36706900000000003 -0.829635
1007435962 0.366722 -0.8295196666666667
1008921841 0.36465533333333333 -0.829185
1010407720 0.36409166666666665 -0.8277583333333333
1011893599 0.3619583333333334 -0.8274533333333333
1013379478 0.36045733333333335 -0.8255876666666667
1014865357 0.3579323333333333 -0.8238123333333335
1016351236 0.35558500000000004 -0.8215813333333334
1017837115 0.353998 -0.819547
1019322994 0.3525503333333333 -0.815924
1020808873 0.34946499999999997 -0.8174253333333334
1022294752 0.34872966666666666 -0.8211689999999999
1023780631 0.3492216666666666 -0.823513
1025266510 0.35028966666666667 -0.8259996666666667
1026752389 0.34926966666666664 -0.827665
1028238268 0.350074 -0.830523
1029724147 0.3507423333333333 -0.8301210000000001
1031210026 0.34772933333333333 -0.832787
1032695905 0.34750333333333333 -0.8332273333333333
1034181784 0.346821 -0.8330616666666666
1035667663 0.34714633333333333 -0.8328923333333335
1037153542 0.34548 -0.8330246666666666
1038639421 0.34465999999999997 -0.8334396666666667
1040125300 0.34304566666666664 -0.8311413333333334
1041611179 0.342023 -0.8309266666666666
1043097058 0.3390693333333334 -0.8296899999999999
1044582937 0.3380073333333333 -0.8278663333333333
1046068816 0.33394966666666664 -0.8250700000000001
1047554695 0.33278 -0.8232533333333333
1049040574 0.32879299999999995 -0.8213626666666668
1050526453 0.32850833333333335 -0.8199783333333333
1052012332 0.32605733333333337 -0.8248626666666666
1053498211 0.32789833333333335 -0.8268283333333334
1054984090 0.32759 -0.8302986666666666
1056469969 0.327601 -0.8323883333333333
1057955848 0.3278366666666667 -0.8347633333333334
1059441727 0.32716000000000006 -0.8362096666666666
1060927606 0.3270473333333333 -0.8379943333333332
1062413485 0.326548 -0.8387319999999999
1063899364 0.32594666666666666 -0.8387166666666667
1065385243 0.32388966666666663 -0.8385543333333333
1066871122 0.32508866666666664 -0.8392263333333333
1068357001 0.3223506666666667 -0.8377669999999999
1069842880 0.3178393333333333 -0.8402959999999999
1071328759 0.32084699999999994 -0.8363176666666666
1072814638 0.3199363333333333 -0.8356616666666667
1074300517 0.315329 -0.8341249999999999
1075786396 0.3150463333333334 -0.8315523333333333
1077272275 0.336055 -0.8344006666666667
1078758154 0.307485 -0.8266856666666667
1080244033 0.306556 -0.8247783333333333
1081729912 0.30726800000000004 -0.829291
1083215791 0.308495 -0.8318666666666666
1084701670 0.30729133333333336 -0.8358413333333333
1086187549 0.30714233333333335 -0.8376956666666667
1087673428 0.3078613333333333 -0.8394486666666667
1089159307 0.307425 -0.841309
1090645186 0.3071953333333333 -0.8419816666666667
1092131065 0.30834999999999996 -0.8424796666666667
1093616944 0.30707366666666663 -0.8424626666666667
1095102823 0.307467 -0.8426853333333333
1096588702 0.30422333333333335 -0.8429530000000001
1098074581 0.3048553333333333 -0.8426273333333333
1099560460 0.30327299999999996 -0.8405306666666666
1101046339 0.30041933333333337 -0.8390036666666667
1102532218 0.300375 -0.8373466666666666
1104018097 0.297027 -0.8351093333333334
1105503976 0.29616499999999996 -0.8324106666666667
1106989855 0.29458233333333333 -0.83042
1108475734 0.290551 -0.8270526666666665
1109961613 0.2872706666666667 -0.8237903333333333
1111447492 0.28606099999999995 -0.8280903333333334
1112933371 0.28872633333333336 -0.8309479999999999
1114419250 0.2861666666666666 -0.8352620000000001
1115905129 0.289532 -0.8372616666666666
1117391008 0.2882996666666667 -0.840429
1118876887 0.2855526666666666 -0.8428019999999999
1120362766 0.2856073333333334 -0.8456513333333332
1121848645 0.2859623333333334 -0.8465699999999999
1123334524 0.2840053333333334 -0.848437
1124820403 0.284345 -0.8487546666666667
1126306282 0.28370266666666666 -0.8469953333333334
1127792161 0.28299599999999997 -0.8479146666666667
1129278040 0.281771 -0.8464566666666666
1130763919 0.2795316666666667 -0.8464853333333333
1132249798 0.277786 -0.842991
1133735677 0.2756166666666667 -0.8419
1135221556 0.27439800000000003 -0.8409019999999999
1136707435 0.27179200000000003 -0.8370273333333333
1138193314 0.26999700000000004 -0.835482
1139679193 0.266915 -0.831912
1141165072 0.26713733333333334 -0.8330086666666666
1142650951 0.26508233333333336 -0.838254
1144136830 0.265589 -0.8412289999999999
1145622709 0.2650433333333333 -0.8440759999999999
1147108588 0.264581 -0.8463246666666667
1148594467 0.26208633333333337 -0.8491216666666667
1150080346 0.2632053333333333 -0.8494883333333334
1151566225 0.265263 -0.849793
1153052104 0.26394500000000004 -0.8514266666666668
1154537983 0.26193399999999994 -0.851735
1156023862 0.2610573333333333 -0.8521956666666667
1157509741 0.261167 -0.8505933333333333
1158995620 0.26081299999999996 -0.8494319999999999
1160481499 0.259349 -0.8476533333333333
1161967378 0.25646066666666667 -0.8448076666666666
1163453257 0.25594066666666665 -0.8438823333333333
1164939136 0.25270299999999996 -0.8407006666666668
1166425015 0.251063 -0.8385146666666666
1167910894 0.25242266666666663 -0.8341036666666667
1169396773 0.24641500000000002 -0.831255
1170882652 0.24431166666666662 -0.8321483333333334
1172368531 0.243694 -0.8362296666666668
1173854410 0.24265899999999999 -0.8379660000000001
1175340289 0.24255166666666664 -0.8415750000000001
1176826168 0.24221533333333334 -0.8431069999999999
1178312047 0.24157399999999998 -0.8454816666666667
1179797926 0.23879266666666665 -0.847592
1181283805 0.23913133333333333 -0.8488656666666667
1182769684 0.23731333333333335 -0.849578
1184255563 0.23786200000000002 -0.8490333333333333
1185741442 0.23695166666666667 -0.8480743333333334
1187227321 0.23612033333333335 -0.8478333333333333
1188713200 0.23380566666666666 -0.847687
1190199079 0.233654 -0.845627
1191684958 0.23158066666666666 -0.844053
1193170837 0.22888300000000003 -0.8416939999999999
1194656716 0.22821066666666667 -0.8389453333333332
1196142595 0.227714 -0.835515
1197628474 0.22310966666666668 -0.8325513333333333
1199114353 0.224243 -0.8280716666666667
1200600232 0.21705700000000003 -0.8287526666666668
1202086111 0.219207 -0.8323523333333332
1203571990 0.218064 -0.8350930000000001
1205057869 0.2164583333333333 -0.83851
1206543748 0.21591800000000003 -0.8418756666666667
1208029627 0.215329 -0.8448133333333333
1209515506 0.21763 -0.84512
1211001385 0.21485433333333334 -0.8467393333333333
1212487264 0.215153 -0.8478413333333333
1213973143 0.21540800000000002 -0.8492973333333333
1215459022 0.21581566666666666 -0.8474160000000001
1216944901 0.2130006666666667 -0.8484556666666667
1218430780 0.21335466666666666 -0.8478623333333334
1219916659 0.21317533333333336 -0.8452426666666666
1221402538 0.206614 -0.8463926666666667
1222888417 0.21143299999999998 -0.842123
1224374296 0.21031299999999997 -0.841163
1225860175 0.20832333333333333 -0.8383016666666667
1227346054 0.20667933333333333 -0.8342306666666667
1228831933 0.21914866666666666 -0.8325686666666666
1230317812 0.20328199999999996 -0.8288556666666667
1231803691 0.20417333333333332 -0.832055
1233289570 0.20345066666666667 -0.8360993333333333
1234775449 0.20232400000000003 -0.8370436666666667
1236261328 0.2029133333333333 -0.8400106666666667
1237747207 0.19931766666666664 -0.843301
1239233086 0.19905766666666666 -0.8440536666666668
1240718965 0.201025 -0.8447683333333332
1242204844 0.19944433333333333 -0.8452786666666666
1243690723 0.2002286666666667 -0.8444513333333332
1245176602 0.19820300000000002 -0.8451026666666667
1246662481 0.1998333333333333 -0.8448193333333333
1248148360 0.19718966666666668 -0.8436726666666666
1249634239 0.20025300000000001 -0.8422216666666668
1251120118 0.1997253333333333 -0.8414346666666667
1252605997 0.19814366666666663 -0.8385379999999999
1254091876 0.19841433333333333 -0.8357006666666668
1255577755 0.19754833333333333 -0.8347653333333334
1257063634 0.19496333333333335 -0.830775
1258549513 0.18917333333333333 -0.8248473333333334
1260035392 0.19149766666666665 -0.8232163333333333
1261521271 0.18992666666666666 -0.82559
1263007150 0.19001333333333334 -0.8284699999999999
1264493029 0.18786833333333333 -0.8330386666666666
1265978908 0.187894 -0.8336803333333332
1267464787 0.18410566666666664 -0.8350953333333333
1268950666 0.1874893333333333 -0.8371073333333333
1270436545 0.18532466666666667 -0.8371963333333333
1271922424 0.18186066666666667 -0.8399013333333333
1273408303 0.18180866666666665 -0.840175
1274894182 0.18251666666666666 -0.8396126666666667
1276380061 0.18204 -0.8387729999999999
1277865940 0.17986466666666667 -0.8398953333333333
1279351819 0.178643 -0.8371373333333333
1280837698 0.1794896666666667 -0.8376913333333333
1282323577 0.174689 -0.8351289999999999
1283809456 0.17555933333333332 -0.8338896666666668
1285295335 0.17419733333333332 -0.831001
1286781214 0.17197433333333334 -0.8298526666666666
1288267093 0.172961 -0.8278156666666666
1289752972 0.17032766666666666 -0.8228019999999999
1291238851 0.168844 -0.8261390000000001
1292724730 0.169058 -0.8304913333333334
1294210609 0.168046 -0.831228
1295696488 0.16658533333333334 -0.8349053333333334
1297182367 0.16879733333333333 -0.8358066666666666
1298668246 0.16737166666666667 -0.8382196666666667
1300154125 0.167554 -0.8391350000000001
1301640004 0.16662133333333332 -0.8400059999999999
1303125883 0.167009 -0.8419556666666667
1304611762 0.16838066666666665 -0.8411926666666667
1306097641 0.166925 -0.8407313333333333
1307583520 0.17069033333333336 -0.8413863333333333
1309069399 0.16626466666666667 -0.8406220000000001
1310555278 0.16822233333333333 -0.838769
1312041157 0.1672013333333333 -0.8380886666666667
1313527036 0.16666666666666666 -0.8376199999999999
1315012915 0.165395 -0.8345203333333333
1316498794 0.16623833333333335 -0.8305490000000001
1317984673 0.16345733333333334 -0.828239
1319470552 0.163454 -0.8267236666666666
1320956431 0.16436866666666666 -0.828874
1322442310 0.16396633333333333 -0.8306313333333334
1323928189 0.161727 -0.8330943333333334
1325414068 0.15906766666666666 -0.8367133333333333
1326899947 0.16132033333333334 -0.839743
1328385826 0.16547466666666666 -0.840682
1329871705 0.16133366666666668 -0.8421196666666666
1331357584 0.163342 -0.8449543333333334
1332843463 0.1576 -0.844745
1334329342 0.15936166666666665 -0.8448129999999999
1335815221 0.15793633333333335 -0.846156
1337301100 0.158617 -0.8458770000000001
1338786979 0.15680033333333332 -0.844604
1340272858 0.15790866666666667 -0.8453406666666666
1341758737 0.156303 -0.8438126666666667
1343244616 0.15431766666666666 -0.842279
1344730495 0.15415066666666666 -0.8422906666666666
1346216374 0.15301800000000002 -0.839446
1347702253 0.153895 -0.8385793333333332
1349188132 0.14886566666666667 -0.8352523333333334
1350674011 0.15043233333333336 -0.8348896666666666
1352159890 0.14881766666666665 -0.8374783333333333
1353645769 0.14604533333333333 -0.8406003333333333
1355131648 0.14522000000000002 -0.8423393333333333
1356617527 0.14196699999999998 -0.8425096666666666
1358103406 0.14482966666666666 -0.8451530000000002
1359589285 0.146482 -0.8436006666666667
1361075164 0.14218733333333333 -0.84504
1362561043 0.13746833333333333 -0.8461416666666667
1364046922 0.140692 -0.845514
1365532801 0.13686633333333334 -0.8451086666666666
1367018680 0.138849 -0.843131
1368504559 0.134031 -0.8425663333333334
1369990438 0.131016 -0.8066646666666667
1371476317 0.13179200000000002 -0.8399666666666666
1372962196 0.130346 -0.8374389999999999
1374448075 0.12745700000000001 -0.835061
1375933954 0.12716833333333333 -0.832363
1377419833 0.11978700000000002 -0.830758
1378905712 0.12104533333333334 -0.8280443333333333
1380391591 0.11731366666666666 -0.8253966666666667
1381877470 0.11770266666666666 -0.8296063333333334
1383363349 0.11826733333333334 -0.8335073333333334
1384849228 0.120682 -0.8357243333333333
1386335107 0.121141 -0.8395966666666665
1387820986 0.12072533333333334 -0.841904
1389306865 0.12137866666666668 -0.843444
1390792744 0.12246433333333333 -0.8447886666666666
1392278623 0.12248666666666667 -0.8439163333333334
1393764502 0.12254633333333333 -0.8449386666666667
1395250381 0.12475866666666667 -0.846272
1396736260 0.12169533333333334 -0.8458173333333333
1398222139 0.12761366666666665 -0.8437259999999999
1399708018 0.123722 -0.8431160000000001
1401193897 0.12055266666666668 -0.8411623333333332
1402679776 0.12148366666666666 -0.840702
1404165655 0.124014 -0.8379356666666666
1405651534 0.12241433333333333 -0.8356126666666667
1407137413 0.11809200000000002 -0.83147
1408623292 0.11835366666666668 -0.8299683333333333
1410109171 0.11818766666666665 -0.8273696666666668
1411595050 0.11927333333333334 -0.831649
1413080929 0.11548033333333334 -0.8369033333333333
1414566808 0.11904533333333334 -0.83879
1416052687 0.117026 -0.8420586666666666
1417538566 0.11865166666666667 -0.8439403333333333
1419024445 0.11753233333333335 -0.8474076666666667
1420510324 0.11877666666666668 -0.8488093333333334
1421996203 0.11836033333333333 -0.8505280000000001
1423482082 0.11755166666666667 -0.8514339999999999
1424967961 0.118089 -0.8512463333333334
1426453840 0.120325 -0.8521150000000001
1427939719 0.119109 -0.8508673333333334
1429425598 0.118794 -0.8514716666666667
1430911477 0.119666 -0.8490736666666666
1432397356 0.117108 -0.848411
1433883235 0.11586166666666665 -0.8445613333333334
1435369114 0.118427 -0.8431766666666666
1436854993 0.11535033333333333 -0.8407453333333333
1438340872 0.118025 -0.8366723333333334
1439826751 0.11107466666666667 -0.8328923333333332
1441312630 0.11359966666666665 -0.8362143333333333
1442798509 0.11044566666666666 -0.8399446666666667
1444284388 0.11307099999999999 -0.8435770000000001
1445770267 0.111858 -0.8463263333333333
1447256146 0.11174400000000001 -0.8471723333333333
1448742025 0.10897266666666668 -0.8474746666666667
1450227904 0.10961900000000001 -0.8487903333333332
1451713783 0.109721 -0.8507176666666666
1453199662 0.10911533333333333 -0.8512596666666666
1454685541 0.10608066666666667 -0.8497370000000001
1456171420 0.10719566666666668 -0.849066
1457657299 0.10586733333333333 -0.8480089999999999
1459143178 0.10527333333333333 -0.8463033333333333
1460629057 0.106895 -0.844899
1462114936 0.10195399999999999 -0.843069
1463600815 0.10451900000000001 -0.8406000000000001
1465086694 0.10027533333333334 -0.837525
1466572573 0.09916366666666666 -0.8328936666666666
1468058452 0.09621866666666667 -0.831158
1469544331 0.09228499999999999 -0.8260433333333334
1471030210 0.09289200000000002 -0.8277549999999999
1472516089 0.09295233333333335 -0.8312203333333333
1474001968 0.09145066666666667 -0.834346
1475487847 0.09212133333333333 -0.8377076666666667
1476973726 0.08744800000000001 -0.8405453333333334
1478459605 0.09233933333333333 -0.8435199999999999
1479945484 0.09036433333333334 -0.8445236666666666
1481431363 0.09186866666666667 -0.8453473333333333
1482917242 0.08856333333333334 -0.8459249999999999
1484403121 0.08883200000000001 -0.8470050000000001
1485889000 0.09046533333333333 -0.8464656666666667
1487374879 0.090883 -0.8460573333333334
1488860758 0.08642833333333333 -0.8457886666666669
1490346637 0.085603 -0.8440310000000001
1491832516 0.08811566666666666 -0.8422313333333333
1493318395 0.08552 -0.8390656666666666
1494804274 0.08437100000000002 -0.8382376666666665
1496290153 0.08441933333333333 -0.8340230000000001
1497776032 0.08112233333333334 -0.8300133333333334
1499261911 0.07941866666666667 -0.8239036666666667
1500747790 0.07912033333333333 -0.8268599999999999
1502233669 0.07970333333333333 -0.8293936666666667
1503719548 0.07717866666666666 -0.8329643333333333
1505205427 0.07829733333333333 -0.8345676666666666
1506691306 0.07520466666666667 -0.8373856666666667
1508177185 0.07227299999999999 -0.8396503333333333
1509663064 0.07224733333333333 -0.8417196666666666
1511148943 0.07027233333333334 -0.8414929999999999
1512634822 0.07123299999999999 -0.8438926666666667
1514120701 0.071312 -0.8422933333333334
1515606580 0.07287166666666667 -0.8421286666666666
1517092459 0.07048833333333333 -0.8411266666666667
1518578338 0.06826966666666666 -0.8398513333333334
1520064217 0.06690766666666667 -0.8391936666666666
1521550096 0.066305 -0.8361426666666666
1523035975 0.06561733333333335 -0.8348760000000001
1524521854 0.065222 -0.8311436666666667
1526007733 0.06145433333333333 -0.8273866666666668
1527493612 0.08115866666666667 -0.8336709999999999
1528979491 0.05817266666666667 -0.821602
1530465370 0.06186166666666667 -0.8551696666666667
1531951249 0.05125733333333333 -0.822905
1533437128 0.062825 -0.8253483333333334
1534923007 0.062694 -0.8280943333333334
1536408886 0.053932 -0.8306916666666666
1537894765 0.059219333333333325 -0.8310626666666666
1539380644 0.06102466666666667 -0.8332096666666665
1540866523 0.058209000000000004 -0.8348436666666667
1542352402 0.058117 -0.8352323333333334
1543838281 0.06146633333333334 -0.8352016666666667
1545324160 0.058722666666666666 -0.8345503333333334
1546810039 0.059469 -0.8339849999999999
1548295918 0.05790666666666666 -0.831915
1549781797 0.059854333333333336 -0.8304403333333333
1551267676 0.059344666666666664 -0.8296913333333333
1552753555 0.055330333333333336 -0.8263773333333333
1554239434 0.05635500000000001 -0.8240663333333335
1555725313 0.054134666666666664 -0.8200609999999999
1557211192 0.04989833333333333 -0.817656
1558697071 0.04782533333333333 -0.8115483333333332
1560182950 0.048473333333333334 -0.8099376666666666
1561668829 0.04598566666666667 -0.8131926666666667
1563154708 0.04546566666666666 -0.8165036666666666
1564640587 0.04234733333333333 -0.8195740000000001
1566126466 0.04365966666666666 -0.8215226666666666
1567612345 0.04403133333333333 -0.8238966666666666
1569098224 0.039837000000000004 -0.8260203333333335
1570584103 0.041701999999999996 -0.826061
1572069982 0.04063933333333333 -0.8276746666666667
1573555861 0.042756333333333334 -0.8278093333333333
1575041740 0.03963866666666666 -0.8277013333333333
1576527619 0.03920833333333333 -0.8288289999999999
1578013498 0.03963266666666667 -0.8287423333333334
1579499377 0.04094233333333333 -0.8266819999999999
1580985256 0.038996 -0.8256213333333333
1582471135 0.039275000000000004 -0.8241676666666667
1583957014 0.04087933333333333 -0.8243906666666666
1585442893 0.036354333333333336 -0.8202980000000001
1586928772 0.03558766666666666 -0.8174203333333333
1588414651 0.035842000000000006 -0.8140316666666667
1589900530 0.03616366666666667 -0.811027
1591386409 0.033315 -0.8124966666666666
1592872288 0.03310333333333334 -0.8155959999999999
1594358167 0.032494666666666665 -0.8187453333333333
1595844046 0.031691000000000004 -0.8209476666666666
1597329925 0.03146666666666667 -0.823083
1598815804 0.03195133333333333 -0.823419
1600301683 0.029446666666666666 -0.8265513333333333
1601787562 0.029476000000000002 -0.826993
1603273441 0.027969333333333332 -0.8272513333333333
1604759320 0.027989999999999998 -0.8274149999999999
1606245199 0.027950000000000003 -0.8279796666666667
1607731078 0.026286666666666667 -0.827985
1609216957 0.029749333333333332 -0.8251136666666666
1610702836 0.026212 -0.825181
1612188715 0.028977666666666665 -0.8225646666666666
1613674594 0.026706999999999998 -0.821641
1615160473 0.024860999999999998 -0.8195696666666666
1616646352 0.026945999999999998 -0.8169183333333333
1618132231 0.030183666666666664 -0.8141250000000001
1619618110 0.025207999999999998 -0.810362
1621103989 0.02550833333333333 -0.8109286666666667
1622589868 0.022050666666666666 -0.8138206666666666
1624075747 0.024595999999999996 -0.8161103333333334
1625561626 0.020287666666666666 -0.8181103333333333
1627047505 0.019166666666666665 -0.8199706666666667
1628533384 0.02018766666666667 -0.8226680000000001
1630019263 0.019412666666666665 -0.8232143333333334
1631505142 0.018663333333333334 -0.8229643333333333
1632991021 0.016906333333333332 -0.824558
1634476900 0.014974000000000001 -0.8255303333333334
1635962779 0.014376 -0.8251603333333333
1637448658 0.014592333333333332 -0.8240106666666667
1638934537 0.012739333333333333 -0.8233783333333333
1640420416 0.012528333333333334 -0.8226870000000001
1641906295 0.0105 -0.821198
1643392174 0.010505 -0.8177353333333334
1644878053 0.009708333333333334 -0.817466
1646363932 0.009729333333333333 -0.8159919999999999
1647849811 0.004129333333333333 -0.8130696666666667
1649335690 0.006506333333333334 -0.809967
1650821569 0.003819333333333333 -0.812014
1652307448 0.0027709999999999996 -0.8136813333333333
1653793327 0.00305 -0.8143776666666668
1655279206 0.004736666666666667 -0.816344
1656765085 0.0024616666666666663 -0.8189086666666666
1658250964 0.0002153333333333333 -0.8201713333333333
1659736843 0.00174 -0.8218296666666666
1661222722 0.0011599999999999998 -0.8226503333333333
1662708601 -0.0023 -0.8245276666666667
1664194480 -0.000122 -0.8215923333333334
1665680359 0.001875 -0.8221576666666667
1667166238 0.0019306666666666665 -0.8202380000000001
1668652117 0.0005560000000000001 -0.8205553333333334
1670137996 0.002506 -0.8180303333333333
1671623875 0.014261000000000001 -0.8218753333333333
1673109754 -0.0006383333333333332 -0.815665
1674595633 -0.001151 -0.8132676666666666
1676081512 -0.004280333333333333 -0.8080103333333334
1677567391 -0.002322666666666667 -0.8065959999999999
1679053270 0.0012183333333333332 -0.7984116666666666
1680539149 -0.0039056666666666667 -0.802657
1682025028 -0.0032886666666666667 -0.807414
1683510907 -0.004660333333333333 -0.809376
1684996786 0.00013766666666666672 -0.810264
1686482665 -0.006474333333333333 -0.8130090000000001
1687968544 -0.005899666666666667 -0.8166363333333333
1689454423 -0.0053419999999999995 -0.8185553333333333
1690940302 -0.0032790000000000002 -0.819372
1692426181 -0.0035706666666666664 -0.819368
1693912060 -0.004116666666666667 -0.8215626666666666
1695397939 -0.002744 -0.821113
1696883818 -0.0026680000000000002 -0.8205386666666667
1698369697 -0.0026199999999999995 -0.8210069999999999
1699855576 -0.001766 -0.8193706666666666
1701341455 -0.001967333333333333 -0.8164306666666666
1702827334 -0.002617333333333334 -0.816281
1704313213 -0.0008103333333333334 -0.814222
1705799092 -0.0030813333333333335 -0.811991
1707284971 -0.003179 -0.8085603333333333
1708770850 -0.0033243333333333332 -0.8045840000000001
1710256729 -0.007034333333333333 -0.8016016666666665
1711742608 -0.0037920000000000002 -0.8051106666666666
1713228487 -0.006420666666666666 -0.8070846666666666
1714714366 -0.0067996666666666665 -0.8118403333333334
1716200245 -0.006284333333333334 -0.8134436666666667
1717686124 -0.007979 -0.816843
1719172003 -0.006476333333333334 -0.816961
1720657882 -0.007846666666666667 -0.8177949999999999
1722143761 -0.008677666666666667 -0.8191130000000001
1723629640 -0.007553666666666667 -0.8194276666666668
1725115519 -0.011475666666666667 -0.8187046666666666
1726601398 -0.008647 -0.8168516666666666
1728087277 -0.008477333333333333 -0.8166370000000001
1729573156 -0.009036666666666667 -0.8143686666666667
1731059035 -0.009925 -0.8133203333333333
1732544914 -0.013748666666666668 -0.8070063333333334
1734030793 -0.010256333333333334 -0.8091750000000001
1735516672 -0.015438666666666665 -0.8063483333333333
1737002551 -0.013010666666666665 -0.804551
1738488430 -0.014056666666666667 -0.798953
1739974309 -0.016373 -0.7955833333333334
1741460188 -0.019799333333333332 -0.7993786666666667
1742946067 -0.016950999999999997 -0.8034683333333333
1744431946 -0.018671000000000004 -0.8064503333333333
1745917825 -0.01963933333333333 -0.8086583333333334
1747403704 -0.019125666666666666 -0.8114089999999999
1748889583 -0.023880666666666665 -0.8121220000000001
1750375462 -0.020929 -0.8143383333333333
1751861341 -0.018745333333333333 -0.8153636666666667
1753347220 -0.020008666666666664 -0.8172373333333334
1754833099 -0.02143633333333333 -0.816577
1756318978 -0.021407333333333334 -0.8164950000000001
1757804857 -0.021244333333333334 -0.8166380000000001
1759290736 -0.022745666666666668 -0.8142889999999999
1760776615 -0.023447666666666662 -0.8134066666666667
1762262494 -0.023423333333333334 -0.8119293333333334
1763748373 -0.02399533333333333 -0.8095513333333333
1765234252 -0.025574666666666666 -0.8055979999999999
1766720131 -0.024961666666666663 -0.8032209999999999
1768206010 -0.025712333333333334 -0.7998976666666667
1769691889 -0.028063 -0.7980133333333334
1771177768 -0.026004 -0.7980876666666666
1772663647 -0.027516333333333334 -0.801344
1774149526 -0.029292333333333333 -0.8062326666666667
1775635405 -0.027933333333333334 -0.8082273333333333
1777121284 -0.028125 -0.8095403333333334
1778607163 -0.029502666666666667 -0.8126543333333333
1780093042 -0.031516999999999996 -0.8131453333333333
1781578921 -0.031062999999999997 -0.8153976666666667
1783064800 -0.03066433333333333 -0.815369
1784550679 -0.028995999999999997 -0.816033
1786036558 -0.028696333333333334 -0.8155756666666667
1787522437 -0.027781333333333335 -0.8152463333333334
1789008316 -0.027335333333333333 -0.814844
1790494195 -0.030165333333333336 -0.8112499999999999
1791980074 -0.028299 -0.8102563333333332
1793465953 -0.02627233333333333 -0.8082526666666667
1794951832 -0.025467 -0.8067126666666665
1796437711 -0.02689 -0.80391
1797923590 -0.026740666666666666 -0.7998780000000001
1799409469 -0.028304 -0.795658
1800895348 -0.02806 -0.7964913333333333
1802381227 -0.030459333333333335 -0.798766
1803867106 -0.033902666666666664 -0.8000893333333333
1805352985 -0.030805666666666665 -0.803153
1806838864 -0.029429 -0.8054706666666666
1808324743 -0.030023666666666667 -0.80783
1809810622 -0.02856333333333333 -0.8086756666666667
1811296501 -0.03299066666666666 -0.8084806666666666
1812782380 -0.034103999999999995 -0.810273
1814268259 -0.03068866666666667 -0.806162
1815754138 -0.03220766666666667 -0.80909
1817240017 -0.03156833333333334 -0.8072203333333334
1818725896 -0.036863 -0.774905
1820211775 -0.032460333333333334 -0.8061599999999999
1821697654 -0.031726333333333336 -0.8012883333333334
1823183533 -0.032690000000000004 -0.7992713333333333
1824669412 -0.033403333333333333 -0.7953316666666668
1826155291 -0.03246733333333333 -0.7968126666666667
1827641170 -0.031498 -0.7874423333333334
1829127049 -0.034732000000000006 -0.7857080000000001
1830612928 -0.03730766666666666 -0.7844150000000001
1832098807 -0.036098333333333336 -0.7863950000000001
1833584686 -0.039481 -0.7894223333333333
1835070565 -0.039383999999999995 -0.794012
1836556444 -0.03775733333333334 -0.7961883333333333
1838042323 -0.036985 -0.7986073333333333
1839528202 -0.04163166666666667 -0.8021016666666667
1841014081 -0.04300166666666667 -0.8010846666666667
1842499960 -0.036653333333333336 -0.8015466666666667
1843985839 -0.039947333333333335 -0.8010933333333333
1845471718 -0.041435 -0.8018796666666667
1846957597 -0.043544000000000006 -0.8022589999999999
1848443476 -0.038033 -0.8033513333333334
1849929355 -0.041145666666666664 -0.8021379999999999
1851415234 -0.04082333333333333 -0.8019933333333333
1852901113 -0.04738766666666666 -0.7978276666666666
1854386992 -0.04418033333333333 -0.7961043333333332
1855872871 -0.047564666666666665 -0.7925556666666665
1857358750 -0.04912 -0.7922286666666668
1858844629 -0.051573666666666663 -0.7866620000000001
1860330508 -0.045030999999999995 -0.7871609999999999
1861816387 -0.05133533333333334 -0.7891546666666667
1863302266 -0.047895999999999994 -0.792596
1864788145 -0.051611333333333335 -0.796185
1866274024 -0.04990766666666666 -0.7979896666666667
1867759903 -0.054212666666666666 -0.7994673333333333
1869245782 -0.048856000000000004 -0.8025996666666666
1870731661 -0.05858833333333333 -0.8014873333333333
1872217540 -0.050577000000000004 -0.809024
1873703419 -0.05572966666666667 -0.802238
1875189298 -0.052802666666666664 -0.8057046666666666
1876675177 -0.056188666666666665 -0.8029609999999999
1878161056 -0.052277333333333335 -0.803023
1879646935 -0.05735066666666667 -0.8010406666666667
1881132814 -0.050624 -0.8010733333333334
1882618693 -0.05819133333333334 -0.7988236666666667
1884104572 -0.054746666666666666 -0.7969833333333334
1885590451 -0.051580999999999995 -0.7953866666666668
1887076330 -0.052426 -0.7915346666666666
1888562209 -0.055181666666666664 -0.788101
1890048088 -0.056287000000000004 -0.7837323333333334
1891533967 -0.05717566666666666 -0.7892953333333333
1893019846 -0.058958333333333335 -0.790269
1894505725 -0.05741266666666667 -0.791915
1895991604 -0.05469366666666667 -0.792179
1897477483 -0.05749633333333334 -0.7969499999999999
1898963362 -0.05803366666666667 -0.7977083333333334
1900449241 -0.06006633333333333 -0.7976016666666667
1901935120 -0.057239000000000005 -0.7970846666666667
1903420999 -0.056106333333333334 -0.7970039999999999
1904906878 -0.05736733333333333 -0.79847
1906392757 -0.05637466666666666 -0.7947003333333335
1907878636 -0.059116333333333326 -0.7951
1909364515 -0.059302999999999995 -0.7939536666666666
1910850394 -0.06060933333333333 -0.791638
1912336273 -0.05958866666666666 -0.7890090000000001
1913822152 -0.057436999999999995 -0.788039
1915308031 -0.056828 -0.7835656666666667
1916793910 -0.060201 -0.7813460000000001
1918279789 -0.059955666666666664 -0.7772963333333333
1919765668 -0.059884 -0.7751263333333333
1921251547 -0.06333699999999999 -0.7745353333333332
1922737426 -0.06450133333333334 -0.7777216666666668
1924223305 -0.06406766666666668 -0.7805476666666666
1925709184 -0.06533499999999999 -0.7839636666666667
1927195063 -0.06958033333333334 -0.783848
1928680942 -0.06714366666666667 -0.7879033333333334
1930166821 -0.07390666666666666 -0.7906756666666667
1931652700 -0.07023966666666666 -0.7889163333333333
1933138579 -0.069717 -0.7899280000000001
1934624458 -0.06743866666666667 -0.7912113333333334
1936110337 -0.07073133333333333 -0.790002
1937596216 -0.074129 -0.789446
1939082095 -0.06977466666666667 -0.7889913333333333
1940567974 -0.07349366666666667 -0.7880823333333334
1942053853 -0.07162166666666665 -0.787294
1943539732 -0.07001933333333334 -0.78666
1945025611 -0.07502233333333333 -0.7830743333333334
1946511490 -0.073727 -0.781071
1947997369 -0.07601666666666666 -0.7798423333333333
1949483248 -0.07776466666666666 -0.7743319999999999
1950969127 -0.07602033333333333 -0.776166
1952455006 -0.08104800000000001 -0.7795489999999999
1953940885 -0.07915166666666666 -0.780767
1955426764 -0.07873333333333334 -0.7819963333333334
1956912643 -0.08076066666666666 -0.7850336666666666
1958398522 -0.079065 -0.7872543333333333
1959884401 -0.08165066666666666 -0.7873676666666668
1961370280 -0.08025166666666667 -0.787972
1962856159 -0.08007033333333334 -0.7881903333333332
1964342038 -0.08261533333333333 -0.7881976666666667
1965827917 -0.07989700000000001 -0.7867553333333334
1967313796 -0.08265666666666667 -0.7865096666666668
1968799675 -0.08150099999999999 -0.7848700000000001
1970285554 -0.08925900000000002 -0.7824076666666665
1971771433 -0.08351333333333333 -0.7830823333333333
1973257312 -0.063796 -0.7827936666666666
1974743191 -0.06824266666666667 -0.7807476666666666
1976229070 -0.07217900000000001 -0.779524
1977714949 -0.08517366666666666 -0.7448403333333333
1979200828 -0.06900066666666667 -0.770213
1980686707 -0.07232733333333334 -0.7714196666666666
1982172586 -0.075336 -0.7748326666666667
1983658465 -0.07565700000000002 -0.776264
1985144344 -0.07389633333333334 -0.7785323333333333
1986630223 -0.07448333333333333 -0.780221
1988116102 -0.07812466666666666 -0.7820346666666667
1989601981 -0.06956333333333332 -0.7845983333333333
1991087860 -0.077316 -0.7834436666666668
1992573739 -0.074319 -0.7843810000000001
1994059618 -0.07658633333333333 -0.7848046666666667
1995545497 -0.07646466666666667 -0.7813653333333334
1997031376 -0.08195966666666667 -0.7755373333333333
1998517255 -0.08849133333333332 -0.7775249999999999
2000003134 -0.08746366666666666 -0.7769213333333332
2001489013 -0.08754333333333332 -0.7754333333333333
2002974892 -0.08780766666666667 -0.7729506666666667
2004460771 -0.090754 -0.7692636666666667
2005946650 -0.087632 -0.768558
2007432529 -0.09049 -0.7656193333333334
2008918408 -0.09305133333333333 -0.7608106666666666
2010404287 -0.08968833333333333 -0.7613756666666666
2011890166 -0.09387533333333332 -0.7629023333333333
2013376045 -0.09609433333333334 -0.7664810000000001
2014861924 -0.09582733333333333 -0.7669783333333333
2016347803 -0.09591699999999999 -0.7701263333333332
2017833682 -0.09475066666666666 -0.771942
2019319561 -0.09506266666666667 -0.7735616666666667
2020805440 -0.09936166666666667 -0.7749966666666667
2022291319 -0.09838933333333333 -0.7761089999999999
2023777198 -0.10625633333333333 -0.7775316666666666
2025263077 -0.09827033333333333 -0.776735
2026748956 -0.09796133333333334 -0.777829
2028234835 -0.09577399999999998 -0.7749643333333335
2029720714 -0.09901366666666667 -0.7744209999999999
2031206593 -0.08409599999999999 -0.7905086666666666
2032692472 -0.10192733333333333 -0.7723186666666667
2034178351 -0.10040766666666667 -0.7702053333333333
2035664230 -0.10144533333333333 -0.7679536666666666
2037150109 -0.10211966666666666 -0.7658553333333332
2038635988 -0.098704 -0.7628836666666666
2040121867 -0.10077233333333334 -0.7586203333333333
2041607746 -0.101885 -0.7633846666666667
2043093625 -0.10309866666666667 -0.7646803333333333
2044579504 -0.10406833333333333 -0.7670466666666668
2046065383 -0.10446933333333334 -0.7673673333333334
2047551262 -0.10544100000000001 -0.7708706666666666
2049037141 -0.10457700000000002 -0.7706716666666668
2050523020 -0.10542433333333334 -0.7733089999999999
2052008899 -0.10640866666666667 -0.7717333333333333
2053494778 -0.10611999999999999 -0.77096
2054980657 -0.10754966666666667 -0.771795
2056466536 -0.10687600000000001 -0.770398
2057952415 -0.105559 -0.7686346666666667
2059438294 -0.106996 -0.7685556666666667
2060924173 -0.10635099999999999 -0.7663753333333334
2062410052 -0.10740166666666667 -0.7642916666666667
2063895931 -0.10997333333333333 -0.763041
2065381810 -0.10796433333333333 -0.7592706666666666
2066867689 -0.107026 -0.7556933333333333
2068353568 -0.10965366666666666 -0.753358
2069839447 -0.10867333333333333 -0.74992
2071325326 -0.11094866666666668 -0.7511143333333333
2072811205 -0.11392400000000001 -0.7544460000000001
2074297084 -0.11308 -0.7579143333333332
2075782963 -0.11353466666666667 -0.7603013333333332
2077268842 -0.11503333333333333 -0.761175
2078754721 -0.112039 -0.7650676666666666
2080240600 -0.11233100000000001 -0.766469
2081726479 -0.11198833333333334 -0.7665383333333334
2083212358 -0.11371866666666668 -0.7693903333333333
2084698237 -0.11355 -0.7686846666666667
2086184116 -0.11250333333333333 -0.7697886666666668
2087669995 -0.11363733333333333 -0.7667193333333332
2089155874 -0.11223866666666667 -0.7671396666666667
2090641753 -0.11264133333333333 -0.7665669999999999
2092127632 -0.11332766666666667 -0.7653303333333333
2093613511 -0.11204966666666666 -0.7638363333333333
2095099390 -0.11116166666666667 -0.7615660000000001
2096585269 -0.11056133333333333 -0.7585293333333333
2098071148 -0.11144633333333333 -0.7570376666666667
2099557027 -0.10937933333333333 -0.7531956666666666
2101042906 -0.113118 -0.75517
2102528785 -0.11401633333333333 -0.7568793333333333
2104014664 -0.11509566666666667 -0.7601270000000001
2105500543 -0.114404 -0.7616446666666666
2106986422 -0.11748200000000002 -0.7641366666666666
2108472301 -0.11695766666666667 -0.7663236666666666
2109958180 -0.11981933333333333 -0.7658266666666665
2111444059 -0.11425166666666668 -0.768491
2112929938 -0.12036399999999998 -0.7666316666666667
2114415817 -0.11926333333333333 -0.768678
2115901696 -0.11849733333333333 -0.768853
2117387575 -0.11528566666666666 -0.770972
2118873454 -0.11836 -0.7682293333333333
2120359333 -0.11776266666666667 -0.7682093333333334
2121845212 -0.118085 -0.7680406666666667
2123331091 -0.11848766666666666 -0.764325
2124816970 -0.11900433333333334 -0.761237
2126302849 -0.11995566666666667 -0.7556156666666666
2127788728 -0.116203 -0.7591353333333334
2129274607 -0.11711699999999999 -0.7534866666666667
2130760486 -0.11682466666666667 -0.7541916666666667
2132246365 -0.12016366666666667 -0.7576206666666666
2133732244 -0.12098733333333332 -0.7609526666666667
2135218123 -0.12138766666666667 -0.761942
2136704002 -0.123118 -0.7627160000000001
2138189881 -0.12625 -0.7644766666666666
2139675760 -0.12932733333333335 -0.7653683333333333
2141161639 -0.128258 -0.7665276666666667
2142647518 -0.12603833333333334 -0.7686006666666666
2144133397 -0.1280683333333333 -0.7682586666666666
2145619276 -0.12940766666666667 -0.7675183333333333
2147105155 -0.12799966666666668 -0.7677936666666666
2148591034 -0.13126866666666667 -0.767869
2150076913 -0.12968066666666667 -0.7662993333333333
2151562792 -0.13181433333333334 -0.764225
2153048671 -0.13069733333333333 -0.7634976666666667
2154534550 -0.13149266666666667 -0.7611310000000001
2156020429 -0.13211366666666666 -0.759224
2157506308 -0.13525399999999999 -0.7572343333333333
2158992187 -0.13232066666666667 -0.751824
2160478066 -0.13312066666666666 -0.7527853333333333
2161963945 -0.13610966666666666 -0.755113
2163449824 -0.1413026666666667 -0.7566733333333332
2164935703 -0.13612333333333335 -0.7597576666666667
2166421582 -0.13473333333333334 -0.7623386666666666
2167907461 -0.13648533333333332 -0.762085
2169393340 -0.13592733333333332 -0.7648926666666668
2170879219 -0.13458699999999998 -0.7676743333333333
2172365098 -0.13492633333333334 -0.768697
2173850977 -0.136632 -0.7676373333333334
2175336856 -0.13325633333333334 -0.7673256666666667
2176822735 -0.13484333333333334 -0.7684846666666667
2178308614 -0.13592733333333332 -0.7673303333333333
2179794493 -0.13642033333333334 -0.7665293333333333
2181280372 -0.13308633333333333 -0.7640796666666666
2182766251 -0.13087266666666666 -0.7624506666666666
2184252130 -0.12819266666666665 -0.7623346666666667
2185738009 -0.128829 -0.760098
2187223888 -0.131499 -0.7539763333333332
2188709767 -0.126395 -0.7542043333333334
2190195646 -0.12991366666666668 -0.747078
2191681525 -0.12804800000000002 -0.753305
2193167404 -0.12782066666666667 -0.7544946666666666
2194653283 -0.12986633333333333 -0.7575953333333333
2196139162 -0.12637533333333334 -0.7595149999999999
2197625041 -0.131383 -0.7579226666666666
2199110920 -0.127899 -0.7607926666666667
2200596799 -0.12995 -0.7599049999999999
2202082678 -0.12989766666666666 -0.7617503333333334
2203568557 -0.12977966666666665 -0.7595579999999998
2205054436 -0.12698566666666666 -0.7611773333333334
2206540315 -0.12778533333333333 -0.7611509999999999
2208026194 -0.11695266666666666 -0.7611996666666667
2209512073 -0.124632 -0.7605033333333333
2210997952 -0.129325 -0.7565353333333333
2212483831 -0.12444966666666667 -0.755839
2213969710 -0.12324166666666665 -0.7536663333333333
2215455589 -0.121684 -0.752406
2216941468 -0.12181900000000001 -0.7476059999999999
2218427347 -0.12428733333333335 -0.7410013333333333
2219913226 -0.12223533333333332 -0.740287
2221399105 -0.12516000000000002 -0.7406616666666667
2222884984 -0.12689966666666666 -0.7445143333333334
2224370863 -0.12539033333333333 -0.7477333333333332
2225856742 -0.12756333333333333 -0.7511526666666667
2227342621 -0.12843600000000002 -0.7512313333333335
2228828500 -0.12705199999999997 -0.7539593333333333
2230314379 -0.12690233333333334 -0.7553066666666667
2231800258 -0.12947866666666666 -0.7553186666666667
2233286137 -0.13318566666666667 -0.7542786666666667
2234772016 -0.127771 -0.7574803333333332
2236257895 -0.13137966666666667 -0.757596
2237743774 -0.13031 -0.7559819999999999
2239229653 -0.127009 -0.7581996666666666
2240715532 -0.12993066666666667 -0.7560586666666667
2242201411 -0.133773 -0.752274
2243687290 -0.12948633333333334 -0.7521586666666668
2245173169 -0.12761433333333336 -0.750892
2246659048 -0.12985433333333332 -0.749154
2248144927 -0.12841833333333333 -0.746304
2249630806 -0.13066133333333332 -0.74439
2251116685 -0.135066 -0.746314
2252602564 -0.136139 -0.746317
2254088443 -0.12897599999999998 -0.7507946666666666
2255574322 -0.1387183333333333 -0.750315
2257060201 -0.13612733333333335 -0.7522226666666666
2258546080 -0.131773 -0.754597
2260031959 -0.13524933333333333 -0.7536840000000001
2261517838 -0.13825099999999999 -0.7519589999999999
2263003717 -0.12981800000000002 -0.7583483333333333
2264489596 -0.13951733333333333 -0.7509216666666667
2265975475 -0.134077 -0.7507506666666667
2267461354 -0.13902333333333336 -0.751345
2268947233 -0.121605 -0.7622273333333333
2270433112 -0.13493766666666665 -0.7507416666666668
2271918991 -0.13824733333333333 -0.746773
2273404870 -0.141622 -0.7455846666666667
2274890749 -0.13820633333333332 -0.742898
2276376628 -0.119303 -0.6997806666666667
2277862507 -0.138765 -0.7391200000000001
2279348386 -0.138677 -0.7371826666666667
2280834265 -0.13271833333333333 -0.7380396666666668
2282320144 -0.14102066666666666 -0.7381013333333333
2283806023 -0.137607 -0.7411203333333334
2285291902 -0.14253566666666664 -0.7434023333333334
2286777781 -0.13957033333333335 -0.7433683333333333
2288263660 -0.13904166666666665 -0.7467166666666666
2289749539 -0.14268666666666666 -0.7476846666666667
2291235418 -0.140899 -0.7457686666666667
2292721297 -0.15513200000000002 -0.7417093333333332
2294207176 -0.15097366666666667 -0.7439496666666666
2295693055 -0.14835833333333334 -0.7449690000000001
2297178934 -0.14928866666666665 -0.7450133333333334
2298664813 -0.14262866666666665 -0.7412193333333333
2300150692 -0.14470233333333335 -0.7390403333333332
2301636571 -0.14856666666666665 -0.7414696666666667
2303122450 -0.15043700000000002 -0.7376796666666666
2304608329 -0.13872700000000002 -0.7382409999999999
2306094208 -0.14353966666666665 -0.7343713333333334
2307580087 -0.13874233333333333 -0.731143
2309065966 -0.14217933333333332 -0.7296509999999999
2310551845 -0.14087433333333332 -0.7316916666666667
2312037724 -0.14576833333333336 -0.7334843333333333
2313523603 -0.14606633333333333 -0.7370983333333334
2315009482 -0.14327433333333334 -0.7362056666666666
2316495361 -0.14609733333333333 -0.740795
2317981240 -0.14659733333333336 -0.7419573333333332
2319467119 -0.1425276666666667 -0.7428063333333333
2320952998 -0.147367 -0.7439746666666668
2322438877 -0.14873466666666665 -0.7479163333333334
2323924756 -0.1417746666666667 -0.7457220000000001
2325410635 -0.15305933333333335 -0.7477680000000001
2326896514 -0.14751566666666668 -0.7457613333333333
2328382393 -0.14827733333333334 -0.7475520000000001
2329868272 -0.14494300000000002 -0.746166
2331354151 -0.14118299999999998 -0.753387
2332840030 -0.14384433333333332 -0.7436183333333334
2334325909 -0.152165 -0.742534
2335811788 -0.14606300000000003 -0.7420043333333334
2337297667 -0.15321233333333337 -0.7417193333333333
2338783546 -0.156395 -0.7380346666666667
2340269425 -0.149899 -0.7351836666666666
2341755304 -0.144851 -0.7400296666666666
2343241183 -0.1499366666666667 -0.7414930000000001
2344727062 -0.151041 -0.7414486666666668
2346212941 -0.15532500000000002 -0.7442913333333333
2347698820 -0.15662366666666666 -0.7447606666666667
2349184699 -0.15429466666666666 -0.7454253333333334
2350670578 -0.15758233333333332 -0.7494913333333333
2352156457 -0.15618433333333334 -0.7466696666666667
2353642336 -0.15555733333333333 -0.7478973333333334
2355128215 -0.15976100000000001 -0.748795
2356614094 -0.15611 -0.747823
2358099973 -0.159834 -0.7437573333333333
2359585852 -0.15844833333333333 -0.7432726666666666
2361071731 -0.15711533333333336 -0.7448293333333332
2362557610 -0.15377300000000002 -0.742573
2364043489 -0.15928933333333337 -0.7380840000000001
2365529368 -0.15881633333333334 -0.7373803333333333
2367015247 -0.161567 -0.730663
2368501126 -0.16035133333333332 -0.7285659999999999
2369987005 -0.162655 -0.7286633333333334
2371472884 -0.164766 -0.7306343333333333
2372958763 -0.167416 -0.7336016666666666
2374444642 -0.16738166666666668 -0.7344196666666667
2375930521 -0.16846300000000003 -0.7392076666666666
2377416400 -0.16782133333333335 -0.7376366666666666
2378902279 -0.16379833333333332 -0.7386706666666667
2380388158 -0.16373933333333335 -0.7416076666666666
2381874037 -0.16331433333333334 -0.7405713333333335
2383359916 -0.16332166666666667 -0.7429026666666667
2384845795 -0.16470366666666666 -0.741583
2386331674 -0.16125866666666666 -0.7380800000000001
2387817553 -0.160548 -0.7375163333333333
2389303432 -0.161906 -0.7389416666666667
2390789311 -0.15901166666666666 -0.7352099999999999
2392275190 -0.16313666666666668 -0.7369116666666665
2393761069 -0.15764733333333333 -0.732223
2395246948 -0.16146800000000003 -0.7299350000000001
2396732827 -0.15974766666666665 -0.7265766666666668
2398218706 -0.16170333333333334 -0.7206243333333333
2399704585 -0.15810733333333332 -0.7187453333333332
2401190464 -0.162363 -0.7225163333333334
2402676343 -0.16170566666666666 -0.7236703333333333
2404162222 -0.16087966666666664 -0.724992
2405648101 -0.16604733333333332 -0.7297573333333333
2407133980 -0.168268 -0.729634
2408619859 -0.16194166666666665 -0.7304813333333334
2410105738 -0.1682246666666667 -0.7326343333333334
2411591617 -0.167013 -0.7330806666666666
2413077496 -0.17181899999999997 -0.7343993333333335
2414563375 -0.168009 -0.735038
2416049254 -0.16693433333333332 -0.7348813333333334
2417535133 -0.1702813333333333 -0.736133
2419021012 -0.165856 -0.7395003333333333
2420506891 -0.16576666666666665 -0.7371533333333334
2421992770 -0.16604566666666667 -0.735472
2423478649 -0.16604533333333332 -0.7318703333333333
2424964528 -0.16412300000000002 -0.7303343333333333
2426450407 -0.15636666666666665 -0.7538313333333333
2427936286 -0.16713433333333336 -0.7240653333333333
2429422165 -0.171722 -0.7239793333333333
2430908044 -0.16792266666666666 -0.7229753333333333
2432393923 -0.17142000000000002 -0.7255316666666666
2433879802 -0.16900766666666667 -0.7300409999999999
2435365681 -0.17467200000000002 -0.728776
2436851560 -0.17591199999999999 -0.728675
2438337439 -0.17728999999999998 -0.7292833333333334
2439823318 -0.179617 -0.728916
2441309197 -0.17992633333333333 -0.731383
2442795076 -0.17924166666666666 -0.732563
2444280955 -0.17911133333333332 -0.730747
2445766834 -0.17382633333333333 -0.7310483333333333
2447252713 -0.18059 -0.7303106666666667
2448738592 -0.1773906666666667 -0.7275010000000001
2450224471 -0.176971 -0.727342
2451710350 -0.174994 -0.725375
2453196229 -0.175242 -0.7247859999999999
2454682108 -0.17752333333333334 -0.7206996666666666
2456167987 -0.17403766666666667 -0.716725
2457653866 -0.17653266666666667 -0.7146123333333335
2459139745 -0.17669333333333334 -0.7126306666666666
2460625624 -0.17755 -0.707178
2462111503 -0.1772463333333333 -0.7129433333333334
2463597382 -0.179389 -0.7121939999999999
2465083261 -0.18175833333333333 -0.7149233333333335
2466569140 -0.18170333333333333 -0.717766
2468055019 -0.18292699999999998 -0.7194186666666665
2469540898 -0.18154266666666666 -0.7193773333333334
2471026777 -0.18332299999999999 -0.7213803333333333
2472512656 -0.18124600000000002 -0.7235506666666667
2473998535 -0.185466 -0.7211956666666666
2475484414 -0.18344000000000002 -0.7214093333333333
2476970293 -0.18485733333333332 -0.7171076666666667
2478456172 -0.1827926666666667 -0.7167373333333332
2479942051 -0.186987 -0.7085733333333333
2481427930 -0.18441733333333335 -0.7165693333333333
2482913809 -0.18359 -0.7153810000000002
2484399688 -0.18177833333333335 -0.7128356666666665
2485885567 -0.18658299999999997 -0.7069833333333334
2487371446 -0.18181533333333333 -0.7043306666666668
2488857325 -0.18592166666666668 -0.703288
2490343204 -0.187531 -0.7023820000000001
2491829083 -0.18449066666666666 -0.7048993333333334
2493314962 -0.186796 -0.7080046666666666
2494800841 -0.18552366666666664 -0.7091103333333333
2496286720 -0.186701 -0.7130763333333333
2497772599 -0.18777600000000003 -0.714108
2499258478 -0.187752 -0.7166486666666666
2500744357 -0.18962033333333336 -0.7176593333333333
2502230236 -0.18846666666666667 -0.7204873333333334
2503716115 -0.18439300000000003 -0.7199013333333334
2505201994 -0.18834533333333336 -0.7194306666666667
2506687873 -0.18342233333333333 -0.72268
2508173752 -0.18483266666666667 -0.7202829999999999
2509659631 -0.18447233333333335 -0.7192943333333334
2511145510 -0.17982633333333334 -0.7224846666666668
2512631389 -0.18095066666666668 -0.7198673333333333
2514117268 -0.17883700000000002 -0.7193476666666667
2515603147 -0.176961 -0.7158843333333333
2517089026 -0.174897 -0.7146413333333334
2518574905 -0.176316 -0.7118466666666667
2520060784 -0.17448566666666665 -0.7105213333333333
2521546663 -0.178219 -0.7094266666666668
2523032542 -0.180714 -0.7137733333333335
2524518421 -0.1815346666666667 -0.715523
2526004300 -0.182312 -0.717599
2527490179 -0.17932666666666663 -0.7200576666666666
2528976058 -0.181256 -0.7223463333333333
2530461937 -0.18286733333333335 -0.7217593333333333
2531947816 -0.186458 -0.722483
2533433695 -0.187666 -0.7289423333333334
2534919574 -0.18579033333333336 -0.7221206666666667
2536405453 -0.18328766666666665 -0.7248333333333333
2537891332 -0.18775633333333333 -0.7227786666666667
2539377211 -0.18478799999999998 -0.7227153333333334
2540863090 -0.190688 -0.7223796666666668
2542348969 -0.19082599999999997 -0.7214140000000001
2543834848 -0.18772633333333333 -0.717942
2545320727 -0.18949133333333334 -0.7180900000000001
2546806606 -0.18962066666666666 -0.7146316666666667
2548292485 -0.18608766666666665 -0.7152193333333333
2549778364 -0.1880103333333333 -0.7128046666666666
2551264243 -0.19028366666666666 -0.714839
2552750122 -0.18857166666666667 -0.7183173333333333
2554236001 -0.19346366666666667 -0.7162240000000001
2555721880 -0.18952666666666665 -0.7239693333333334
2557207759 -0.19447833333333334 -0.7244016666666667
2558693638 -0.19229533333333335 -0.7243716666666667
2560179517 -0.191528 -0.723522
2561665396 -0.19517533333333334 -0.7273226666666667
2563151275 -0.19844466666666669 -0.7269713333333333
2564637154 -0.196072 -0.725692
2566123033 -0.19386099999999998 -0.7302376666666667
2567608912 -0.19374833333333333 -0.7244103333333333
2569094791 -0.19348900000000002 -0.7288636666666667
2570580670 -0.1902533333333333 -0.743469
2572066549 -0.19659300000000002 -0.7232413333333333
2573552428 -0.20320833333333335 -0.7213296666666666
2575038307 -0.19669899999999998 -0.7210770000000001
2576524186 -0.20134466666666664 -0.716268
2578010065 -0.19620399999999996 -0.71774
2579495944 -0.198765 -0.7150523333333334
2580981823 -0.20165733333333333 -0.7152790000000001
2582467702 -0.20024466666666665 -0.7173356666666667
2583953581 -0.19907566666666665 -0.7182013333333334
2585439460 -0.197643 -0.7177773333333333
2586925339 -0.1974476666666667 -0.720113
2588411218 -0.19560999999999998 -0.7213123333333332
2589897097 -0.19940899999999998 -0.720742
2591382976 -0.19174266666666664 -0.7193473333333333
2592868855 -0.196028 -0.7197083333333333
2594354734 -0.19963833333333333 -0.711541
2595840613 -0.194267 -0.7145480000000001
2597326492 -0.19242800000000002 -0.714416
2598812371 -0.19381066666666666 -0.712306
2600298250 -0.196793 -0.7074186666666668
2601784129 -0.19124733333333332 -0.7083276666666668
2603270008 -0.19391533333333333 -0.701995
2604755887 -0.19136233333333333 -0.7001676666666667
2606241766 -0.19314833333333334 -0.6970886666666667
2607727645 -0.19276000000000001 -0.6932619999999999
2609213524 -0.19471499999999997 -0.6890539999999999
2610699403 -0.19202666666666668 -0.6880053333333332
2612185282 -0.20055033333333336 -0.6891253333333333
2613671161 -0.19541866666666666 -0.6944636666666666
2615157040 -0.19340666666666664 -0.697454
2616642919 -0.19481600000000002 -0.698538
2618128798 -0.19517600000000002 -0.69846
2619614677 -0.19766433333333333 -0.7004163333333334
2621100556 -0.19716166666666668 -0.7035636666666667
2622586435 -0.19552033333333332 -0.7027076666666666
2624072314 -0.19349033333333332 -0.7035433333333333
2625558193 -0.19315733333333332 -0.703684
2627044072 -0.19287266666666666 -0.7033243333333333
2628529951 -0.19603466666666666 -0.7035663333333334
2630015830 -0.1917306666666667 -0.702266
2631501709 -0.19413500000000003 -0.698959
2632987588 -0.18106599999999998 -0.7093216666666665
2634473467 -0.19599 -0.696724
2635959346 -0.19458799999999998 -0.6973406666666667
2637445225 -0.19354166666666664 -0.6934716666666668
2638931104 -0.19285 -0.6902466666666666
2640416983 -0.195372 -0.6926476666666668
2641902862 -0.20158599999999996 -0.6905256666666667
2643388741 -0.20281266666666664 -0.692811
2644874620 -0.19512466666666664 -0.7074833333333332
2646360499 -0.19964733333333332 -0.7034653333333333
2647846378 -0.20255433333333336 -0.7038509999999999
2649332257 -0.198609 -0.707304
2650818136 -0.20057099999999997 -0.7081123333333332
2652304015 -0.20243633333333333 -0.7105356666666668
2653789894 -0.20506166666666667 -0.712482
2655275773 -0.20306900000000003 -0.7133563333333334
2656761652 -0.19950866666666667 -0.7165853333333333
2658247531 -0.20316533333333334 -0.7137786666666667
2659733410 -0.2034133333333333 -0.714194
2661219289 -0.20066333333333333 -0.7109673333333334
2662705168 -0.203168 -0.7162293333333333
2664191047 -0.205769 -0.7125413333333334
2665676926 -0.20332733333333333 -0.7130903333333333
2667162805 -0.20180966666666666 -0.7101446666666668
2668648684 -0.20238366666666666 -0.707589
2670134563 -0.20747433333333332 -0.7059273333333334
2671620442 -0.20874533333333334 -0.7111056666666666
2673106321 -0.20077266666666668 -0.7153733333333333
2674592200 -0.2049833333333333 -0.7127223333333333
2676078079 -0.203576 -0.7130183333333333
2677563958 -0.2013316666666667 -0.7187996666666666
2679049837 -0.19760733333333333 -0.7236803333333333
2680535716 -0.19906866666666667 -0.7192076666666667
2682021595 -0.19829133333333335 -0.7233539999999999
2683507474 -0.1962636666666667 -0.7229743333333333
2684993353 -0.19725333333333336 -0.7179273333333334
2686479232 -0.19631933333333332 -0.7213656666666667
2687965111 -0.20929433333333333 -0.713723
2689450990 -0.18863066666666664 -0.719547
2690936869 -0.196751 -0.7175876666666667
2692422748 -0.19098199999999999 -0.712087
2693908627 -0.2000936666666667 -0.7069193333333333
2695394506 -0.19095666666666666 -0.7070953333333333
2696880385 -0.18933033333333335 -0.7052783333333333
2698366264 -0.19459266666666666 -0.7020326666666667
2699852143 -0.18805933333333333 -0.6965403333333334
2701338022 -0.19892533333333332 -0.7007533333333332
2702823901 -0.18859366666666666 -0.7045666666666666
2704309780 -0.18833100000000003 -0.7036483333333333
2705795659 -0.188773 -0.7078443333333334
2707281538 -0.18642033333333333 -0.7079626666666666
2708767417 -0.18614866666666666 -0.7099989999999999
2710253296 -0.1883613333333333 -0.7094256666666666
2711739175 -0.18584466666666666 -0.7135293333333333
2713225054 -0.182478 -0.7093543333333333
2714710933 -0.18814733333333333 -0.713208
2716196812 -0.18426566666666666 -0.7129639999999999
2717682691 -0.18770900000000001 -0.7107823333333334
2719168570 -0.20167733333333335 -0.663946
2720654449 -0.18051000000000003 -0.705321
2722140328 -0.18303899999999998 -0.7049963333333333
2723626207 -0.18103166666666667 -0.7005416666666666
2725112086 -0.17252066666666666 -0.694695
2726597965 -0.18097333333333332 -0.6970086666666667
2728083844 -0.17862666666666668 -0.6904150000000001
2729569723 -0.17877066666666666 -0.6894363333333334
2731055602 -0.18123233333333333 -0.6907609999999998
2732541481 -0.18827000000000002 -0.6940406666666666
2734027360 -0.184967 -0.6946616666666667
2735513239 -0.18858266666666665 -0.699466
2736999118 -0.191079 -0.7042813333333333
2738484997 -0.19757933333333333 -0.7033046666666666
2739970876 -0.19142 -0.7039813333333332
2741456755 -0.196885 -0.7061873333333333
2742942634 -0.19760066666666667 -0.7074219999999999
2744428513 -0.1984796666666667 -0.7069506666666667
2745914392 -0.20408266666666666 -0.7135173333333333
2747400271 -0.20019166666666668 -0.7075596666666667
2748886150 -0.20434033333333335 -0.7086986666666667
2750372029 -0.20573866666666665 -0.7113113333333333
2751857908 -0.2119236666666667 -0.7116953333333335
2753343787 -0.20436900000000002 -0.7086370000000001
2754829666 -0.204636 -0.7082506666666667
2756315545 -0.20644033333333334 -0.7045673333333333
2757801424 -0.205825 -0.7062189999999999
2759287303 -0.21451966666666666 -0.7057933333333333
2760773182 -0.210195 -0.7058636666666667
2762259061 -0.21116366666666667 -0.7064879999999999
2763744940 -0.20691299999999999 -0.7099946666666667
2765230819 -0.206686 -0.7110886666666666
2766716698 -0.2136376666666667 -0.7145296666666666
2768202577 -0.20837766666666668 -0.716276
2769688456 -0.2094393333333333 -0.7155296666666667
2771174335 -0.20491299999999998 -0.716076
2772660214 -0.18693166666666663 -0.724837
2774146093 -0.20241166666666666 -0.7142080000000001
2775631972 -0.207561 -0.7131500000000001
2777117851 -0.19824833333333336 -0.7170000000000001
2778603730 -0.20524166666666668 -0.7147176666666667
2780089609 -0.20153866666666664 -0.7096256666666667
2781575488 -0.1991183333333333 -0.7100363333333334
2783061367 -0.20023899999999997 -0.7068816666666667
2784547246 -0.20020933333333332 -0.70342
2786033125 -0.19990300000000003 -0.7041789999999999
2787519004 -0.19829633333333332 -0.6979043333333333
2789004883 -0.19380699999999998 -0.6935563333333333
2790490762 -0.1962596666666667 -0.6912783333333333
2791976641 -0.19752233333333333 -0.6966856666666666
2793462520 -0.195035 -0.694838
2794948399 -0.201937 -0.697873
2796434278 -0.1984503333333333 -0.6987113333333334
2797920157 -0.207842 -0.7004276666666667
2799406036 -0.20487166666666667 -0.7026006666666667
2800891915 -0.20539666666666667 -0.7042763333333334
2802377794 -0.20899633333333334 -0.7062463333333332
2803863673 -0.20852666666666667 -0.701974
2805349552 -0.20856066666666664 -0.7032913333333334
2806835431 -0.20546299999999998 -0.7015473333333334
2808321310 -0.21176833333333334 -0.7045076666666666
2809807189 -0.21042533333333335 -0.7021256666666668
2811293068 -0.21042666666666668 -0.7005793333333333
2812778947 -0.21132433333333334 -0.6999556666666668
2814264826 -0.20863866666666667 -0.6974049999999999
2815750705 -0.213507 -0.6970739999999999
2817236584 -0.21226233333333333 -0.6919306666666666
2818722463 -0.2131173333333333 -0.6922093333333333
2820208342 -0.206897 -0.6882746666666666
2821694221 -0.2082453333333333 -0.6944466666666668
2823180100 -0.21122666666666667 -0.6946776666666666
2824665979 -0.214848 -0.7004173333333332
2826151858 -0.214257 -0.6995686666666666
2827637737 -0.210962 -0.6999230000000001
2829123616 -0.21400066666666664 -0.7052553333333332
2830609495 -0.21489900000000003 -0.699564
2832095374 -0.2071063333333333 -0.7004836666666666
2833581253 -0.20866433333333334 -0.700085
2835067132 -0.20860066666666666 -0.6996363333333333
2836553011 -0.20674066666666668 -0.697019
2838038890 -0.20920766666666668 -0.6982683333333334
2839524769 -0.20696599999999998 -0.6912636666666666
2841010648 -0.20674033333333333 -0.6907623333333333
2842496527 -0.20861866666666665 -0.6888476666666667
2843982406 -0.21195166666666668 -0.6916136666666667
2845468285 -0.21088966666666667 -0.6828943333333334
2846954164 -0.20671466666666669 -0.679666
2848440043 -0.20887699999999998 -0.6779966666666667
2849925922 -0.20665133333333333 -0.6730576666666668
2851411801 -0.20549933333333334 -0.6746686666666667
2852897680 -0.20692533333333332 -0.6766200000000001
2854383559 -0.21016899999999997 -0.6793963333333334
2855869438 -0.20828433333333332 -0.6821023333333333
2857355317 -0.2103246666666667 -0.684861
2858841196 -0.21053633333333333 -0.6869803333333334
2860327075 -0.210384 -0.6830836666666666
2861812954 -0.21160400000000001 -0.6868319999999999
2863298833 -0.20810966666666667 -0.6896753333333333
2864784712 -0.211117 -0.686922
2866270591 -0.20557 -0.6877583333333334
2867756470 -0.21719633333333332 -0.6731523333333334
2869242349 -0.21038566666666667 -0.6886226666666667
2870728228 -0.20736466666666664 -0.6863976666666667
2872214107 -0.2067756666666667 -0.682998
2873699986 -0.20547200000000002 -0.6825353333333334
2875185865 -0.20782799999999998 -0.6793956666666667
2876671744 -0.2056393333333333 -0.6780703333333333
2878157623 -0.20106066666666667 -0.6769556666666666
2879643502 -0.20246299999999998 -0.6748853333333334
2881129381 -0.20454000000000003 -0.6780526666666667
2882615260 -0.20604999999999998 -0.678293
2884101139 -0.20617699999999997 -0.6812243333333333
2885587018 -0.20753733333333332 -0.6835136666666667
2887072897 -0.204346 -0.683842
2888558776 -0.2079423333333333 -0.6863550000000002
2890044655 -0.21190633333333334 -0.6854676666666667
2891530534 -0.20705933333333335 -0.68811
2893016413 -0.212616 -0.6872726666666665
2894502292 -0.2077973333333333 -0.6893333333333334
2895988171 -0.21001366666666668 -0.6883016666666667
2897474050 -0.20659533333333335 -0.688664
2898959929 -0.20897100000000002 -0.687264
2900445808 -0.207693 -0.6899896666666666
2901931687 -0.20758266666666667 -0.6859303333333333
2903417566 -0.204995 -0.6849723333333334
2904903445 -0.20988966666666667 -0.6825566666666667
2906389324 -0.20726133333333333 -0.681242
2907875203 -0.207923 -0.678331
2909361082 -0.206386 -0.6777369999999999
2910846961 -0.20993366666666666 -0.6763113333333334
2912332840 -0.2090523333333333 -0.676586
2913818719 -0.209739 -0.6794026666666667
2915304598 -0.21411266666666665 -0.6777743333333333
2916790477 -0.21005933333333335 -0.6848263333333332
2918276356 -0.21166700000000002 -0.6829796666666667
2919762235 -0.21423333333333336 -0.683666
2921248114 -0.22648233333333334 -0.6806003333333334
2922733993 -0.216525 -0.6837560000000001
2924219872 -0.21481066666666668 -0.6826083333333334
2925705751 -0.21475433333333335 -0.6841223333333334
2927191630 -0.21523899999999999 -0.6819653333333333
2928677509 -0.21733533333333332 -0.6846589999999999
2930163388 -0.218576 -0.6795070000000001
2931649267 -0.21823633333333334 -0.677269
2933135146 -0.21649600000000002 -0.6751933333333334
2934621025 -0.21891366666666667 -0.6749243333333333
2936106904 -0.21783866666666665 -0.6755433333333333
2937592783 -0.2210696666666667 -0.6710793333333332
2939078662 -0.22554366666666667 -0.6644576666666667
2940564541 -0.22443466666666667 -0.666762
2942050420 -0.22084499999999999 -0.6699733333333334
2943536299 -0.22382466666666664 -0.671531
2945022178 -0.22535933333333333 -0.6762243333333333
2946508057 -0.227326 -0.6735496666666666
2947993936 -0.225209 -0.673747
2949479815 -0.22579766666666667 -0.6779606666666668
2950965694 -0.227033 -0.6784663333333333
2952451573 -0.22791566666666666 -0.6772056666666666
2953937452 -0.22737166666666667 -0.6779423333333333
2955423331 -0.22666766666666668 -0.6777673333333333
2956909210 -0.22638066666666667 -0.6788656666666667
2958395089 -0.22208366666666668 -0.6784343333333333
2959880968 -0.22163233333333335 -0.6756986666666668
2961366847 -0.22460999999999998 -0.6723529999999999
2962852726 -0.22205366666666668 -0.6788953333333333
2964338605 -0.222287 -0.6710256666666666
2965824484 -0.2212333333333333 -0.6710056666666667
2967310363 -0.221006 -0.665954
2968796242 -0.22054933333333335 -0.6675216666666667
2970282121 -0.221915 -0.6605426666666667
2971768000 -0.2219 -0.6653
2973253879 -0.221499 -0.6657333333333333
2974739758 -0.22271933333333335 -0.6690696666666667
2976225637 -0.219997 -0.6709556666666666
2977711516 -0.21824033333333334 -0.6732513333333334
2979197395 -0.219997 -0.6755556666666668
2980683274 -0.22407133333333337 -0.668358
2982169153 -0.21802000000000002 -0.6757586666666667
2983655032 -0.21988266666666667 -0.6681333333333334
2985140911 -0.21635266666666664 -0.6765636666666667
2986626790 -0.218378 -0.6749526666666666
2988112669 -0.2187606666666667 -0.6709916666666667
2989598548 -0.2111603333333333 -0.6758339999999999
2991084427 -0.21449700000000002 -0.6679673333333334
2992570306 -0.21270266666666668 -0.6668313333333332
2994056185 -0.21127833333333335 -0.6690383333333333
2995542064 -0.20936433333333335 -0.6672016666666666
2997027943 -0.20769866666666667 -0.662471
2998513822 -0.20492433333333335 -0.6591336666666666
2999999701 -0.210155 -0.652436
