# HZ S RI R 50
10000 1.14065 -0.036802
1495879 0.8167366666666666 1.3108543333333333
2981758 0.5779323333333334 0.6882676666666666
4467637 0.5808116666666667 0.3263973333333334
5953516 0.6514476666666665 0.13654566666666665
7439395 0.743491 0.011892666666666668
8925274 1.0579046666666667 -0.061312
10411153 1.0965093333333333 0.037855
11897032 1.0840813333333332 0.168689
13382911 1.0155446666666668 0.291441
14868790 0.9130816666666667 0.3778376666666667
16354669 0.8012476666666667 0.4239513333333333
17840548 0.69719 0.43784333333333336
19326427 0.608364 0.4305193333333333
20812306 0.5353406666666666 0.412294
22298185 0.476748 0.38823266666666667
23784064 0.4297233333333333 0.36209766666666665
25269943 0.39119400000000004 0.336536
26755822 0.360233 0.31133266666666665
28241701 0.33415533333333336 0.28770333333333337
29727580 0.31270533333333334 0.26607533333333333
31213459 0.3228223333333333 0.2505653333333333
32699338 0.33914099999999997 0.23590033333333335
34185217 0.3543163333333333 0.22231533333333334
35671096 0.36924599999999996 0.206211
37156975 0.3843303333333334 0.18729466666666664
38642854 0.398282 0.17037433333333332
40128733 0.41261233333333336 0.14718666666666666
41614612 0.424935 0.13554166666666667
43100491 0.438255 0.11325566666666669
44586370 0.45125533333333334 0.09493433333333333
46072249 0.46503266666666665 0.07121666666666666
47558128 0.479433 0.054154
49044007 0.49543299999999996 0.036538
50529886 0.514496 0.021924333333333334
52015765 0.535726 -0.007957666666666667
53501644 0.5644783333333333 -0.027179
54987523 0.6019413333333333 -0.053181
56473402 0.6542356666666667 -0.09246866666666666
57959281 0.742177 -0.110554
59445160 0.9002659999999999 -0.09477600000000001
60931039 0.9960476666666667 -0.06737066666666666
62416918 0.999015 -0.07810600000000001
63902797 1.0019263333333333 -0.08756066666666666
65388676 1.0040993333333332 -0.09631533333333332
66874555 1.007761 -0.094102
68360434 0.9997056666666667 -0.178858
69846313 1.012185 -0.07269099999999999
71332192 1.0144250000000001 -0.06768066666666667
72818071 1.0123663333333333 -0.11268466666666667
74303950 1.013806 -0.10485
75789829 1.0166633333333335 -0.037618
77275708 1.0158933333333333 -0.04706266666666666
78761587 1.0163023333333332 -0.041667666666666665
80247466 1.0045706666666667 -0.15900233333333333
81733345 1.008377 -0.111113
83219224 1.0049383333333333 -0.123365
84705103 0.9986603333333334 -0.149284
86190982 1.0054743333333331 -0.024458333333333332
87676861 0.9934609999999999 -0.14091266666666666
89162740 0.992251 -0.11632466666666667
90648619 0.9896593333333333 -0.135237
92134498 0.9936586666666667 -0.13482633333333335
93620377 1.0002449999999998 -0.10245
95106256 0.9994303333333333 -0.13016766666666665
96592135 1.0022053333333334 -0.13055566666666665
98078014 1.0047806666666668 -0.12661199999999997
99563893 1.006213 -0.123338
101049772 1.0062943333333332 -0.13740166666666667
102535651 1.007191 -0.14050866666666667
104021530 1.0069616666666665 -0.14038966666666666
105507409 1.007347 -0.14287766666666668
106993288 1.0056303333333332 -0.14360799999999999
108479167 1.005168 -0.14589833333333335
109965046 1.0038453333333335 -0.14619066666666666
111450925 1.0016546666666668 -0.1478866666666667
112936804 0.9988586666666667 -0.14928366666666668
114422683 0.9975186666666667 -0.15046233333333334
115908562 0.9932273333333334 -0.151645
117394441 0.9905003333333333 -0.151925
118880320 0.9860126666666668 -0.15148733333333333
120366199 0.9841536666666667 -0.15451533333333334
121852078 0.9887043333333333 -0.157169
123337957 0.9922806666666667 -0.16027233333333332
124823836 0.9953920000000002 -0.16235166666666667
126309715 0.9981113333333332 -0.16502166666666665
127795594 1.0007856666666666 -0.16860666666666668
129281473 1.004727 -0.16960633333333333
130767352 1.0057693333333333 -0.17124566666666666
132253231 1.0069253333333334 -0.17392833333333332
133739110 1.0095283333333334 -0.17490133333333335
135224989 0.9911953333333333 -0.185957
136710868 0.9914203333333335 -0.18694866666666665
138196747 0.991516 -0.18828333333333336
139682626 0.9913213333333334 -0.18950533333333333
141168505 0.989868 -0.19060866666666665
142654384 0.9884293333333334 -0.19023466666666666
144140263 0.986253 -0.19156433333333334
145626142 0.984311 -0.1920386666666667
147112021 0.9816706666666667 -0.19321733333333335
148597900 0.9782746666666666 -0.19373633333333332
150083779 0.9756186666666666 -0.19467333333333334
151569658 0.978238 -0.197971
153055537 0.9807726666666666 -0.19964099999999999
154541416 0.984007 -0.20247766666666667
156027295 0.9860143333333333 -0.20458033333333334
157513174 0.9877416666666666 -0.20717433333333332
158999053 0.989856 -0.20822933333333335
160484932 0.9895163333333334 -0.21025933333333333
161970811 0.9898570000000001 -0.21186966666666665
163456690 0.9908893333333334 -0.21432366666666666
164942569 0.9904023333333334 -0.21509066666666668
166428448 0.9898553333333333 -0.2167393333333333
167914327 0.988338 -0.21835233333333334
169400206 0.9877186666666667 -0.220095
170886085 0.9854026666666668 -0.221307
172371964 0.9845723333333334 -0.22297266666666668
173857843 0.983498 -0.21799500000000002
175343722 0.977754 -0.2247593333333333
176829601 0.974005 -0.22589433333333334
178315480 0.9709669999999999 -0.22800966666666667
179801359 0.9668360000000001 -0.229742
181287238 0.9688283333333333 -0.23230766666666666
182773117 0.9719436666666667 -0.23531100000000002
184258996 0.9748806666666666 -0.237336
185744875 0.9774526666666666 -0.23916633333333334
187230754 0.9787246666666666 -0.24110533333333337
188716633 0.9800369999999999 -0.24429166666666666
190202512 0.9817433333333333 -0.2453236666666667
191688391 0.9820483333333333 -0.247515
193174270 0.9824796666666668 -0.24902633333333335
194660149 0.9827696666666667 -0.25118366666666664
196146028 0.9820523333333333 -0.2518656666666667
197631907 0.981116 -0.253927
199117786 0.97866 -0.25512566666666664
200603665 0.9774696666666666 -0.2567686666666667
202089544 0.9745466666666668 -0.25824633333333336
203575423 0.9729040000000001 -0.25994066666666665
205061302 0.9683596666666667 -0.2614186666666667
206547181 0.964915 -0.26328766666666664
208033060 0.9609783333333333 -0.26489633333333334
209518939 0.9565053333333333 -0.2675403333333333
211004818 0.9572093333333335 -0.26936200000000005
212490697 0.9606913333333335 -0.27136733333333335
213976576 0.9635686666666666 -0.27466433333333334
215462455 0.9668926666666667 -0.27701000000000003
216948334 0.9676580000000001 -0.279035
218434213 0.969907 -0.281807
219920092 0.9714423333333334 -0.283188
221405971 0.9723616666666667 -0.28467766666666666
222891850 0.9724993333333333 -0.2866606666666667
224377729 0.9725126666666667 -0.2884956666666667
225863608 0.9359866666666666 -0.3026143333333333
227349487 0.9705516666666667 -0.29073200000000005
228835366 0.968822 -0.29248100000000005
230321245 0.9672653333333333 -0.2940610000000001
231807124 0.9637783333333333 -0.29499000000000003
233293003 0.9611783333333334 -0.29716933333333334
234778882 0.9574013333333333 -0.29888
236264761 0.95423 -0.299764
237750640 0.949112 -0.30184300000000003
239236519 0.9445246666666667 -0.30276600000000004
240722398 0.9434649999999999 -0.30558033333333334
242208277 0.9471523333333334 -0.30858599999999997
243694156 0.9507859999999999 -0.3112696666666666
245180035 0.9528453333333333 -0.3141703333333334
246665914 0.955888 -0.3165096666666667
248151793 0.9572633333333332 -0.31876499999999997
249637672 0.9588616666666668 -0.31985199999999997
251123551 0.9600446666666667 -0.322671
252609430 0.9607346666666666 -0.3235146666666667
254095309 0.9592369999999999 -0.32524566666666666
255581188 0.9595606666666668 -0.32661566666666664
257067067 0.9582386666666666 -0.3281056666666667
258552946 0.956706 -0.3289876666666667
260038825 0.9545546666666667 -0.33035966666666666
261524704 0.9519446666666666 -0.331671
263010583 0.9480689999999999 -0.332873
264496462 0.9441763333333334 -0.3337573333333333
265982341 0.9407243333333334 -0.3354063333333334
267468220 0.9358190000000001 -0.33579133333333333
268954099 0.9304209999999999 -0.33776233333333333
270439978 0.9276553333333334 -0.33857866666666664
271925857 0.9317799999999999 -0.3433106666666667
273411736 0.9346096666666667 -0.3465676666666666
274897615 0.937735 -0.34963800000000006
276383494 0.9400083333333332 -0.3521916666666667
277869373 0.942348 -0.355123
279355252 0.9446356666666667 -0.35731399999999996
280841131 0.9443263333333333 -0.358389
282327010 0.945183 -0.3617076666666667
283812889 0.9454353333333333 -0.3613756666666667
285298768 0.944937 -0.3640016666666666
286784647 0.9435276666666667 -0.364914
288270526 0.9421016666666667 -0.3659956666666666
289756405 0.9401700000000001 -0.366999
291242284 0.9376406666666667 -0.36852833333333335
292728163 0.9339186666666667 -0.3695313333333334
294214042 0.930613 -0.37022266666666664
295699921 0.9264693333333334 -0.37055533333333335
297185800 0.9219283333333332 -0.370527
298671679 0.9162296666666666 -0.3720626666666667
300157558 0.9112636666666667 -0.37345333333333336
301643437 0.9152619999999999 -0.37686200000000003
303129316 0.9187853333333332 -0.3813533333333334
304615195 0.9212346666666668 -0.38505666666666666
306101074 0.9245243333333334 -0.386927
307586953 0.9257373333333333 -0.39049
309072832 0.9275706666666667 -0.39291366666666666
310558711 0.9277936666666666 -0.394347
312044590 0.929307 -0.39697033333333326
313530469 0.9298353333333332 -0.3975356666666667
315016348 0.9285236666666666 -0.3996206666666666
316502227 0.9287786666666666 -0.400564
317988106 0.9270576666666667 -0.4005796666666666
319473985 0.9244660000000001 -0.401632
320959864 0.9215443333333333 -0.40198
322445743 0.9199256666666668 -0.4036766666666667
323931622 0.9155030000000001 -0.4040336666666666
325417501 0.9109449999999999 -0.40353666666666665
326903380 0.9065873333333334 -0.4035476666666667
328389259 0.901878 -0.40358399999999994
329875138 0.8960623333333334 -0.40390299999999996
331361017 0.8968866666666667 -0.40929533333333334
332846896 0.901901 -0.41292466666666666
334332775 0.9039733333333334 -0.415661
335818654 0.9049956666666666 -0.4198523333333333
337304533 0.9066143333333333 -0.42206799999999994
338790412 0.9077756666666668 -0.424817
340276291 0.9089163333333333 -0.42766
341762170 0.9088216666666667 -0.429265
343248049 0.9079959999999999 -0.43074866666666667
344733928 0.9079453333333333 -0.43290300000000004
346219807 0.9029563333333334 -0.438367
347705686 0.9051823333333333 -0.4351453333333333
349191565 0.9029316666666666 -0.43610466666666664
350677444 0.9003363333333333 -0.4357006666666667
352163323 0.89719 -0.4363956666666667
353649202 0.8939113333333334 -0.4368863333333333
355135081 0.8890596666666667 -0.4355343333333333
356620960 0.8852289999999999 -0.43610299999999996
358106839 0.8802946666666666 -0.436979
359592718 0.873952 -0.43687633333333337
361078597 0.8748106666666667 -0.440048
362564476 0.877546 -0.444811
364050355 0.8788943333333333 -0.44850133333333336
365536234 0.8810763333333332 -0.45228699999999994
367022113 0.8832 -0.4542603333333333
368507992 0.8844623333333334 -0.457844
369993871 0.8859033333333333 -0.45982000000000006
371479750 0.8852626666666666 -0.4626683333333334
372965629 0.8856679999999999 -0.46427100000000004
374451508 0.8852123333333334 -0.46502666666666664
375937387 0.8850236666666667 -0.46597599999999995
377423266 0.883728 -0.46675300000000003
378909145 0.8811786666666667 -0.468481
380395024 0.8801716666666666 -0.4674846666666666
381880903 0.876901 -0.4685253333333333
383366782 0.87389 -0.4688406666666667
384852661 0.8706296666666667 -0.46847833333333333
386338540 0.8665383333333333 -0.468138
387824419 0.8617340000000001 -0.46741133333333335
389310298 0.8570713333333333 -0.46650566666666665
390796177 0.8559683333333333 -0.46869099999999997
392282056 0.8581113333333333 -0.47377899999999995
393767935 0.86029 -0.4765103333333333
395253814 0.8619280000000001 -0.48050466666666664
396739693 0.862944 -0.4834336666666667
398225572 0.8641443333333333 -0.4867533333333333
399711451 0.8648013333333333 -0.48880066666666666
401197330 0.8645726666666667 -0.4902666666666667
402683209 0.8645636666666666 -0.49259000000000003
404169088 0.8656969999999999 -0.49359633333333336
405654967 0.8639783333333334 -0.495084
407140846 0.8622796666666667 -0.49583299999999997
408626725 0.8607053333333333 -0.496591
410112604 0.860271 -0.496555
411598483 0.8562503333333334 -0.49781733333333333
413084362 0.8539446666666667 -0.4977293333333333
414570241 0.8510466666666666 -0.49636233333333335
416056120 0.847836 -0.4958546666666666
417541999 0.8419506666666666 -0.4963423333333334
419027878 0.8379976666666668 -0.49496466666666666
420513757 0.8358923333333333 -0.4959166666666666
421999636 0.837851 -0.4999186666666667
423485515 0.8402463333333333 -0.5033409999999999
424971394 0.8408503333333334 -0.5084406666666667
426457273 0.8423826666666666 -0.5093666666666666
427943152 0.8423623333333333 -0.5148036666666667
429429031 0.8430399999999999 -0.5157956666666667
430914910 0.8428296666666667 -0.519032
432400789 0.8438693333333335 -0.52011
433886668 0.8427213333333334 -0.5219753333333333
435372547 0.8422109999999999 -0.5227053333333332
436858426 0.8400850000000001 -0.5245673333333333
438344305 0.8384206666666666 -0.52463
439830184 0.8369796666666667 -0.5255553333333333
441316063 0.8340586666666668 -0.5258096666666666
442801942 0.8321366666666666 -0.525471
444287821 0.8288806666666666 -0.5255146666666667
445773700 0.824992 -0.5250133333333333
447259579 0.821233 -0.5250066666666667
448745458 0.8167543333333334 -0.5246823333333334
450231337 0.812307 -0.5245993333333333
451717216 0.8144636666666667 -0.5281196666666667
453203095 0.8186673333333333 -0.5309506666666667
454688974 0.8185696666666665 -0.534392
456174853 0.8183686666666666 -0.5396586666666666
457660732 0.820163 -0.5402203333333334
459146611 0.819572 -0.542689
460632490 0.8195396666666667 -0.544143
462118369 0.8219863333333333 -0.5461156666666667
463604248 0.8210160000000001 -0.5465559999999999
465090127 0.8193103333333335 -0.548748
466576006 0.8193523333333333 -0.548694
468061885 0.8177993333333333 -0.5500406666666667
469547764 0.8155253333333334 -0.5501010000000001
471033643 0.8128373333333334 -0.5503593333333333
472519522 0.8094766666666665 -0.550404
474005401 0.8069419999999999 -0.54928
475491280 0.8037616666666666 -0.5493003333333334
476977159 0.8003066666666667 -0.5482779999999999
478463038 0.791061 -0.5518876666666667
479948917 0.774655 -0.5641486666666666
481434796 0.7971326666666667 -0.5475043333333334
482920675 0.7939606666666666 -0.5549029999999999
484406554 0.7955203333333333 -0.557254
485892433 0.7974186666666666 -0.5608673333333333
487378312 0.7982466666666667 -0.5633156666666667
488864191 0.7982686666666666 -0.5651316666666667
490350070 0.796119 -0.5725826666666667
491835949 0.7985506666666667 -0.5689553333333334
493321828 0.7982203333333334 -0.570831
494807707 0.7987803333333333 -0.570869
496293586 0.798455 -0.5727846666666666
497779465 0.7961999999999999 -0.5731256666666665
499265344 0.793929 -0.5727253333333333
500751223 0.7919803333333334 -0.5739426666666666
502237102 0.7891576666666666 -0.5731890000000001
503722981 0.7869356666666666 -0.5739176666666667
505208860 0.783327 -0.5726680000000001
506694739 0.7793416666666667 -0.5718036666666667
508180618 0.7744423333333333 -0.5718976666666666
509666497 0.7704963333333333 -0.5706146666666666
511152376 0.7701250000000001 -0.57375
512638255 0.772656 -0.5779696666666666
514124134 0.773443 -0.5812536666666667
515610013 0.7755839999999999 -0.5842726666666667
517095892 0.7752736666666667 -0.5865596666666666
518581771 0.777393 -0.5877236666666668
520067650 0.7765846666666668 -0.591447
521553529 0.7773486666666667 -0.5929636666666668
523039408 0.7690733333333334 -0.6026066666666666
524525287 0.7771136666666667 -0.5952436666666666
526011166 0.7711039999999999 -0.599317
527497045 0.7744590000000001 -0.5963600000000001
528982924 0.767837 -0.600808
530468803 0.7738316666666667 -0.5923303333333333
531954682 0.762648 -0.6006826666666666
533440561 0.765594 -0.5965333333333332
534926440 0.7613223333333333 -0.5971426666666667
536412319 0.7530579999999999 -0.59941
537898198 0.7523743333333334 -0.5956100000000001
539384077 0.7437100000000001 -0.5977990000000001
540869956 0.7476913333333334 -0.5958316666666666
542355835 0.7452283333333334 -0.601908
543841714 0.7506136666666666 -0.601355
545327593 0.7491123333333333 -0.6063256666666667
546813472 0.7541056666666667 -0.603773
548299351 0.7511573333333335 -0.6107576666666666
549785230 0.7550403333333332 -0.6075446666666666
551271109 0.7511176666666666 -0.6122230000000001
552756988 0.7559239999999999 -0.6073113333333333
554242867 0.7512966666666667 -0.611938
555728746 0.7532359999999999 -0.607688
557214625 0.7495793333333333 -0.6115283333333333
558700504 0.7502730000000001 -0.6073066666666667
560186383 0.7437723333333333 -0.6103493333333333
561672262 0.7447520000000001 -0.6040476666666666
563158141 0.738219 -0.607119
564644020 0.738092 -0.601732
566129899 0.7301313333333335 -0.6035026666666666
567615778 0.728863 -0.5981296666666667
569101657 0.7255983333333335 -0.595948
570587536 0.7229456666666666 -0.597086
572073415 0.7224976666666666 -0.6028143333333333
573559294 0.7246546666666666 -0.6061846666666667
575045173 0.7236823333333334 -0.6120916666666667
576531052 0.72514 -0.614252
578016931 0.7262223333333333 -0.618551
579502810 0.724853 -0.6221996666666667
580988689 0.7248386666666667 -0.6253050000000001
582474568 0.7239276666666669 -0.627134
583960447 0.7231696666666666 -0.6286936666666666
585446326 0.7217733333333333 -0.6311723333333333
586932205 0.7209846666666667 -0.6322166666666668
588418084 0.7178456666666667 -0.6346153333333332
589903963 0.714989 -0.6363023333333334
591389842 0.7136290000000001 -0.635493
592875721 0.7098766666666666 -0.6359806666666666
594361600 0.7075556666666666 -0.6361423333333334
595847479 0.7027696666666667 -0.6365413333333333
597333358 0.6988826666666667 -0.6358986666666666
598819237 0.6943213333333333 -0.635926
600305116 0.6906303333333333 -0.6362593333333333
601790995 0.6915056666666667 -0.6402193333333334
603276874 0.6929466666666667 -0.6444276666666666
604762753 0.694871 -0.6484813333333334
606248632 0.6949086666666666 -0.6514730000000001
607734511 0.695758 -0.6543773333333333
609220390 0.6975336666666667 -0.6569336666666666
610706269 0.6968636666666667 -0.6589346666666667
612192148 0.6972006666666667 -0.6598806666666667
613678027 0.6974146666666666 -0.661652
615163906 0.6964670000000001 -0.6624523333333333
616649785 0.6951116666666666 -0.6636223333333333
618135664 0.6948120000000001 -0.6626833333333333
619621543 0.6923303333333334 -0.663666
621107422 0.6910089999999999 -0.661694
622593301 0.6891123333333334 -0.660397
624079180 0.6868726666666668 -0.6601560000000001
625565059 0.6831343333333334 -0.658551
627050938 0.679732 -0.6569756666666667
628536817 0.6752366666666667 -0.655408
630022696 0.713815 -0.6796289999999999
631508575 0.6726526666666667 -0.6582856666666667
632994454 0.6734566666666666 -0.6624203333333333
634480333 0.674973 -0.667196
635966212 0.6765566666666666 -0.6681316666666666
637452091 0.6757586666666667 -0.6720116666666667
638937970 0.6770103333333334 -0.6741606666666667
640423849 0.6776776666666667 -0.6768183333333333
641909728 0.6862906666666667 -0.6731760000000001
643395607 0.6767173333333333 -0.6801226666666667
644881486 0.6758833333333333 -0.6800623333333333
646367365 0.675103 -0.682009
647853244 0.6735853333333334 -0.6822286666666667
649339123 0.6729123333333332 -0.6819046666666667
650825002 0.6713403333333333 -0.6803593333333334
652310881 0.6705963333333332 -0.6775663333333334
653796760 0.6655323333333333 -0.677952
655282639 0.6626980000000001 -0.6765686666666667
656768518 0.6592443333333333 -0.6751256666666666
658254397 0.655479 -0.6716289999999999
659740276 0.6522073333333333 -0.6701663333333333
661226155 0.6510776666666667 -0.6736133333333333
662712034 0.653539 -0.6769630000000001
664197913 0.6543163333333334 -0.6799056666666666
665683792 0.6551653333333333 -0.6849673333333334
667169671 0.6544563333333332 -0.686635
668655550 0.6572993333333333 -0.6898883333333333
670141429 0.652049 -0.6948583333333334
671627308 0.6573429999999999 -0.6939076666666667
673113187 0.658122 -0.6937246666666667
674599066 0.6575363333333333 -0.6941213333333334
676084945 0.655996 -0.6944773333333334
677570824 0.6549159999999999 -0.6936239999999999
679056703 0.6537533333333333 -0.6945583333333333
680542582 0.6534746666666668 -0.6927600000000002
682028461 0.6511733333333334 -0.6908493333333333
683514340 0.6498736666666667 -0.69009
685000219 0.6479936666666667 -0.6881360000000001
686486098 0.6442456666666666 -0.685648
687971977 0.6403403333333334 -0.6823873333333333
689457856 0.6371086666666667 -0.682705
690943735 0.6353853333333332 -0.6832373333333334
692429614 0.6351203333333334 -0.6873589999999999
693915493 0.6351116666666666 -0.6915133333333333
695401372 0.6358943333333333 -0.6928316666666666
696887251 0.6368773333333334 -0.6965626666666668
698373130 0.6334733333333333 -0.700116
699859009 0.6345003333333333 -0.7020716666666665
701344888 0.6335623333333333 -0.7024396666666667
702830767 0.631765 -0.7048466666666666
704316646 0.6299526666666666 -0.7061129999999999
705802525 0.630956 -0.7057913333333333
707288404 0.6253383333333333 -0.7080323333333333
708774283 0.6248159999999999 -0.706617
710260162 0.6217630000000001 -0.7076326666666667
711746041 0.619306 -0.7089406666666666
713231920 0.617632 -0.7071016666666666
714717799 0.614827 -0.7057910000000001
716203678 0.6116053333333333 -0.704698
717689557 0.6062083333333333 -0.7043723333333333
719175436 0.6025809999999999 -0.7005686666666667
720661315 0.5989606666666667 -0.703126
722147194 0.6032806666666666 -0.7059003333333332
723633073 0.6028476666666667 -0.710228
725118952 0.602756 -0.7127423333333334
726604831 0.6030943333333334 -0.7155436666666667
728090710 0.6027456666666667 -0.7173513333333333
729576589 0.6021066666666667 -0.7201883333333333
731062468 0.604138 -0.7217743333333333
732548347 0.603734 -0.72368
734034226 0.6022693333333334 -0.7243886666666667
735520105 0.6020616666666667 -0.7247906666666667
737005984 0.5985506666666667 -0.7268446666666666
738491863 0.5986263333333334 -0.7249653333333334
739977742 0.5969886666666667 -0.7234273333333334
741463621 0.5941200000000001 -0.7247370000000001
742949500 0.5921436666666667 -0.7242456666666666
744435379 0.5895279999999999 -0.7220583333333334
745921258 0.5864363333333333 -0.721895
747407137 0.5846136666666667 -0.7188406666666668
748893016 0.5808196666666666 -0.7170996666666668
750378895 0.577913 -0.7173323333333332
751864774 0.5787373333333333 -0.7203933333333333
753350653 0.578046 -0.7237139999999999
754836532 0.5789033333333333 -0.7266766666666667
756322411 0.5779273333333332 -0.7301413333333334
757808290 0.5794633333333333 -0.7311683333333333
759294169 0.5778943333333334 -0.7343413333333334
760780048 0.5779436666666667 -0.7356376666666667
762265927 0.5779556666666666 -0.7368893333333334
763751806 0.5757346666666666 -0.7378733333333334
765237685 0.5754036666666666 -0.7391193333333334
766723564 0.5746016666666666 -0.7376406666666667
768209443 0.5739663333333334 -0.7383166666666666
769695322 0.5379723333333334 -0.7173409999999999
771181201 0.5685233333333334 -0.7368726666666667
772667080 0.5668700000000001 -0.7357956666666666
774152959 0.5637503333333332 -0.733421
775638838 0.5611036666666667 -0.7321696666666666
777124717 0.5516853333333334 -0.7351686666666667
778610596 0.53583 -0.734671
780096475 0.5484616666666667 -0.7279386666666667
781582354 0.5501413333333334 -0.7309153333333334
783068233 0.5509713333333334 -0.7344596666666666
784554112 0.5476853333333334 -0.7407296666666667
786039991 0.547254 -0.7436196666666667
787525870 0.5486563333333333 -0.7457806666666666
789011749 0.548399 -0.747669
790497628 0.5486526666666666 -0.748614
791983507 0.5481889999999999 -0.7504526666666665
793469386 0.548561 -0.7509243333333334
794955265 0.547524 -0.7520913333333333
796441144 0.5474963333333334 -0.752546
797927023 0.5460006666666667 -0.751477
799412902 0.5460273333333334 -0.7497956666666665
800898781 0.5419936666666666 -0.749926
802384660 0.540624 -0.7477143333333333
803870539 0.5399236666666667 -0.7459603333333334
805356418 0.5403056666666667 -0.7417013333333333
806842297 0.5378476666666666 -0.7394916666666665
808328176 0.5351666666666667 -0.7369643333333333
809814055 0.531254 -0.73415
811299934 0.5303653333333332 -0.7375573333333335
812785813 0.5321863333333333 -0.7399653333333333
814271692 0.5301896666666667 -0.7455496666666667
815757571 0.5301836666666667 -0.7487066666666667
817243450 0.5314073333333333 -0.7510843333333334
818729329 0.5358269999999999 -0.7511873333333333
820215208 0.525528 -0.7577016666666667
821701087 0.5538043333333333 -0.7470286666666667
823186966 0.5495666666666666 -0.7600146666666667
824672845 0.5329410000000001 -0.7570453333333335
826158724 0.5221206666666666 -0.761149
827644603 0.5305823333333334 -0.7569336666666667
829130482 0.519963 -0.7596546666666666
830616361 0.5253143333333333 -0.7569313333333333
832102240 0.5155406666666668 -0.7608916666666667
833588119 0.5232756666666666 -0.7516856666666666
835073998 0.5102046666666666 -0.756332
836559877 0.5161876666666667 -0.7497699999999999
838045756 0.5054303333333333 -0.7528353333333334
839531635 0.5097823333333333 -0.7452986666666667
841017514 0.499686 -0.7522863333333333
842503393 0.5096213333333334 -0.7512503333333332
843989272 0.500978 -0.7596263333333333
845475151 0.5114846666666666 -0.759592
846961030 0.5007436666666667 -0.7657206666666667
848446909 0.5112070000000001 -0.7641140000000001
849932788 0.5027776666666667 -0.7707776666666667
851418667 0.5110096666666667 -0.7694123333333334
852904546 0.49921599999999994 -0.7748370000000001
854390425 0.5102833333333333 -0.7717310000000001
855876304 0.501453 -0.7746933333333333
857362183 0.5104016666666666 -0.7689976666666666
858848062 0.4973703333333334 -0.7742603333333333
860333941 0.5061513333333334 -0.769948
861819820 0.49402133333333337 -0.7735013333333333
863305699 0.49787999999999993 -0.7680523333333333
864791578 0.4960343333333333 -0.7651853333333333
866277457 0.4910023333333333 -0.764657
867763336 0.48760699999999996 -0.7626663333333333
869249215 0.4860503333333333 -0.7592409999999999
870735094 0.48343733333333333 -0.7601853333333333
872220973 0.48424833333333334 -0.7645970000000001
873706852 0.48351633333333327 -0.768214
875192731 0.4829313333333334 -0.7724773333333333
876678610 0.484432 -0.7736623333333332
878164489 0.4839556666666667 -0.7775836666666667
879650368 0.48297166666666663 -0.779899
881136247 0.48291833333333334 -0.780836
882622126 0.481609 -0.7826733333333333
884108005 0.4821243333333333 -0.7821566666666667
885593884 0.4817816666666666 -0.7822386666666667
887079763 0.48212799999999995 -0.783408
888565642 0.47872433333333336 -0.7829536666666668
890051521 0.4782330000000001 -0.7803013333333334
891537400 0.4758386666666667 -0.7801870000000001
893023279 0.47638800000000003 -0.7773516666666668
894509158 0.4706270000000001 -0.776987
895995037 0.4692256666666667 -0.7731830000000001
897480916 0.46755299999999994 -0.7719710000000001
898966795 0.4664216666666667 -0.7676876666666667
900452674 0.45995633333333336 -0.768316
901938553 0.45988133333333336 -0.7730523333333333
903424432 0.461421 -0.7753773333333333
904910311 0.4620923333333333 -0.7772813333333333
906396190 0.46179533333333334 -0.7811206666666667
907882069 0.4582903333333333 -0.7827416666666668
909367948 0.460135 -0.784898
910853827 0.460156 -0.787134
912339706 0.456504 -0.7888736666666668
913825585 0.45711366666666664 -0.7888393333333333
915311464 0.45429766666666666 -0.7887913333333335
916797343 0.45650033333333334 -0.7898456666666668
918283222 0.45337066666666664 -0.7888596666666667
919769101 0.424002 -0.783284
921254980 0.45017166666666664 -0.7886660000000001
922740859 0.449438 -0.7850966666666667
924226738 0.44843066666666664 -0.7832713333333334
925712617 0.444433 -0.7801326666666667
927198496 0.440128 -0.7794963333333333
928684375 0.44042166666666666 -0.7757109999999999
930170254 0.43756466666666666 -0.7727340000000001
931656133 0.43635566666666664 -0.7778903333333332
933142012 0.437781 -0.7805126666666666
934627891 0.43755533333333335 -0.7839356666666667
936113770 0.4362966666666667 -0.7873939999999999
937599649 0.436973 -0.7894450000000001
939085528 0.43770133333333333 -0.7911253333333335
940571407 0.43635466666666667 -0.7925049999999999
942057286 0.437259 -0.7944096666666667
943543165 0.436745 -0.7951963333333333
945029044 0.4363033333333333 -0.7955260000000001
946514923 0.437505 -0.7946819999999999
948000802 0.43605 -0.7954543333333333
949486681 0.434917 -0.7935543333333334
950972560 0.43426500000000007 -0.7937533333333334
952458439 0.4329133333333333 -0.7917230000000001
953944318 0.4276343333333334 -0.7926963333333333
955430197 0.42918366666666663 -0.7882453333333334
956916076 0.42860766666666666 -0.7860696666666667
958401955 0.426936 -0.78287
959887834 0.4240386666666667 -0.7800963333333334
961373713 0.42263500000000004 -0.7838576666666667
962859592 0.4213643333333333 -0.7880586666666667
964345471 0.4220723333333334 -0.7895343333333334
965831350 0.42502700000000004 -0.7913006666666668
967317229 0.420518 -0.7956206666666666
968803108 0.420984 -0.7962863333333333
970288987 0.4206273333333333 -0.7979033333333333
971774866 0.419372 -0.7999693333333333
973260745 0.428961 -0.7975516666666667
974746624 0.4181713333333333 -0.8006843333333333
976232503 0.414582 -0.8026616666666667
977718382 0.413983 -0.8012696666666667
979204261 0.4148213333333333 -0.7997876666666667
980690140 0.4122703333333333 -0.7996416666666667
982176019 0.4094973333333333 -0.798502
983661898 0.4085213333333333 -0.7965749999999999
985147777 0.405541 -0.795656
986633656 0.40370766666666663 -0.793714
988119535 0.4003826666666666 -0.791852
989605414 0.39908933333333335 -0.7882150000000001
991091293 0.399415 -0.78947
992577172 0.39707 -0.7936616666666666
994063051 0.39936166666666667 -0.795772
995548930 0.39848633333333333 -0.7975023333333334
997034809 0.39758200000000005 -0.8008633333333334
998520688 0.39686033333333337 -0.8026110000000001
1000006567 0.39504633333333333 -0.804122
1001492446 0.39476266666666665 -0.8040280000000001
1002978325 0.3965783333333333 -0.8042216666666665
1004464204 0.39504633333333333 -0.8048756666666667
1005950083 0.39367866666666673 -0.8047409999999999
1007435962 0.3921970000000001 -0.8043119999999999
1008921841 0.392679 -0.8028576666666667
1010407720 0.3906463333333334 -0.8020673333333334
1011893599 0.38835366666666665 -0.8018040000000001
1013379478 0.38602200000000003 -0.7995963333333332
1014865357 0.3839413333333333 -0.7971976666666666
1016351236 0.3819083333333333 -0.7953886666666667
1017837115 0.379485 -0.7931136666666666
1019322994 0.37591100000000005 -0.7909566666666666
1020808873 0.37523733333333337 -0.7906173333333334
1022294752 0.37386733333333333 -0.7948243333333332
1023780631 0.3740683333333334 -0.7962006666666667
1025266510 0.37388266666666664 -0.7984763333333333
1026752389 0.37606 -0.7988339999999999
1028238268 0.373941 -0.802164
1029724147 0.37317 -0.8033356666666668
1031210026 0.37329133333333336 -0.803848
1032695905 0.373373 -0.8045576666666667
1034181784 0.37162500000000004 -0.80468
1035667663 0.37009433333333336 -0.8050356666666666
1037153542 0.36976566666666666 -0.8043306666666666
1038639421 0.36779433333333333 -0.8034603333333333
1040125300 0.3679576666666667 -0.8017943333333334
1041611179 0.36362633333333333 -0.8011236666666667
1043097058 0.364014 -0.7982309999999999
1044582937 0.361429 -0.796514
1046068816 0.35786266666666666 -0.7944096666666667
1047554695 0.35723366666666667 -0.7916623333333334
1049040574 0.35277200000000003 -0.790304
1050526453 0.3526053333333334 -0.7877626666666667
1052012332 0.3520023333333333 -0.791662
1053498211 0.3530533333333334 -0.7933819999999999
1054984090 0.35390666666666665 -0.796891
1056469969 0.35322600000000004 -0.7993256666666667
1057955848 0.35171233333333335 -0.8003619999999999
1059441727 0.35308300000000004 -0.8013083333333334
1060927606 0.35342266666666666 -0.8023153333333334
1062413485 0.35439966666666667 -0.8021806666666667
1063899364 0.353033 -0.8027856666666667
1065385243 0.3507023333333333 -0.802219
1066871122 0.35220133333333337 -0.802054
1068357001 0.351483 -0.8020223333333334
1069842880 0.3483956666666667 -0.8009786666666666
1071328759 0.34868799999999994 -0.7993463333333333
1072814638 0.3390706666666667 -0.7610906666666667
1074300517 0.34673400000000004 -0.7942883333333333
1075786396 0.3433366666666666 -0.7930893333333332
1077272275 0.3431956666666667 -0.790199
1078758154 0.33844433333333335 -0.7881206666666666
1080244033 0.3374886666666666 -0.7858236666666666
1081729912 0.33813733333333335 -0.787382
1083215791 0.33974333333333334 -0.7920769999999999
1084701670 0.34059633333333333 -0.795048
1086187549 0.3416156666666667 -0.7987223333333334
1087673428 0.34230366666666673 -0.7989843333333333
1089159307 0.342412 -0.8008763333333334
1090645186 0.34335899999999997 -0.8014266666666666
1092131065 0.34423166666666666 -0.8037256666666667
1093616944 0.34502066666666664 -0.8038133333333333
1095102823 0.3442543333333333 -0.8033766666666667
1096588702 0.344716 -0.8030400000000001
1098074581 0.3438303333333333 -0.8034123333333333
1099560460 0.3434346666666666 -0.801507
1101046339 0.3416996666666667 -0.8018356666666667
1102532218 0.338914 -0.7991510000000001
1104018097 0.33595100000000006 -0.7982036666666668
1105503976 0.336895 -0.7954713333333333
1106989855 0.3359286666666666 -0.7920206666666667
1108475734 0.330591 -0.7908399999999999
1109961613 0.3278653333333333 -0.7884540000000001
1111447492 0.3296983333333333 -0.7922399999999999
1112933371 0.331588 -0.7959756666666667
1114419250 0.33019133333333334 -0.7988713333333334
1115905129 0.3284356666666667 -0.8036673333333333
1117391008 0.33199266666666666 -0.805173
1118876887 0.33021 -0.8080813333333333
1120362766 0.329008 -0.811854
1121848645 0.32860533333333336 -0.8121863333333333
1123334524 0.33181600000000006 -0.8121620000000002
1124820403 0.3312146666666667 -0.8129989999999999
1126306282 0.32695366666666664 -0.816463
1127792161 0.3277653333333333 -0.814117
1129278040 0.32795 -0.8138420000000001
1130763919 0.32519000000000003 -0.8131919999999999
1132249798 0.32464166666666666 -0.8127803333333333
1133735677 0.32073999999999997 -0.8131313333333333
1135221556 0.3188046666666666 -0.8095993333333333
1136707435 0.31615866666666664 -0.8068966666666667
1138193314 0.31559133333333333 -0.8038673333333333
1139679193 0.3105776666666667 -0.8006233333333334
1141165072 0.31096300000000004 -0.8020646666666668
1142650951 0.31125400000000003 -0.8063966666666667
1144136830 0.3103183333333333 -0.8121633333333333
1145622709 0.311467 -0.8135013333333334
1147108588 0.311199 -0.816175
1148594467 0.31195433333333333 -0.8166053333333334
1150080346 0.30885333333333337 -0.820313
1151566225 0.30957266666666666 -0.8202189999999999
1153052104 0.30941500000000005 -0.822512
1154537983 0.3085233333333333 -0.8243546666666667
1156023862 0.3076733333333333 -0.8219650000000001
1157509741 0.30704200000000004 -0.8220409999999999
1158995620 0.30409766666666666 -0.8216866666666666
1160481499 0.3047326666666667 -0.8203113333333333
1161967378 0.30091 -0.8191316666666667
1163453257 0.3008486666666667 -0.8163106666666667
1164939136 0.29656333333333335 -0.8136243333333333
1166425015 0.29619466666666666 -0.810422
1167910894 0.29233533333333334 -0.8071286666666667
1169396773 0.28994433333333336 -0.8048266666666667
1170882652 0.28742766666666664 -0.8057310000000001
1172368531 0.28879499999999997 -0.80855
1173854410 0.28721833333333335 -0.8119873333333333
1175340289 0.286419 -0.8139476666666666
1176826168 0.28523566666666667 -0.8161999999999999
1178312047 0.28484933333333334 -0.8191693333333334
1179797926 0.283287 -0.8211326666666666
1181283805 0.28258866666666665 -0.8228413333333334
1182769684 0.28246400000000005 -0.8214039999999999
1184255563 0.28256866666666663 -0.8216896666666665
1185741442 0.281114 -0.8227573333333332
1187227321 0.280991 -0.8221579999999999
1188713200 0.27845133333333333 -0.8209076666666667
1190199079 0.2777716666666667 -0.8175853333333333
1191684958 0.27507066666666663 -0.8183473333333334
1193170837 0.27635366666666666 -0.814239
1194656716 0.27230766666666667 -0.811981
1196142595 0.26971866666666666 -0.8096033333333333
1197628474 0.2676076666666667 -0.8065530000000001
1199114353 0.264813 -0.8025646666666666
1200600232 0.26303499999999996 -0.8015836666666667
1202086111 0.2622403333333333 -0.8053573333333334
1203571990 0.2617296666666667 -0.8091413333333334
1205057869 0.26242433333333337 -0.8112086666666666
1206543748 0.26171133333333335 -0.8152469999999999
1208029627 0.2605676666666667 -0.8166233333333334
1209515506 0.2598036666666667 -0.81779
1211001385 0.2594646666666667 -0.8194536666666666
1212487264 0.25676666666666664 -0.822362
1213973143 0.2584873333333333 -0.8214309999999999
1215459022 0.25533500000000003 -0.8227673333333333
1216944901 0.256384 -0.8225890000000001
1218430780 0.2564166666666667 -0.821023
1219916659 0.2556753333333333 -0.819306
1221402538 0.25529033333333334 -0.8172286666666667
1222888417 0.25442766666666666 -0.8141013333333333
1224374296 0.25299166666666667 -0.812424
1225860175 0.2517486666666667 -0.81012
1227346054 0.266064 -0.8038913333333334
1228831933 0.253741 -0.8018369999999999
1230317812 0.25310866666666665 -0.8000883333333334
1231803691 0.24993966666666667 -0.8048916666666667
1233289570 0.25028866666666666 -0.806517
1234775449 0.24861033333333335 -0.8099386666666667
1236261328 0.24968400000000002 -0.8103360000000001
1237747207 0.25000633333333333 -0.8142896666666667
1239233086 0.250176 -0.8136209999999999
1240718965 0.2477396666666667 -0.8148286666666666
1242204844 0.24513133333333334 -0.8170583333333333
1243690723 0.24975366666666665 -0.8151683333333333
1245176602 0.24851700000000002 -0.8153086666666667
1246662481 0.24884366666666669 -0.8135496666666667
1248148360 0.24803699999999998 -0.8140056666666666
1249634239 0.24817333333333336 -0.813038
1251120118 0.248641 -0.8117576666666667
1252605997 0.24874033333333334 -0.808604
1254091876 0.24326666666666666 -0.8056593333333334
1255577755 0.24575866666666668 -0.8040116666666667
1257063634 0.24018266666666666 -0.8003279999999999
1258549513 0.24775433333333333 -0.7984513333333333
1260035392 0.23728366666666667 -0.7938476666666666
1261521271 0.241653 -0.7941723333333334
1263007150 0.234312 -0.797739
1264493029 0.239194 -0.8005659999999999
1265978908 0.23371699999999998 -0.804728
1267464787 0.23843999999999999 -0.8064153333333334
1268950666 0.2335046666666667 -0.806305
1270436545 0.23748566666666668 -0.8078133333333334
1271922424 0.230254 -0.8099823333333332
1273408303 0.23545233333333335 -0.8101856666666668
1274894182 0.230255 -0.8108166666666666
1276380061 0.23347733333333334 -0.8106253333333333
1277865940 0.229275 -0.8111166666666666
1279351819 0.22651266666666667 -0.809757
1280837698 0.22449133333333335 -0.8083193333333334
1282323577 0.22411033333333333 -0.8082433333333333
1283809456 0.22643033333333332 -0.8038606666666667
1285295335 0.22172533333333333 -0.805733
1286781214 0.221556 -0.801234
1288267093 0.21907566666666667 -0.800282
1289752972 0.21606133333333333 -0.7979606666666667
1291238851 0.21602100000000002 -0.799692
1292724730 0.21756666666666669 -0.8004136666666666
1294210609 0.21767899999999998 -0.8056326666666666
1295696488 0.215403 -0.8099686666666667
1297182367 0.21743400000000002 -0.8085043333333334
1298668246 0.216361 -0.812391
1300154125 0.22074133333333332 -0.8084773333333333
1301640004 0.21957366666666667 -0.8130693333333333
1303125883 0.21959499999999998 -0.8148113333333334
1304611762 0.22131066666666666 -0.8157916666666667
1306097641 0.21823866666666666 -0.816834
1307583520 0.21728 -0.8166540000000001
1309069399 0.2157393333333333 -0.816271
1310555278 0.21797166666666667 -0.813469
1312041157 0.21707933333333332 -0.8135103333333333
1313527036 0.216565 -0.8127476666666666
1315012915 0.21406733333333336 -0.8092686666666666
1316498794 0.21406400000000003 -0.807875
1317984673 0.21439733333333333 -0.8050563333333334
1319470552 0.21153866666666668 -0.8024296666666667
1320956431 0.2147983333333333 -0.8035563333333333
1322442310 0.211005 -0.8063540000000001
1323928189 0.21338866666666667 -0.8084263333333332
1325414068 0.21162333333333336 -0.811135
1326899947 0.20888533333333334 -0.8155950000000001
1328385826 0.21194066666666667 -0.8154666666666666
1329871705 0.21041433333333334 -0.818185
1331357584 0.21100566666666665 -0.820304
1332843463 0.208256 -0.8200029999999999
1334329342 0.21062866666666666 -0.822578
1335815221 0.20870233333333332 -0.8218673333333334
1337301100 0.20825033333333334 -0.8226999999999999
1338786979 0.20831666666666668 -0.8212613333333333
1340272858 0.205206 -0.822598
1341758737 0.20438466666666666 -0.8220649999999999
1343244616 0.20484933333333333 -0.8195666666666667
1344730495 0.20421666666666669 -0.819187
1346216374 0.199751 -0.8164633333333334
1347702253 0.20118099999999997 -0.8145836666666666
1349188132 0.19875500000000001 -0.8125633333333333
1350674011 0.196752 -0.8124603333333332
1352159890 0.195383 -0.81377
1353645769 0.19671066666666667 -0.8173786666666668
1355131648 0.19705399999999998 -0.818692
1356617527 0.19453133333333336 -0.8200189999999999
1358103406 0.19204633333333332 -0.8211856666666666
1359589285 0.19227033333333332 -0.8223206666666667
1361075164 0.1886473333333333 -0.8224663333333334
1362561043 0.1904863333333333 -0.822318
1364046922 0.18928166666666668 -0.8229826666666668
1365532801 0.18957566666666667 -0.8208340000000001
1367018680 0.18750266666666668 -0.8201280000000001
1368504559 0.183061 -0.821055
1369990438 0.16315966666666668 -0.8065880000000001
1371476317 0.18132533333333334 -0.8179053333333334
1372962196 0.17809266666666668 -0.8163153333333334
1374448075 0.17693100000000003 -0.814509
1375933954 0.1735703333333333 -0.8112833333333334
1377419833 0.17155566666666666 -0.8082156666666668
1378905712 0.16903899999999997 -0.8052266666666666
1380391591 0.16742333333333334 -0.8047646666666667
1381877470 0.16125533333333333 -0.8102793333333334
1383363349 0.16749933333333333 -0.8124793333333334
1384849228 0.168184 -0.8158280000000001
1386335107 0.16831833333333335 -0.8176453333333332
1387820986 0.16948700000000003 -0.8191856666666667
1389306865 0.16899699999999998 -0.8215803333333334
1390792744 0.17226433333333335 -0.821813
1392278623 0.17003266666666664 -0.82341
1393764502 0.17225000000000001 -0.8235363333333332
1395250381 0.172535 -0.823388
1396736260 0.171104 -0.8237949999999999
1398222139 0.17174566666666666 -0.8224743333333334
1399708018 0.17315566666666668 -0.8219866666666666
1401193897 0.17178066666666666 -0.820763
1402679776 0.170477 -0.8187416666666666
1404165655 0.1706696666666667 -0.8158746666666666
1405651534 0.16907433333333333 -0.8145166666666667
1407137413 0.16727999999999998 -0.8122570000000001
1408623292 0.16816733333333334 -0.8100783333333333
1410109171 0.16487533333333335 -0.806956
1411595050 0.16706566666666667 -0.8105216666666667
1413080929 0.16765666666666668 -0.8137460000000001
1414566808 0.163528 -0.816538
1416052687 0.16891466666666666 -0.8212536666666667
1417538566 0.16840566666666668 -0.8217516666666667
1419024445 0.16818533333333333 -0.8266886666666666
1420510324 0.16848933333333335 -0.8275586666666667
1421996203 0.16826233333333332 -0.8287386666666666
1423482082 0.16780966666666666 -0.8290973333333334
1424967961 0.17132199999999997 -0.8285146666666666
1426453840 0.1678386666666667 -0.8307910000000001
1427939719 0.1673123333333333 -0.828662
1429425598 0.16843566666666665 -0.829402
1430911477 0.16949599999999998 -0.8278780000000001
1432397356 0.17014300000000002 -0.8289623333333335
1433883235 0.166484 -0.8245163333333334
1435369114 0.166737 -0.8239986666666667
1436854993 0.163448 -0.8198136666666667
1438340872 0.16320966666666667 -0.8167209999999999
1439826751 0.16361333333333333 -0.8118186666666668
1441312630 0.15973 -0.8167626666666666
1442798509 0.16151633333333335 -0.8171523333333334
1444284388 0.16228233333333333 -0.8211836666666668
1445770267 0.15998333333333334 -0.8247453333333333
1447256146 0.16040566666666667 -0.8256073333333335
1448742025 0.159366 -0.8268923333333333
1450227904 0.15942733333333334 -0.828814
1451713783 0.160187 -0.8274286666666667
1453199662 0.1566463333333333 -0.828777
1454685541 0.15905933333333333 -0.8289483333333333
1456171420 0.15620366666666666 -0.8283416666666668
1457657299 0.15666566666666668 -0.8268043333333334
1459143178 0.15669533333333333 -0.8256853333333334
1460629057 0.15388633333333332 -0.8243036666666667
1462114936 0.15409833333333334 -0.8215063333333333
1463600815 0.15132166666666666 -0.8197933333333333
1465086694 0.14925566666666668 -0.8159643333333334
1466572573 0.14488166666666666 -0.8141383333333333
1468058452 0.143632 -0.8110103333333333
1469544331 0.1423783333333333 -0.806
1471030210 0.14279433333333333 -0.8084910000000001
1472516089 0.14094333333333334 -0.8115246666666667
1474001968 0.13876133333333335 -0.8152056666666666
1475487847 0.13876533333333332 -0.818721
1476973726 0.14106466666666667 -0.8199783333333333
1478459605 0.14002199999999998 -0.822957
1479945484 0.14151533333333333 -0.8249996666666667
1481431363 0.13890666666666665 -0.8275480000000001
1482917242 0.14041 -0.8275410000000001
1484403121 0.13902266666666668 -0.8267706666666667
1485889000 0.13976533333333332 -0.8275126666666667
1487374879 0.13845733333333335 -0.8261413333333333
1488860758 0.13935 -0.8252343333333333
1490346637 0.13817333333333334 -0.8252406666666667
1491832516 0.13713366666666668 -0.8234946666666666
1493318395 0.137246 -0.8222343333333333
1494804274 0.135781 -0.8187316666666667
1496290153 0.13335433333333332 -0.814796
1497776032 0.13461533333333334 -0.8116439999999999
1499261911 0.130996 -0.8081823333333333
1500747790 0.129783 -0.807953
1502233669 0.13634500000000002 -0.8111426666666667
1503719548 0.12395099999999999 -0.8152013333333333
1505205427 0.132414 -0.8168743333333334
1506691306 0.12056099999999999 -0.8199113333333333
1508177185 0.130116 -0.8211020000000001
1509663064 0.12093233333333332 -0.8231636666666667
1511148943 0.12998800000000002 -0.8246046666666667
1512634822 0.11997000000000001 -0.8261483333333334
1514120701 0.1263403333333333 -0.8247226666666667
1515606580 0.11952499999999999 -0.8252803333333333
1517092459 0.12622833333333336 -0.8247066666666667
1518578338 0.11703533333333334 -0.8230266666666667
1520064217 0.11633700000000001 -0.8227893333333333
1521550096 0.12161866666666667 -0.819956
1523035975 0.117277 -0.817214
1524521854 0.11756333333333334 -0.8136426666666666
1526007733 0.112836 -0.81198
1527493612 0.112391 -0.8097260000000001
1528979491 0.11841033333333333 -0.8403300000000001
1530465370 0.11027133333333333 -0.8037663333333334
1531951249 0.10894999999999999 -0.8062303333333333
1533437128 0.10663633333333333 -0.8098736666666667
1534923007 0.10754233333333334 -0.8125326666666667
1536408886 0.10722466666666668 -0.8139043333333333
1537894765 0.10650566666666667 -0.816557
1539380644 0.10660533333333333 -0.817854
1540866523 0.10554000000000001 -0.818328
1542352402 0.10789066666666668 -0.8194546666666668
1543838281 0.10607266666666666 -0.8190506666666667
1545324160 0.106636 -0.8182333333333333
1546810039 0.10462899999999999 -0.81939
1548295918 0.1055 -0.8170523333333333
1549781797 0.10648799999999999 -0.8173033333333333
1551267676 0.10506466666666665 -0.815352
1552753555 0.103116 -0.8107846666666666
1554239434 0.10338666666666667 -0.8092083333333333
1555725313 0.10355133333333333 -0.8055013333333334
1557211192 0.10117766666666667 -0.8031579999999999
1558697071 0.10295766666666667 -0.7991489999999999
1560182950 0.09710566666666666 -0.795848
1561668829 0.09743466666666667 -0.7988836666666667
1563154708 0.097673 -0.8016116666666666
1564640587 0.09582366666666668 -0.8054983333333333
1566126466 0.093291 -0.8077346666666667
1567612345 0.09433033333333334 -0.8103176666666667
1569098224 0.09247566666666666 -0.8122313333333334
1570584103 0.096846 -0.8127583333333334
1572069982 0.09190466666666668 -0.8139940000000001
1573555861 0.090624 -0.8141116666666667
1575041740 0.08912366666666667 -0.8156063333333333
1576527619 0.093182 -0.8140436666666666
1578013498 0.09264133333333334 -0.8146916666666666
1579499377 0.09139833333333332 -0.8133396666666667
1580985256 0.091679 -0.8126273333333334
1582471135 0.09617666666666667 -0.812443
1583957014 0.08690966666666666 -0.8098333333333333
1585442893 0.08819500000000001 -0.8075226666666667
1586928772 0.087432 -0.8036553333333334
1588414651 0.08491566666666667 -0.8011366666666667
1589900530 0.084297 -0.798476
1591386409 0.08516033333333334 -0.8003646666666665
1592872288 0.08348933333333332 -0.8034223333333333
1594358167 0.08372233333333334 -0.8056746666666667
1595844046 0.08090066666666668 -0.809034
1597329925 0.08378366666666666 -0.8105916666666667
1598815804 0.08026 -0.8124353333333333
1600301683 0.08239466666666667 -0.8133636666666666
1601787562 0.080625 -0.8144596666666667
1603273441 0.08251266666666668 -0.8143953333333332
1604759320 0.08045666666666668 -0.815674
1606245199 0.08161666666666667 -0.8151893333333334
1607731078 0.07893766666666667 -0.814185
1609216957 0.08028 -0.8132849999999999
1610702836 0.08094333333333333 -0.812307
1612188715 0.080292 -0.8112346666666667
1613674594 0.07925366666666667 -0.8088846666666667
1615160473 0.08131 -0.806312
1616646352 0.08164699999999998 -0.8026763333333333
1618132231 0.07585866666666667 -0.801018
1619618110 0.07562433333333334 -0.797145
1621103989 0.07345633333333333 -0.799103
1622589868 0.07399866666666666 -0.8013336666666667
1624075747 0.07267866666666666 -0.8049623333333334
1625561626 0.07048933333333333 -0.8066979999999999
1627047505 0.06987466666666665 -0.8091383333333333
1628533384 0.068413 -0.8100603333333334
1630019263 0.070739 -0.8104166666666668
1631505142 0.06746366666666666 -0.8129273333333332
1632991021 0.06742 -0.8121526666666666
1634476900 0.065973 -0.8123823333333334
1635962779 0.06583933333333335 -0.8114216666666666
1637448658 0.060987000000000006 -0.8124739999999999
1638934537 0.062571 -0.8121520000000001
1640420416 0.060130666666666666 -0.8113123333333333
1641906295 0.06390433333333333 -0.8089339999999999
1643392174 0.06162599999999999 -0.8069940000000001
1644878053 0.059172333333333334 -0.8069449999999999
1646363932 0.06152266666666667 -0.8029863333333335
1647849811 0.05458266666666667 -0.8027843333333333
1649335690 0.055942 -0.7980809999999999
1650821569 0.05499299999999999 -0.7990003333333334
1652307448 0.054850333333333334 -0.800682
1653793327 0.05560333333333334 -0.8025436666666668
1655279206 0.05192766666666667 -0.8047543333333333
1656765085 0.05093133333333333 -0.8075300000000002
1658250964 0.05424966666666667 -0.8074159999999999
1659736843 0.05429266666666668 -0.8074689999999999
1661222722 0.052964333333333335 -0.8101726666666668
1662708601 0.048351000000000005 -0.8077519999999999
1664194480 0.053739666666666665 -0.8084926666666666
1665680359 0.05165266666666667 -0.8075696666666667
1667166238 0.05165 -0.8091496666666665
1668652117 0.050967000000000005 -0.806987
1670137996 0.06656233333333333 -0.8179776666666667
1671623875 0.050383000000000004 -0.804472
1673109754 0.05095233333333333 -0.8021876666666667
1674595633 0.050225 -0.7992520000000001
1676081512 0.048163000000000004 -0.7981163333333333
1677567391 0.04373633333333333 -0.793856
1679053270 0.04522966666666667 -0.7913843333333332
1680539149 0.04491666666666666 -0.7913239999999999
1682025028 0.058589333333333334 -0.8320483333333333
1683510907 0.04502133333333333 -0.7951233333333333
1684996786 0.04682133333333333 -0.8011850000000001
1686482665 0.04586766666666667 -0.80177
1687968544 0.045261666666666665 -0.803945
1689454423 0.046549 -0.8065093333333334
1690940302 0.05043566666666666 -0.807071
1692426181 0.04768033333333333 -0.806826
1693912060 0.04490766666666667 -0.8070373333333333
1695397939 0.04405733333333333 -0.8066763333333333
1696883818 0.04549466666666666 -0.8088989999999999
1698369697 0.046857333333333334 -0.8068713333333334
1699855576 0.05008566666666666 -0.8062453333333334
1701341455 0.05045666666666667 -0.8051866666666667
1702827334 0.04609 -0.8026363333333334
1704313213 0.048414000000000006 -0.7991573333333334
1705799092 0.046346 -0.7961983333333333
1707284971 0.048752 -0.795484
1708770850 0.04592533333333334 -0.7908900000000001
1710256729 0.04560733333333333 -0.7920136666666666
1711742608 0.043461 -0.7931613333333334
1713228487 0.044098 -0.796677
1714714366 0.04313266666666667 -0.799017
1716200245 0.04144333333333333 -0.8020473333333333
1717686124 0.043028333333333335 -0.8026493333333332
1719172003 0.04512466666666667 -0.8049963333333333
1720657882 0.043188666666666674 -0.8044033333333332
1722143761 0.041976999999999993 -0.8042816666666667
1723629640 0.04462633333333333 -0.8053783333333334
1725115519 0.04390033333333334 -0.8065670000000001
1726601398 0.04323833333333333 -0.8044443333333334
1728087277 0.03901666666666667 -0.8043279999999999
1729573156 0.040403 -0.8009653333333334
1731059035 0.04035133333333333 -0.8008803333333333
1732544914 0.03995666666666667 -0.7970223333333334
1734030793 0.03478966666666666 -0.7971546666666667
1735516672 0.035263333333333334 -0.7937833333333334
1737002551 0.03500233333333334 -0.7922253333333332
1738488430 0.03596666666666667 -0.787354
1739974309 0.030318333333333333 -0.7841956666666667
1741460188 0.033332 -0.7884296666666667
1742946067 0.030291333333333333 -0.791692
1744431946 0.029885 -0.7937506666666666
1745917825 0.02903633333333333 -0.7971863333333333
1747403704 0.03139733333333333 -0.7996336666666667
1748889583 0.028934666666666664 -0.8012703333333334
1750375462 0.030969 -0.8025126666666665
1751861341 0.029701999999999996 -0.8018626666666666
1753347220 0.030108999999999997 -0.8047783333333333
1754833099 0.029380333333333338 -0.8049536666666667
1756318978 0.028489666666666667 -0.8055136666666667
1757804857 0.03003533333333333 -0.8021426666666667
1759290736 0.029812 -0.8030126666666666
1760776615 0.028156666666666663 -0.8017059999999999
1762262494 0.028929 -0.7994126666666667
1763748373 0.024790999999999997 -0.7974800000000001
1765234252 0.024963666666666665 -0.7959866666666667
1766720131 0.024245 -0.7920949999999999
1768206010 0.02138633333333333 -0.7879263333333334
1769691889 0.02372166666666667 -0.7856016666666666
1771177768 0.021887 -0.7887473333333332
1772663647 0.020707 -0.7909163333333332
1774149526 0.02262966666666667 -0.7952236666666667
1775635405 0.020246 -0.7975629999999999
1777121284 0.019993999999999998 -0.7998240000000001
1778607163 0.019261333333333335 -0.8008363333333333
1780093042 0.019464 -0.8040336666666668
1781578921 0.023358 -0.8061346666666668
1783064800 0.021561333333333335 -0.8055219999999998
1784550679 0.023525333333333332 -0.805775
1786036558 0.021467333333333328 -0.8049023333333333
1787522437 0.020064000000000002 -0.8040016666666666
1789008316 0.023534 -0.8043736666666668
1790494195 0.020560666666666668 -0.8008613333333333
1791980074 0.025713333333333335 -0.7996546666666666
1793465953 0.021415666666666666 -0.798461
1794951832 0.023377666666666668 -0.795868
1796437711 0.02304 -0.7926553333333333
1797923590 0.020546333333333333 -0.789416
1799409469 0.022993333333333334 -0.7863519999999999
1800895348 0.014852666666666667 -0.7855803333333333
1802381227 0.020495333333333334 -0.787783
1803867106 0.020539666666666668 -0.791506
1805352985 0.019891666666666665 -0.7930866666666666
1806838864 0.018860333333333333 -0.7945510000000001
1808324743 0.017483333333333333 -0.7958056666666667
1809810622 0.023095 -0.7999556666666666
1811296501 0.017896333333333334 -0.7993583333333333
1812782380 0.019777333333333334 -0.7985543333333333
1814268259 0.017884 -0.7969263333333334
1815754138 0.016527333333333335 -0.7978026666666667
1817240017 0.016867333333333335 -0.7963999999999999
1818725896 0.0027103333333333333 -0.7883836666666667
1820211775 0.008336666666666668 -0.7937500000000001
1821697654 0.015277 -0.7914173333333334
1823183533 0.017450999999999998 -0.7894713333333333
1824669412 0.009749333333333332 -0.7857306666666667
1826155291 0.014277666666666666 -0.7830063333333334
1827641170 0.013055333333333334 -0.7800239999999999
1829127049 0.009526333333333333 -0.7743706666666667
1830612928 0.009881666666666665 -0.7753770000000001
1832098807 0.009647333333333334 -0.7773913333333334
1833584686 0.009473333333333334 -0.7821466666666667
1835070565 0.008432333333333333 -0.7832706666666667
1836556444 0.007468666666666668 -0.7857810000000001
1838042323 0.012066 -0.7868363333333334
1839528202 0.006514333333333333 -0.7891506666666667
1841014081 0.006169666666666667 -0.7907213333333334
1842499960 0.004777 -0.7922686666666667
1843985839 0.008225666666666668 -0.7920026666666667
1845471718 0.007649666666666666 -0.7935679999999999
1846957597 0.005143666666666667 -0.7912733333333333
1848443476 0.0050936666666666665 -0.7942113333333335
1849929355 0.0021799999999999996 -0.7907693333333333
1851415234 0.004561 -0.7903136666666667
1852901113 0.002109 -0.788657
1854386992 0.005207 -0.7902066666666666
1855872871 0.0035413333333333334 -0.7865829999999999
1857358750 -0.0018963333333333332 -0.7793036666666667
1858844629 -0.0034683333333333333 -0.7783323333333333
1860330508 0.0015216666666666668 -0.7770073333333333
1861816387 0.0016693333333333332 -0.781533
1863302266 -0.004331000000000001 -0.7826036666666667
1864788145 -0.0008376666666666666 -0.7855213333333334
1866274024 -0.0032816666666666667 -0.7888820000000001
1867759903 -0.004991333333333333 -0.7891830000000001
1869245782 -0.004686666666666667 -0.7909966666666667
1870731661 -0.003571666666666666 -0.7916883333333334
1872217540 -0.006312666666666667 -0.7944686666666666
1873703419 0.01522733333333333 -0.8083466666666667
1875189298 -0.004620666666666666 -0.7940036666666668
1876675177 -0.005748666666666667 -0.7944716666666666
1878161056 -0.00336 -0.7937233333333333
1879646935 -0.0020593333333333336 -0.7922916666666667
1881132814 -0.005881 -0.7913476666666667
1882618693 -0.005137 -0.7884753333333334
1884104572 -0.007011333333333334 -0.7860636666666667
1885590451 -0.006254666666666668 -0.784981
1887076330 -0.008594666666666667 -0.7816953333333334
1888562209 -0.010148666666666667 -0.7787436666666667
1890048088 -0.010239 -0.7758263333333334
1891533967 -0.008155666666666667 -0.7780063333333334
1893019846 -0.009435333333333332 -0.7810523333333333
1894505725 -0.011922333333333333 -0.7825746666666668
1895991604 -0.013293333333333332 -0.7812153333333334
1897477483 -0.010150333333333332 -0.7854389999999999
1898963362 -0.009464 -0.7863600000000001
1900449241 -0.011123333333333334 -0.787138
1901935120 -0.011215333333333334 -0.7882256666666668
1903420999 -0.007268666666666666 -0.7887073333333333
1904906878 -0.011510333333333336 -0.7870590000000001
1906392757 -0.010378 -0.783442
1907878636 -0.008736333333333332 -0.783994
1909364515 -0.012575666666666667 -0.7832993333333333
1910850394 -0.010874000000000002 -0.7818596666666666
1912336273 -0.012623666666666667 -0.7796286666666666
1913822152 -0.012575666666666666 -0.7774336666666667
1915308031 -0.011675333333333334 -0.774941
1916793910 -0.013409333333333334 -0.7709290000000001
1918279789 -0.015178333333333334 -0.768329
1919765668 -0.014797666666666667 -0.7641763333333333
1921251547 -0.019994 -0.7674836666666667
1922737426 -0.017233333333333333 -0.7673896666666667
1924223305 -0.017621333333333333 -0.773165
1925709184 -0.019768333333333332 -0.7748546666666667
1927195063 -0.015621333333333334 -0.775224
1928680942 -0.02055433333333333 -0.7777016666666666
1930166821 -0.019459 -0.7799696666666667
1931652700 -0.017822666666666664 -0.7801566666666667
1933138579 -0.022784333333333334 -0.7810813333333334
1934624458 -0.02494 -0.782286
1936110337 -0.022868 -0.782178
1937596216 -0.023473333333333336 -0.7811423333333334
1939082095 -0.028526999999999997 -0.7811196666666667
1940567974 -0.023164666666666667 -0.7782613333333334
1942053853 -0.026227333333333335 -0.779122
1943539732 -0.027725 -0.7777370000000001
1945025611 -0.027587333333333335 -0.7740170000000001
1946511490 -0.025039666666666665 -0.7728096666666667
1947997369 -0.028179 -0.7701586666666667
1949483248 -0.026851666666666666 -0.7682683333333333
1950969127 -0.03132066666666667 -0.7685836666666667
1952455006 -0.03385266666666667 -0.7716723333333334
1953940885 -0.028986666666666664 -0.7723789999999999
1955426764 -0.031424 -0.774391
1956912643 -0.03266866666666667 -0.7777249999999999
1958398522 -0.032373 -0.779071
1959884401 -0.034964666666666665 -0.7804986666666668
1961370280 -0.03115 -0.7783586666666666
1962856159 -0.03505933333333334 -0.780372
1964342038 -0.032316333333333336 -0.7793939999999999
1965827917 -0.032204333333333335 -0.7787303333333333
1967313796 -0.03595 -0.7790136666666667
1968799675 -0.031226666666666666 -0.7772053333333333
1970285554 -0.02038833333333333 -0.7767633333333334
1971771433 -0.03285866666666667 -0.7754023333333334
1973257312 -0.03701033333333333 -0.77292
1974743191 -0.03348399999999999 -0.7701153333333334
1976229070 -0.032229 -0.767062
1977714949 -0.036863 -0.7659793333333332
1979200828 -0.03474933333333333 -0.760488
1980686707 -0.039379 -0.7610133333333334
1982172586 -0.027092999999999996 -0.7662966666666667
1983658465 -0.039913666666666674 -0.7649750000000001
1985144344 -0.03857766666666667 -0.7675056666666666
1986630223 -0.03911733333333333 -0.7683520000000001
1988116102 -0.043608666666666664 -0.771709
1989601981 -0.039501666666666664 -0.7716856666666666
1991087860 -0.04188666666666666 -0.7733846666666667
1992573739 -0.03784233333333333 -0.7728433333333333
1994059618 -0.03871866666666667 -0.7740603333333334
1995545497 -0.03504466666666667 -0.7761773333333334
1997031376 -0.039438 -0.7729283333333333
1998517255 -0.03967400000000001 -0.7714653333333333
2000003134 -0.04151133333333334 -0.7716203333333334
2001489013 -0.045802666666666665 -0.7673496666666667
2002974892 -0.04398133333333334 -0.7668973333333334
2004460771 -0.043397333333333336 -0.7644246666666668
2005946650 -0.042323 -0.7624616666666667
2007432529 -0.042639333333333335 -0.7584683333333334
2008918408 -0.04382033333333333 -0.7553296666666668
2010404287 -0.04531733333333334 -0.7541220000000001
2011890166 -0.04552899999999999 -0.7566323333333335
2013376045 -0.04713233333333333 -0.7610753333333333
2014861924 -0.046893333333333335 -0.762623
2016347803 -0.048634333333333335 -0.7648366666666666
2017833682 -0.05239133333333334 -0.7666753333333333
2019319561 -0.049871 -0.7686843333333333
2020805440 -0.04682733333333333 -0.769478
2022291319 -0.04765433333333333 -0.7704096666666667
2023777198 -0.052033666666666666 -0.769548
2025263077 -0.05306266666666667 -0.7692126666666667
2026748956 -0.05199666666666666 -0.7705016666666666
2028234835 -0.050491 -0.7711676666666666
2029720714 -0.05010633333333333 -0.7702563333333332
2031206593 -0.05244133333333333 -0.768881
2032692472 -0.054890666666666664 -0.7672
2034178351 -0.05310800000000001 -0.7649936666666667
2035664230 -0.052394 -0.7626156666666667
2037150109 -0.05004 -0.760055
2038635988 -0.05767800000000001 -0.7586409999999999
2040121867 -0.05074599999999999 -0.7494093333333334
2041607746 -0.05972666666666666 -0.7569896666666667
2043093625 -0.052178 -0.7593246666666666
2044579504 -0.059327 -0.759477
2046065383 -0.053277333333333336 -0.764288
2047551262 -0.064157 -0.7626026666666667
2049037141 -0.054823000000000004 -0.7654746666666666
2050523020 -0.06040366666666667 -0.765136
2052008899 -0.055343 -0.7656666666666666
2053494778 -0.06337266666666667 -0.7646956666666668
2054980657 -0.05664066666666667 -0.7661826666666668
2056466536 -0.06407066666666666 -0.7646406666666667
2057952415 -0.058401 -0.7629663333333333
2059438294 -0.065478 -0.7610856666666667
2060924173 -0.05690833333333334 -0.7625643333333333
2062410052 -0.06615266666666668 -0.7570123333333334
2063895931 -0.057656000000000006 -0.7565520000000001
2065381810 -0.06713033333333333 -0.752816
2066867689 -0.055910999999999995 -0.7496273333333333
2068353568 -0.06408566666666667 -0.7465226666666668
2069839447 -0.06270833333333332 -0.7445823333333333
2071325326 -0.07260933333333332 -0.7453976666666667
2072811205 -0.06703833333333334 -0.7499739999999999
2074297084 -0.07110533333333334 -0.7508400000000001
2075782963 -0.065317 -0.7556696666666666
2077268842 -0.06883433333333333 -0.7565136666666668
2078754721 -0.06384833333333334 -0.762375
2080240600 -0.07073533333333333 -0.7609173333333333
2081726479 -0.064224 -0.7629800000000001
2083212358 -0.06480899999999999 -0.76123
2084698237 -0.069471 -0.7628153333333333
2086184116 -0.06695633333333334 -0.7646876666666667
2087669995 -0.06823733333333333 -0.7628866666666667
2089155874 -0.06300066666666666 -0.7613806666666667
2090641753 -0.06631966666666667 -0.761759
2092127632 -0.06603966666666666 -0.758528
2093613511 -0.06748833333333333 -0.757572
2095099390 -0.06252333333333333 -0.7565693333333333
2096585269 -0.06562633333333333 -0.7528943333333333
2098071148 -0.067679 -0.750016
2099557027 -0.06635233333333333 -0.747757
2101042906 -0.06766233333333334 -0.7467123333333333
2102528785 -0.06915 -0.7504476666666666
2104014664 -0.06808233333333334 -0.7529843333333334
2105500543 -0.068757 -0.7555376666666667
2106986422 -0.06949100000000001 -0.7577083333333334
2108472301 -0.06845966666666668 -0.7601673333333333
2109958180 -0.071758 -0.76017
2111444059 -0.07158333333333333 -0.7625676666666666
2112929938 -0.07107033333333333 -0.7618453333333334
2114415817 -0.069004 -0.7635836666666665
2115901696 -0.07178533333333333 -0.7627043333333333
2117387575 -0.07245966666666666 -0.7630073333333334
2118873454 -0.06936733333333334 -0.762376
2120359333 -0.07318766666666666 -0.7512523333333333
2121845212 -0.07146866666666667 -0.7599676666666667
2123331091 -0.06999799999999999 -0.757476
2124816970 -0.07056366666666666 -0.7566073333333332
2126302849 -0.07213033333333334 -0.7524843333333333
2127788728 -0.07396866666666667 -0.7510433333333334
2129274607 -0.07118366666666666 -0.7473633333333334
2130760486 -0.07427299999999999 -0.7464689999999999
2132246365 -0.07539866666666667 -0.7496266666666668
2133732244 -0.07704633333333334 -0.7522523333333333
2135218123 -0.07988566666666667 -0.7533293333333333
2136704002 -0.07778700000000001 -0.7562006666666666
2138189881 -0.07936033333333332 -0.7577066666666666
2139675760 -0.08058 -0.761575
2141161639 -0.07926633333333333 -0.7595693333333333
2142647518 -0.08516333333333333 -0.760855
2144133397 -0.08277966666666667 -0.7600943333333333
2145619276 -0.08190133333333333 -0.761394
2147105155 -0.08352266666666668 -0.7599923333333333
2148591034 -0.08493433333333333 -0.7589176666666667
2150076913 -0.08678799999999999 -0.7566406666666667
2151562792 -0.08774566666666667 -0.7559083333333333
2153048671 -0.08447 -0.7540226666666666
2154534550 -0.08655299999999999 -0.7537636666666666
2156020429 -0.08695400000000002 -0.7525766666666667
2157506308 -0.08310466666666666 -0.7496553333333335
2158992187 -0.08830900000000001 -0.745593
2160478066 -0.08761933333333334 -0.744563
2161963945 -0.086043 -0.7489880000000001
2163449824 -0.09137633333333334 -0.7499933333333333
2164935703 -0.08814999999999999 -0.7531556666666667
2166421582 -0.09184466666666667 -0.753123
2167907461 -0.09159566666666667 -0.7564083333333333
2169393340 -0.089574 -0.757247
2170879219 -0.08947533333333334 -0.7604889999999999
2172365098 -0.08558433333333333 -0.7607776666666667
2173850977 -0.09745133333333333 -0.7610359999999999
2175336856 -0.08780866666666666 -0.7592089999999999
2176822735 -0.08788733333333333 -0.761294
2178308614 -0.088358 -0.7593656666666666
2179794493 -0.08722733333333334 -0.75839
2181280372 -0.08344733333333333 -0.7580586666666668
2182766251 -0.08428433333333334 -0.754674
2184252130 -0.08521366666666667 -0.7530143333333333
2185738009 -0.08415800000000001 -0.7511773333333333
2187223888 -0.08460566666666665 -0.7469133333333332
2188709767 -0.08203200000000001 -0.7443183333333333
2190195646 -0.08154766666666667 -0.7396906666666667
2191681525 -0.084407 -0.7441746666666665
2193167404 -0.08440433333333335 -0.746756
2194653283 -0.08253533333333334 -0.747916
2196139162 -0.08161266666666667 -0.7482150000000001
2197625041 -0.08263966666666667 -0.7521003333333334
2199110920 -0.08283866666666666 -0.7547283333333333
2200596799 -0.08443066666666667 -0.751722
2202082678 -0.08225700000000001 -0.7519913333333332
2203568557 -0.07921266666666667 -0.7562239999999999
2205054436 -0.08274766666666666 -0.7538649999999999
2206540315 -0.08127933333333333 -0.7541553333333333
2208026194 -0.07910433333333335 -0.74731
2209512073 -0.076035 -0.7502186666666667
2210997952 -0.075073 -0.7511976666666667
2212483831 -0.07832333333333334 -0.7481263333333334
2213969710 -0.07708 -0.7456516666666667
2215455589 -0.07959033333333333 -0.742714
2216941468 -0.07861966666666666 -0.738997
2218427347 -0.076117 -0.735505
2219913226 -0.07540233333333334 -0.7335576666666667
2221399105 -0.074635 -0.7352280000000001
2222884984 -0.08077666666666666 -0.7365536666666666
2224370863 -0.082302 -0.7396413333333333
2225856742 -0.07735566666666667 -0.7436966666666667
2227342621 -0.08548233333333334 -0.7402026666666667
2228828500 -0.07810533333333335 -0.7458226666666666
2230314379 -0.08407866666666668 -0.7472296666666667
2231800258 -0.08471733333333333 -0.7467596666666667
2233286137 -0.08463166666666666 -0.7488103333333335
2234772016 -0.08480766666666667 -0.7499753333333334
2236257895 -0.08689566666666666 -0.7481140000000001
2237743774 -0.08470266666666666 -0.7485923333333333
2239229653 -0.083493 -0.7498233333333334
2240715532 -0.08489933333333333 -0.7491913333333334
2242201411 -0.08627133333333332 -0.7477619999999999
2243687290 -0.08278 -0.7457053333333333
2245173169 -0.08123033333333333 -0.7441626666666666
2246659048 -0.08318433333333333 -0.7418679999999999
2248144927 -0.08577166666666668 -0.740154
2249630806 -0.088947 -0.736288
2251116685 -0.08604433333333332 -0.7390616666666666
2252602564 -0.08611833333333334 -0.7406616666666667
2254088443 -0.088833 -0.739561
2255574322 -0.08539833333333334 -0.7438333333333333
2257060201 -0.08839666666666667 -0.7455316666666668
2258546080 -0.09039533333333333 -0.7463623333333332
2260031959 -0.09252 -0.74641
2261517838 -0.089243 -0.7483333333333334
2263003717 -0.09230100000000001 -0.745947
2264489596 -0.09734866666666668 -0.74715
2265975475 -0.08861633333333334 -0.746308
2267461354 -0.09324866666666666 -0.7464806666666667
2268947233 -0.08503 -0.7766303333333333
2270433112 -0.09188 -0.7439656666666666
2271918991 -0.08893633333333334 -0.7416993333333334
2273404870 -0.09784633333333333 -0.7391273333333334
2274890749 -0.09579466666666665 -0.73507
2276376628 -0.10626533333333334 -0.7324473333333333
2277862507 -0.09461966666666667 -0.7339773333333334
2279348386 -0.09549866666666666 -0.7314396666666667
2280834265 -0.11306033333333332 -0.7211970000000001
2282320144 -0.09959699999999999 -0.7333773333333333
2283806023 -0.10023366666666667 -0.7353266666666668
2285291902 -0.09846733333333334 -0.7380103333333333
2286777781 -0.10013666666666667 -0.7376543333333334
2288263660 -0.09728366666666667 -0.7383860000000001
2289749539 -0.09762433333333333 -0.7401989999999999
2291235418 -0.09532233333333333 -0.7404293333333333
2292721297 -0.10656033333333333 -0.7416446666666667
2294207176 -0.10074566666666666 -0.7419669999999999
2295693055 -0.09742200000000001 -0.738321
2297178934 -0.10245233333333333 -0.738953
2298664813 -0.10093 -0.7387803333333333
2300150692 -0.09830766666666668 -0.7364809999999999
2301636571 -0.10025166666666667 -0.7353176666666666
2303122450 -0.09997666666666667 -0.7334506666666667
2304608329 -0.10222766666666668 -0.7332566666666667
2306094208 -0.09210366666666665 -0.7351696666666667
2307580087 -0.09976533333333333 -0.7271323333333334
2309065966 -0.09810966666666666 -0.7254359999999999
2310551845 -0.09906766666666666 -0.723941
2312037724 -0.09773533333333334 -0.7279756666666667
2313523603 -0.098984 -0.7311059999999999
2315009482 -0.09905466666666667 -0.7361746666666668
2316495361 -0.10694 -0.7344860000000001
2317981240 -0.09698166666666667 -0.7400886666666667
2319467119 -0.10334533333333333 -0.7401479999999999
2320952998 -0.09920699999999999 -0.7417136666666666
2322438877 -0.099406 -0.7488130000000001
2323924756 -0.09900199999999999 -0.7440853333333334
2325410635 -0.10873566666666667 -0.7422033333333333
2326896514 -0.10129333333333333 -0.7429456666666666
2328382393 -0.103526 -0.7423553333333333
2329868272 -0.10076633333333333 -0.7431146666666667
2331354151 -0.10899366666666666 -0.7415080000000001
2332840030 -0.098593 -0.7416116666666667
2334325909 -0.11342266666666667 -0.7410063333333333
2335811788 -0.10121166666666666 -0.7374313333333333
2337297667 -0.114933 -0.7328116666666666
2338783546 -0.10574866666666667 -0.7318923333333333
2340269425 -0.11207699999999998 -0.7286590000000001
2341755304 -0.108498 -0.7318836666666666
2343241183 -0.11158933333333333 -0.7357516666666667
2344727062 -0.10261566666666666 -0.739359
2346212941 -0.111705 -0.7385613333333333
2347698820 -0.11176833333333334 -0.7414350000000001
2349184699 -0.11527966666666667 -0.7416363333333335
2350670578 -0.10907833333333333 -0.7402626666666667
2352156457 -0.120054 -0.7428663333333333
2353642336 -0.10954566666666667 -0.7450203333333333
2355128215 -0.11676233333333334 -0.7424946666666666
2356614094 -0.115635 -0.7421766666666668
2358099973 -0.12387333333333332 -0.7362933333333334
2359585852 -0.115383 -0.73957
2361071731 -0.11588733333333333 -0.7363436666666666
2362557610 -0.12096933333333333 -0.7326686666666666
2364043489 -0.12126366666666666 -0.7363529999999999
2365529368 -0.11799100000000001 -0.7312280000000001
2367015247 -0.12233 -0.729405
2368501126 -0.121363 -0.7270166666666666
2369987005 -0.12045299999999999 -0.7195493333333335
2371472884 -0.12228233333333334 -0.7261496666666667
2372958763 -0.125024 -0.7279206666666665
2374444642 -0.124753 -0.7333736666666666
2375930521 -0.12344166666666667 -0.7320416666666666
2377416400 -0.12595133333333333 -0.7316193333333333
2378902279 -0.12551 -0.7375556666666667
2380388158 -0.122597 -0.735218
2381874037 -0.11761666666666666 -0.7353506666666667
2383359916 -0.11995099999999999 -0.7370473333333333
2384845795 -0.12017333333333334 -0.737423
2386331674 -0.120643 -0.7360096666666666
2387817553 -0.12039933333333332 -0.7375396666666667
2389303432 -0.11973533333333332 -0.7347263333333333
2390789311 -0.117427 -0.7329776666666667
2392275190 -0.11828500000000002 -0.7319643333333333
2393761069 -0.11865366666666667 -0.7280906666666667
2395246948 -0.11808433333333333 -0.7264753333333333
2396732827 -0.12194966666666666 -0.720583
2398218706 -0.11805399999999999 -0.71658
2399704585 -0.122459 -0.717208
2401190464 -0.12028533333333334 -0.7177226666666666
2402676343 -0.11708466666666667 -0.7186556666666667
2404162222 -0.122982 -0.7232466666666667
2405648101 -0.12310533333333334 -0.7252710000000001
2407133980 -0.127259 -0.7260070000000001
2408619859 -0.12449833333333334 -0.7295303333333333
2410105738 -0.124292 -0.7298903333333334
2411591617 -0.12678633333333333 -0.7290273333333334
2413077496 -0.12815166666666666 -0.7313056666666666
2414563375 -0.129689 -0.73256
2416049254 -0.12793033333333334 -0.7299159999999999
2417535133 -0.12467233333333333 -0.7322686666666667
2419021012 -0.12560833333333332 -0.7261176666666667
2420506891 -0.13166233333333333 -0.7328806666666666
2421992770 -0.13014133333333333 -0.7317426666666668
2423478649 -0.12829933333333335 -0.7277163333333334
2424964528 -0.13578933333333335 -0.7258163333333334
2426450407 -0.1304276666666667 -0.7221376666666667
2427936286 -0.122977 -0.7179763333333332
2429422165 -0.13373366666666667 -0.7192156666666666
2430908044 -0.13256966666666667 -0.7176640000000001
2432393923 -0.13286299999999998 -0.7207509999999999
2433879802 -0.1396086666666667 -0.7253423333333333
2435365681 -0.13648933333333332 -0.726968
2436851560 -0.136082 -0.7254756666666666
2438337439 -0.13794133333333333 -0.7276600000000001
2439823318 -0.13598666666666667 -0.730937
2441309197 -0.13748666666666667 -0.7311623333333334
2442795076 -0.13789933333333335 -0.7317103333333334
2444280955 -0.13375066666666666 -0.7303893333333334
2445766834 -0.13913833333333334 -0.7281003333333333
2447252713 -0.13359366666666664 -0.7252323333333334
2448738592 -0.13664233333333334 -0.7259956666666666
2450224471 -0.13341366666666668 -0.7231136666666668
2451710350 -0.137575 -0.7214866666666667
2453196229 -0.13831533333333332 -0.7202463333333333
2454682108 -0.13556533333333332 -0.717851
2456167987 -0.13521399999999997 -0.7140326666666666
2457653866 -0.13273666666666664 -0.710695
2459139745 -0.13111333333333333 -0.7073506666666667
2460625624 -0.13853366666666667 -0.7089696666666666
2462111503 -0.1381123333333333 -0.7094509999999999
2463597382 -0.138232 -0.7127916666666666
2465083261 -0.13827266666666668 -0.7127266666666667
2466569140 -0.13746066666666668 -0.7139510000000001
2468055019 -0.14261433333333332 -0.7155183333333334
2469540898 -0.14205166666666666 -0.7188683333333333
2471026777 -0.14259833333333335 -0.7181186666666667
2472512656 -0.142756 -0.718839
2473998535 -0.143033 -0.7154196666666667
2475484414 -0.142585 -0.7174696666666667
2476970293 -0.14257333333333333 -0.7178856666666666
2478456172 -0.14698666666666668 -0.7163426666666667
2479942051 -0.142674 -0.7143163333333332
2481427930 -0.12911433333333333 -0.7318669999999999
2482913809 -0.14216966666666667 -0.7101023333333334
2484399688 -0.13835333333333333 -0.7096493333333332
2485885567 -0.14161100000000001 -0.706499
2487371446 -0.14374533333333334 -0.705731
2488857325 -0.146257 -0.7020203333333334
2490343204 -0.14396533333333336 -0.6980283333333333
2491829083 -0.14342466666666664 -0.6998660000000001
2493314962 -0.146651 -0.7047896666666666
2494800841 -0.14791566666666667 -0.7079719999999999
2496286720 -0.14862233333333333 -0.7068913333333334
2497772599 -0.14694066666666664 -0.7119226666666666
2499258478 -0.14594466666666667 -0.7127863333333333
2500744357 -0.14586233333333332 -0.7146716666666667
2502230236 -0.145193 -0.71691
2503716115 -0.14423266666666668 -0.7184650000000001
2505201994 -0.142807 -0.7191259999999998
2506687873 -0.1431456666666667 -0.718353
2508173752 -0.13959166666666667 -0.7185933333333333
2509659631 -0.14245533333333335 -0.7144483333333334
2511145510 -0.14092400000000002 -0.7186113333333334
2512631389 -0.141656 -0.7168943333333333
2514117268 -0.14135833333333334 -0.7123343333333333
2515603147 -0.137609 -0.7123126666666666
2517089026 -0.13744466666666666 -0.710733
2518574905 -0.13768033333333332 -0.7058546666666667
2520060784 -0.13597 -0.7027193333333334
2521546663 -0.13969633333333334 -0.709876
2523032542 -0.13985100000000003 -0.7110213333333334
2524518421 -0.14340266666666668 -0.7113936666666666
2526004300 -0.142219 -0.7124619999999999
2527490179 -0.14055433333333334 -0.7166943333333333
2528976058 -0.14211933333333335 -0.7162936666666666
2530461937 -0.14263 -0.7174683333333333
2531947816 -0.14612433333333333 -0.7171056666666668
2533433695 -0.14067533333333335 -0.723766
2534919574 -0.13975033333333334 -0.7184813333333334
2536405453 -0.14535033333333333 -0.7198116666666666
2537891332 -0.1443243333333333 -0.7179496666666667
2539377211 -0.14770999999999998 -0.7167979999999999
2540863090 -0.14592733333333333 -0.7172363333333333
2542348969 -0.14224333333333336 -0.7193903333333335
2543834848 -0.14580633333333334 -0.7141419999999999
2545320727 -0.14711200000000002 -0.7114756666666665
2546806606 -0.14977200000000002 -0.711376
2548292485 -0.145469 -0.7068193333333334
2549778364 -0.15245466666666666 -0.7038303333333333
2551264243 -0.15274433333333334 -0.7089253333333333
2552750122 -0.151177 -0.7100556666666668
2554236001 -0.15269633333333335 -0.7128796666666667
2555721880 -0.15366933333333332 -0.7121186666666667
2557207759 -0.15789066666666665 -0.7131206666666667
2558693638 -0.15145866666666666 -0.7176343333333334
2560179517 -0.1569853333333333 -0.7173026666666668
2561665396 -0.15901066666666666 -0.7199943333333333
2563151275 -0.155374 -0.7234733333333333
2564637154 -0.1540173333333333 -0.7191963333333334
2566123033 -0.15591433333333332 -0.7243909999999999
2567608912 -0.15581233333333336 -0.7181006666666666
2569094791 -0.15564333333333333 -0.7213600000000001
2570580670 -0.15561599999999998 -0.7213296666666666
2572066549 -0.16260733333333333 -0.7177113333333333
2573552428 -0.15828366666666668 -0.7187199999999999
2575038307 -0.15751166666666666 -0.7148736666666666
2576524186 -0.159052 -0.7130806666666666
2578010065 -0.165762 -0.7145440000000001
2579495944 -0.15494433333333332 -0.708177
2580981823 -0.15864233333333333 -0.7096439999999999
2582467702 -0.15869333333333333 -0.710581
2583953581 -0.15792799999999999 -0.708145
2585439460 -0.15923766666666664 -0.7098
2586925339 -0.15687333333333334 -0.7141683333333334
2588411218 -0.15848133333333334 -0.7115993333333334
2589897097 -0.16181333333333334 -0.7104226666666666
2591382976 -0.158057 -0.7132446666666666
2592868855 -0.155452 -0.7080166666666666
2594354734 -0.155829 -0.7090143333333332
2595840613 -0.15453966666666666 -0.7067599999999999
2597326492 -0.15804500000000002 -0.7035596666666667
2598812371 -0.15440233333333334 -0.7040093333333332
2600298250 -0.15358433333333332 -0.7050026666666667
2601784129 -0.15283766666666665 -0.7027306666666666
2603270008 -0.15406433333333333 -0.695345
2604755887 -0.153556 -0.695269
2606241766 -0.1567126666666667 -0.6893946666666667
2607727645 -0.15604700000000002 -0.688122
2609213524 -0.155294 -0.6812046666666666
2610699403 -0.14986733333333335 -0.6809403333333334
2612185282 -0.155728 -0.6837186666666667
2613671161 -0.15841733333333333 -0.6842446666666667
2615157040 -0.1569906666666667 -0.6899056666666666
2616642919 -0.15954900000000002 -0.6892646666666667
2618128798 -0.155502 -0.6952943333333333
2619614677 -0.15691666666666668 -0.6915990000000001
2621100556 -0.15779166666666666 -0.6941533333333334
2622586435 -0.15959500000000001 -0.6921843333333334
2624072314 -0.15762166666666666 -0.6933293333333332
2625558193 -0.15716699999999997 -0.6901396666666667
2627044072 -0.15073899999999998 -0.6980933333333333
2628529951 -0.15838766666666668 -0.6954826666666666
2630015830 -0.15467966666666666 -0.6933796666666666
2631501709 -0.160594 -0.7002343333333334
2632987588 -0.15689166666666668 -0.6905783333333333
2634473467 -0.15510633333333332 -0.6904043333333334
2635959346 -0.157714 -0.6875903333333334
2637445225 -0.15484233333333333 -0.6863936666666667
2638931104 -0.15621633333333332 -0.6844326666666666
2640416983 -0.15267666666666665 -0.6861166666666666
2641902862 -0.15933999999999998 -0.6849706666666666
2643388741 -0.15547666666666668 -0.6874226666666665
2644874620 -0.15477533333333335 -0.6966163333333334
2646360499 -0.1589016666666667 -0.696472
2647846378 -0.15812633333333334 -0.6985893333333334
2649332257 -0.15761966666666669 -0.7009376666666666
2650818136 -0.160666 -0.7043159999999999
2652304015 -0.163919 -0.7039553333333334
2653789894 -0.16035133333333332 -0.7038973333333334
2655275773 -0.15962166666666666 -0.706929
2656761652 -0.15943133333333334 -0.7069756666666667
2658247531 -0.161178 -0.7055106666666666
2659733410 -0.16716799999999998 -0.7022976666666666
2661219289 -0.16184733333333332 -0.7069383333333333
2662705168 -0.15958 -0.7068423333333334
2664191047 -0.15979333333333334 -0.704311
2665676926 -0.16317633333333334 -0.7045516666666667
2667162805 -0.1599013333333333 -0.7022473333333333
2668648684 -0.15952333333333332 -0.7004003333333334
2670134563 -0.15807366666666667 -0.700632
2671620442 -0.169284 -0.6966846666666666
2673106321 -0.15816066666666667 -0.706646
2674592200 -0.161247 -0.7080596666666668
2676078079 -0.164222 -0.7083746666666667
2677563958 -0.16375133333333333 -0.7058473333333334
2679049837 -0.161919 -0.7113403333333332
2680535716 -0.15954466666666667 -0.7105636666666667
2682021595 -0.159299 -0.7107576666666667
2683507474 -0.16332233333333335 -0.7105333333333334
2684993353 -0.1573433333333333 -0.7128779999999999
2686479232 -0.15845900000000002 -0.7128770000000001
2687965111 -0.15649066666666667 -0.7247746666666667
2689450990 -0.16046166666666667 -0.706988
2690936869 -0.1504926666666667 -0.7054126666666667
2692422748 -0.15437133333333333 -0.7037906666666666
2693908627 -0.160653 -0.6983636666666667
2695394506 -0.15453166666666668 -0.699679
2696880385 -0.15258566666666667 -0.6960783333333334
2698366264 -0.15454900000000002 -0.6912563333333334
2699852143 -0.15293199999999998 -0.6900953333333333
2701338022 -0.15801466666666666 -0.6907086666666666
2702823901 -0.15635866666666667 -0.6929536666666666
2704309780 -0.15537766666666666 -0.6986033333333334
2705795659 -0.14666533333333334 -0.6994083333333334
2707281538 -0.14553866666666668 -0.6986889999999999
2708767417 -0.152833 -0.700465
2710253296 -0.14934866666666666 -0.6979683333333333
2711739175 -0.151452 -0.6996083333333334
2713225054 -0.144953 -0.7019506666666667
2714710933 -0.14333766666666667 -0.698203
2716196812 -0.14054833333333333 -0.7007789999999999
2717682691 -0.143216 -0.7007573333333333
2719168570 -0.138823 -0.7159093333333333
2720654449 -0.15093066666666666 -0.6929043333333333
2722140328 -0.14648966666666666 -0.6920996666666666
2723626207 -0.14118066666666665 -0.6920836666666667
2725112086 -0.14441466666666666 -0.6898
2726597965 -0.14173733333333333 -0.6862119999999999
2728083844 -0.14108833333333334 -0.680538
2729569723 -0.1421353333333333 -0.678284
2731055602 -0.15020466666666665 -0.681504
2732541481 -0.1443833333333333 -0.6838596666666668
2734027360 -0.14928366666666668 -0.6886396666666666
2735513239 -0.15162266666666668 -0.6886673333333334
2736999118 -0.15547066666666667 -0.6887493333333333
2738484997 -0.14745866666666665 -0.6904369999999999
2739970876 -0.16144633333333333 -0.6946133333333333
2741456755 -0.15961733333333336 -0.6941813333333333
2742942634 -0.16185766666666668 -0.7012163333333333
2744428513 -0.16442566666666666 -0.700649
2745914392 -0.16594866666666666 -0.7007773333333334
2747400271 -0.16896200000000003 -0.7049676666666667
2748886150 -0.16509666666666667 -0.7007363333333334
2750372029 -0.171629 -0.7035106666666667
2751857908 -0.16560566666666665 -0.7031846666666667
2753343787 -0.16888566666666668 -0.7021983333333334
2754829666 -0.17669733333333335 -0.7020973333333332
2756315545 -0.16726733333333332 -0.6994616666666666
2757801424 -0.16754033333333332 -0.6969286666666666
2759287303 -0.17179933333333333 -0.6974713333333334
2760773182 -0.16918766666666665 -0.6939776666666667
2762259061 -0.17452066666666666 -0.7001936666666667
2763744940 -0.16714199999999999 -0.7018456666666667
2765230819 -0.17110699999999998 -0.7056706666666667
2766716698 -0.1681693333333333 -0.7043886666666667
2768202577 -0.17369366666666666 -0.7079036666666667
2769688456 -0.17129533333333335 -0.7045626666666666
2771174335 -0.17236533333333334 -0.7071540000000001
2772660214 -0.16876833333333333 -0.7040676666666666
2774146093 -0.170366 -0.707693
2775631972 -0.16948500000000002 -0.710754
2777117851 -0.16154466666666667 -0.7056163333333334
2778603730 -0.16363533333333335 -0.7043666666666667
2780089609 -0.166571 -0.70453
2781575488 -0.16121533333333335 -0.7015333333333333
2783061367 -0.161454 -0.6987856666666667
2784547246 -0.15842166666666666 -0.696199
2786033125 -0.162229 -0.6957639999999999
2787519004 -0.16167033333333333 -0.6873900000000001
2789004883 -0.16005733333333336 -0.6867243333333333
2790490762 -0.16244099999999997 -0.6843823333333333
2791976641 -0.16002366666666668 -0.6884779999999999
2793462520 -0.16445166666666666 -0.6898056666666667
2794948399 -0.161354 -0.6878989999999999
2796434278 -0.16669599999999998 -0.6902423333333334
2797920157 -0.16911933333333332 -0.6944346666666666
2799406036 -0.167973 -0.6939546666666666
2800891915 -0.16958099999999998 -0.6933060000000001
2802377794 -0.1728613333333333 -0.6956363333333334
2803863673 -0.16943433333333333 -0.6974526666666666
2805349552 -0.16852966666666666 -0.6999773333333333
2806835431 -0.17362666666666668 -0.6968463333333333
2808321310 -0.174378 -0.6927626666666667
2809807189 -0.17115733333333336 -0.6954296666666666
2811293068 -0.174462 -0.695011
2812778947 -0.173621 -0.6919446666666667
2814264826 -0.172509 -0.6910433333333333
2815750705 -0.171678 -0.6864263333333334
2817236584 -0.171551 -0.6874583333333334
2818722463 -0.17242666666666664 -0.6860996666666667
2820208342 -0.17255333333333334 -0.6805936666666668
2821694221 -0.17191199999999998 -0.6875823333333333
2823180100 -0.17689833333333335 -0.692883
2824665979 -0.17601666666666668 -0.6932119999999999
2826151858 -0.17453033333333334 -0.6943673333333334
2827637737 -0.17358266666666666 -0.6936293333333333
2829123616 -0.17735899999999996 -0.6985973333333333
2830609495 -0.17567866666666668 -0.6938430000000001
2832095374 -0.17259833333333333 -0.6980513333333334
2833581253 -0.172266 -0.6928666666666666
2835067132 -0.176157 -0.6935466666666666
2836553011 -0.17283 -0.6935813333333334
2838038890 -0.1752463333333333 -0.6891980000000001
2839524769 -0.16966233333333333 -0.688472
2841010648 -0.170808 -0.6920286666666667
2842496527 -0.17375533333333334 -0.6773793333333332
2843982406 -0.17169266666666663 -0.6783960000000001
2845468285 -0.173094 -0.677215
2846954164 -0.17075566666666667 -0.6707203333333333
2848440043 -0.17048233333333332 -0.6689136666666666
2849925922 -0.17651533333333336 -0.6673853333333333
2851411801 -0.17888800000000002 -0.664556
2852897680 -0.16995133333333334 -0.6721716666666667
2854383559 -0.17607966666666666 -0.6751006666666667
2855869438 -0.16920833333333332 -0.675853
2857355317 -0.17183533333333334 -0.676463
2858841196 -0.17036700000000002 -0.680044
2860327075 -0.17567766666666665 -0.6775246666666668
2861812954 -0.17259899999999997 -0.6817706666666666
2863298833 -0.17149099999999998 -0.6830016666666667
2864784712 -0.17248633333333332 -0.6822196666666667
2866270591 -0.17013966666666666 -0.6844756666666667
2867756470 -0.17383266666666666 -0.680541
2869242349 -0.171749 -0.6798903333333334
2870728228 -0.16670633333333332 -0.6808373333333334
2872214107 -0.16907533333333333 -0.6781349999999998
2873699986 -0.17008 -0.6768803333333334
2875185865 -0.16799766666666668 -0.675154
2876671744 -0.166712 -0.673435
2878157623 -0.16477666666666665 -0.6719713333333334
2879643502 -0.16035533333333332 -0.6662336666666667
2881129381 -0.16723833333333335 -0.6689973333333333
2882615260 -0.16739700000000002 -0.6724726666666667
2884101139 -0.17031266666666664 -0.673515
2885587018 -0.16635 -0.6747043333333332
2887072897 -0.170953 -0.677909
2888558776 -0.17503100000000002 -0.6813213333333333
2890044655 -0.17075866666666664 -0.6800643333333333
2891530534 -0.17617833333333333 -0.6811560000000001
2893016413 -0.16881166666666667 -0.6812513333333333
2894502292 -0.171161 -0.6830116666666667
2895988171 -0.1725016666666667 -0.6814833333333333
2897474050 -0.17154533333333336 -0.6816183333333333
2898959929 -0.16959966666666668 -0.6815019999999999
2900445808 -0.17046466666666668 -0.6806536666666666
2901931687 -0.17226366666666668 -0.6793016666666668
2903417566 -0.17048666666666668 -0.6792380000000001
2904903445 -0.17074933333333334 -0.675547
2906389324 -0.171677 -0.67483
2907875203 -0.17306866666666668 -0.6734726666666666
2909361082 -0.17041666666666666 -0.6690896666666667
2910846961 -0.17017366666666667 -0.6703279999999999
2912332840 -0.17658033333333334 -0.6712789999999998
2913818719 -0.17395366666666665 -0.6724096666666668
2915304598 -0.17230733333333334 -0.673771
2916790477 -0.17260833333333336 -0.6738033333333333
2918276356 -0.17472866666666667 -0.678317
2919762235 -0.17673833333333333 -0.6776713333333334
2921248114 -0.16955900000000002 -0.684939
2922733993 -0.1774083333333333 -0.6790060000000001
2924219872 -0.17905800000000002 -0.675917
2925705751 -0.18130366666666667 -0.6783806666666666
2927191630 -0.18141766666666667 -0.6772496666666666
2928677509 -0.179441 -0.67731
2930163388 -0.18261966666666665 -0.6736736666666667
2931649267 -0.18226900000000001 -0.672269
2933135146 -0.18175866666666665 -0.671194
2934621025 -0.17902033333333334 -0.6695913333333333
2936106904 -0.186136 -0.6657890000000001
2937592783 -0.18273933333333334 -0.6650283333333333
2939078662 -0.1837983333333333 -0.6635096666666667
2940564541 -0.189549 -0.6600640000000001
2942050420 -0.185978 -0.6623493333333333
2943536299 -0.19085366666666667 -0.6650633333333333
2945022178 -0.18766366666666667 -0.6638846666666667
2946508057 -0.18700866666666668 -0.6697223333333334
2947993936 -0.189078 -0.6720673333333335
2949479815 -0.189223 -0.6685806666666667
2950965694 -0.18561633333333336 -0.6746193333333332
2952451573 -0.190551 -0.670039
2953937452 -0.186936 -0.6761513333333333
2955423331 -0.18929700000000002 -0.6747256666666667
2956909210 -0.18685666666666667 -0.6747133333333334
2958395089 -0.19012933333333334 -0.6710796666666666
2959880968 -0.186534 -0.6708943333333334
2961366847 -0.18611133333333332 -0.6682793333333333
2962852726 -0.1847903333333333 -0.6640546666666667
2964338605 -0.18474100000000002 -0.6653953333333334
2965824484 -0.183758 -0.663551
2967310363 -0.18211 -0.660717
2968796242 -0.18330366666666664 -0.6566916666666667
2970282121 -0.18245766666666666 -0.6558093333333334
2971768000 -0.183617 -0.6617173333333334
2973253879 -0.18587566666666666 -0.6566569999999999
2974739758 -0.18469166666666667 -0.6648126666666666
2976225637 -0.18794366666666665 -0.6635070000000001
2977711516 -0.181102 -0.669924
2979197395 -0.18549633333333335 -0.6599183333333333
2980683274 -0.183072 -0.6658436666666667
2982169153 -0.1809626666666667 -0.6697813333333333
2983655032 -0.182046 -0.6636533333333333
2985140911 -0.17803633333333332 -0.6703039999999999
2986626790 -0.17933166666666667 -0.6648116666666667
2988112669 -0.17708433333333332 -0.6660436666666666
2989598548 -0.17447233333333334 -0.6646483333333334
2991084427 -0.178297 -0.660097
2992570306 -0.17154033333333332 -0.6644316666666666
2994056185 -0.17576233333333335 -0.6578756666666666
2995542064 -0.17439933333333335 -0.6554823333333334
2997027943 -0.17018466666666665 -0.653725
2998513822 -0.17163566666666666 -0.6512416666666666
2999999701 -0.16980833333333334 -0.6474480000000001
