# HZ S RI R 50
10000 1.0835253333333335 -0.14339200000000002
1495879 0.9388146666666666 1.1807263333333335
2981758 0.5778789999999999 0.6883023333333332
4467637 0.5801146666666667 0.327456
5953516 0.6508616666666667 0.13747800000000002
7439395 0.7433703333333334 0.012058666666666667
8925274 1.0572026666666667 -0.062502
10411153 1.0968193333333334 0.037349
11897032 1.084697 0.168725
13382911 1.0167716666666669 0.2913076666666667
14868790 0.913814 0.3790496666666667
16354669 0.8021433333333333 0.42609800000000003
17840548 0.6983443333333333 0.43971833333333327
19326427 0.6091163333333334 0.43240166666666663
20812306 0.5355606666666667 0.41425333333333336
22298185 0.47728 0.39000999999999997
23784064 0.4292133333333334 0.36413366666666663
25269943 0.391173 0.338092
26755822 0.35958300000000004 0.31318633333333334
28241701 0.3332623333333333 0.28959033333333334
29727580 0.3119263333333333 0.26824966666666666
31213459 0.321954 0.25226433333333337
32699338 0.3382863333333333 0.23813733333333334
34185217 0.353801 0.224526
35671096 0.3690466666666667 0.208319
37156975 0.3841833333333334 0.18948866666666667
38642854 0.398257 0.17282866666666666
40128733 0.41235399999999994 0.149825
41614612 0.4249643333333333 0.13798966666666668
43100491 0.438335 0.11590766666666667
44586370 0.4517346666666667 0.097201
46072249 0.46517800000000004 0.07355966666666666
47558128 0.479641 0.05693366666666666
49044007 0.49579666666666666 0.0398
50529886 0.5148229999999999 0.025063666666666665
52015765 0.5360119999999999 -0.004668333333333333
53501644 0.5648716666666668 -0.023632999999999998
54987523 0.6027003333333333 -0.04919133333333333
56473402 0.6556153333333333 -0.087646
57959281 0.7437256666666666 -0.104937
59445160 0.9013946666666666 -0.08613666666666668
60931039 0.997293 -0.057467333333333336
62416918 1.000771 -0.06743066666666667
63902797 1.004048 -0.077251
65388676 1.005323 -0.08675966666666667
66874555 1.0089303333333335 -0.082918
68360434 1.0013536666666665 -0.1692733333333333
69846313 1.0135123333333333 -0.061226
71332192 1.015865 -0.055627
72818071 1.0137733333333332 -0.100702
74303950 1.0143566666666668 -0.09166266666666667
75789829 1.0179646666666666 -0.025591666666666665
77275708 1.017158 -0.034015333333333335
78761587 1.0155113333333334 -0.028908
80247466 1.0064106666666668 -0.14601266666666668
81733345 1.0104093333333333 -0.098837
83219224 1.0066073333333334 -0.10900399999999999
84705103 1.0005163333333333 -0.13473733333333335
86190982 1.005255 -0.010233666666666667
87676861 0.9950789999999999 -0.126741
89162740 0.9940716666666667 -0.10209
90648619 0.9912170000000001 -0.120688
92134498 0.9942880000000001 -0.12051466666666666
93620377 1.0006746666666666 -0.087716
95106256 1.0014276666666666 -0.11578066666666668
96592135 1.0039446666666667 -0.11498733333333333
98078014 1.0063276666666667 -0.11042766666666666
99563893 1.0083883333333334 -0.10823633333333334
101049772 1.0088603333333335 -0.12212899999999999
102535651 1.0097506666666667 -0.12205566666666667
104021530 1.0089463333333333 -0.12440699999999999
105507409 1.0095906666666667 -0.12550433333333333
106993288 1.0087786666666665 -0.12667533333333333
108479167 1.0078346666666667 -0.12767433333333333
109965046 1.0061606666666665 -0.12858
111450925 1.0038846666666668 -0.128661
112936804 1.001779 -0.131144
114422683 0.9993223333333333 -0.13153800000000002
115908562 0.9960493333333332 -0.13266966666666669
117394441 0.9929406666666667 -0.1335643333333333
118880320 0.9891213333333333 -0.13503133333333334
120366199 0.9868243333333333 -0.13694533333333334
121852078 0.9910693333333334 -0.13804833333333336
123337957 0.9951386666666666 -0.14121533333333333
124823836 0.9987336666666667 -0.14373466666666668
126309715 1.001242 -0.14526433333333336
127795594 1.0041266666666668 -0.147008
129281473 1.0069326666666665 -0.148756
130767352 1.0087796666666666 -0.15057766666666667
132253231 1.0095219999999998 -0.15109000000000003
133739110 1.0121010000000001 -0.1540176666666667
135224989 0.9956223333333333 -0.16414933333333334
136710868 0.9960446666666667 -0.16526333333333335
138196747 0.9955503333333332 -0.165848
139682626 0.9945643333333333 -0.167122
141168505 0.993618 -0.16826133333333335
142654384 0.9927716666666667 -0.16798233333333334
144140263 0.9910936666666667 -0.16878400000000002
145626142 0.9882110000000001 -0.16934166666666664
147112021 0.9852133333333333 -0.169822
148597900 0.9828036666666667 -0.17049766666666666
150083779 0.9793366666666667 -0.17083433333333334
151569658 0.982468 -0.17348733333333333
153055537 0.9855119999999999 -0.17593866666666666
154541416 0.9881570000000001 -0.17855066666666666
156027295 0.9901779999999999 -0.18025066666666667
157513174 0.9930633333333333 -0.181849
158999053 0.9938333333333332 -0.18446033333333334
160484932 0.9959223333333332 -0.18474766666666667
161970811 0.9955143333333333 -0.18682500000000002
163456690 0.995717 -0.18834066666666668
164942569 0.9953123333333332 -0.18895333333333333
166428448 0.994724 -0.190457
167914327 0.993459 -0.1917073333333333
169400206 0.9930716666666667 -0.19334866666666664
170886085 0.9904273333333333 -0.19417666666666666
172371964 0.9893796666666667 -0.19557533333333332
173857843 0.9875626666666667 -0.18962966666666667
175343722 0.9789326666666667 -0.20983166666666664
176829601 0.980824 -0.1987536666666667
178315480 0.9771559999999999 -0.199923
179801359 0.9720316666666666 -0.20180566666666666
181287238 0.975359 -0.20360633333333333
182773117 0.9778859999999999 -0.206519
184258996 0.9804596666666666 -0.20834766666666668
185744875 0.9839496666666666 -0.20420133333333335
187230754 0.9851126666666667 -0.21254533333333336
188716633 0.986517 -0.21397633333333332
190202512 0.9879883333333334 -0.21598033333333333
191688391 0.988444 -0.217463
193174270 0.9893396666666666 -0.21817433333333333
194660149 0.9885643333333335 -0.22033033333333332
196146028 0.988894 -0.22131866666666666
197631907 0.9877926666666667 -0.222912
199117786 0.9860893333333333 -0.22467933333333334
200603665 0.9848953333333333 -0.22599
202089544 0.9825189999999999 -0.22725433333333334
203575423 0.9796143333333333 -0.22854300000000002
205061302 0.9759083333333333 -0.23075800000000002
206547181 0.9729 -0.23169733333333334
208033060 0.9683359999999999 -0.233923
209518939 0.9643963333333333 -0.234553
211004818 0.9658883333333333 -0.23699266666666666
212490697 0.9687740000000001 -0.24000366666666664
213976576 0.9719116666666666 -0.24121033333333333
215462455 0.9752003333333333 -0.24425633333333333
216948334 0.9776590000000001 -0.24603433333333333
218434213 0.9788763333333333 -0.246574
219920092 0.9800813333333332 -0.24845000000000003
221405971 0.9821053333333333 -0.2505173333333333
222891850 0.9805566666666666 -0.25232566666666667
224377729 0.9816413333333333 -0.2534893333333334
225863608 0.9816216666666667 -0.25432366666666667
227349487 0.9803166666666666 -0.255593
228835366 0.978679 -0.2571983333333333
230321245 0.9771106666666668 -0.25880933333333334
231807124 0.973742 -0.26058699999999996
233293003 0.9709416666666667 -0.26171633333333333
234778882 0.9674343333333333 -0.2627393333333333
236264761 0.9632943333333334 -0.2636236666666667
237750640 0.959654 -0.2653163333333333
239236519 0.9547046666666666 -0.26693866666666666
240722398 0.9538989999999999 -0.26885966666666666
242208277 0.958386 -0.27107733333333334
243694156 0.960911 -0.2740073333333333
245180035 0.9641986666666668 -0.27723933333333334
246665914 0.9664353333333334 -0.27915433333333334
248151793 0.968908 -0.280368
249637672 0.9700660000000001 -0.2824433333333333
251123551 0.9709436666666668 -0.2834193333333333
252609430 0.9716366666666666 -0.28462
254095309 0.9715789999999999 -0.2860563333333333
255581188 0.9712903333333333 -0.28748233333333334
257067067 0.9700476666666668 -0.28813700000000003
258552946 0.9683553333333333 -0.290016
260038825 0.9669016666666667 -0.2907403333333333
261524704 0.9632156666666667 -0.29201799999999994
263010583 0.9615463333333333 -0.29285
264496462 0.9573193333333334 -0.2946203333333333
265982341 0.9532923333333333 -0.29566766666666666
267468220 0.948461 -0.2961066666666667
268954099 0.9434273333333333 -0.298458
270439978 0.9412866666666666 -0.29896233333333333
271925857 0.9451093333333334 -0.30276233333333336
273411736 0.9481816666666667 -0.30599466666666664
274897615 0.950994 -0.30850533333333335
276383494 0.9539363333333334 -0.31078433333333333
277869373 0.9567333333333333 -0.313695
279355252 0.9568293333333333 -0.3146563333333333
280841131 0.9588709999999999 -0.3169026666666666
282327010 0.9599696666666667 -0.317966
283812889 0.9599953333333334 -0.3199353333333333
285298768 0.9589716666666668 -0.32139399999999996
286784647 0.9585186666666666 -0.32269033333333336
288270526 0.957286 -0.3236793333333334
289756405 0.9551623333333333 -0.32483166666666663
291242284 0.9529446666666667 -0.32517466666666667
292728163 0.949496 -0.32545366666666664
294214042 0.946112 -0.32632733333333336
295699921 0.9423063333333334 -0.3272486666666667
297185800 0.93735 -0.32783266666666666
298671679 0.9327516666666668 -0.3283203333333333
300157558 0.9283393333333333 -0.32915
301643437 0.9325216666666667 -0.33381900000000003
303129316 0.935272 -0.33690233333333336
304615195 0.937061 -0.34010133333333337
306101074 0.9409893333333335 -0.3422806666666667
307586953 0.9429843333333334 -0.34516833333333335
309072832 0.9455843333333332 -0.346908
310558711 0.946181 -0.348424
312044590 0.947423 -0.35035299999999997
313530469 0.9474593333333333 -0.351526
315016348 0.9473796666666666 -0.3533826666666666
316502227 0.9468139999999999 -0.35485266666666665
317988106 0.9449960000000001 -0.35475933333333326
319473985 0.9431156666666668 -0.35508
320959864 0.9409796666666667 -0.3565956666666666
322445743 0.9372496666666666 -0.3570773333333333
323931622 0.934488 -0.35609133333333337
325417501 0.9314203333333334 -0.35641300000000004
326903380 0.9260306666666667 -0.357338
328389259 0.9210706666666667 -0.3572656666666667
329875138 0.9509916666666668 -0.34375566666666674
331361017 0.9169683333333333 -0.36192566666666665
332846896 0.9203283333333334 -0.36487866666666663
334332775 0.9247153333333333 -0.36276100000000006
335818654 0.9247993333333334 -0.3715626666666667
337304533 0.9273676666666667 -0.3738106666666667
338790412 0.9287009999999999 -0.3769103333333333
340276291 0.929242 -0.378263
341762170 0.9300236666666667 -0.3798413333333333
343248049 0.9299023333333335 -0.38265333333333335
344733928 0.9296776666666666 -0.38406866666666667
346219807 0.9278930000000001 -0.3839103333333333
347705686 0.926146 -0.3850786666666666
349191565 0.9247453333333334 -0.38655
350677444 0.9218603333333334 -0.387338
352163323 0.9187926666666666 -0.38720299999999996
353649202 0.912362 -0.39219066666666663
355135081 0.911936 -0.3877716666666667
356620960 0.9073436666666668 -0.387478
358106839 0.902481 -0.3872656666666667
359592718 0.8968493333333334 -0.386868
361078597 0.8978366666666666 -0.3910146666666667
362564476 0.900369 -0.39472666666666667
364050355 0.902767 -0.39894566666666664
365536234 0.9046013333333334 -0.4013906666666666
367022113 0.9064869999999999 -0.404357
368507992 0.9086856666666666 -0.406951
369993871 0.9090410000000001 -0.40753533333333336
371479750 0.9097153333333333 -0.4107893333333334
372965629 0.910359 -0.41227299999999995
374451508 0.9109856666666666 -0.4135980000000001
375937387 0.9088516666666667 -0.41521600000000003
377423266 0.9084923333333332 -0.416431
378909145 0.9070079999999999 -0.4155326666666667
380395024 0.905015 -0.41604833333333335
381880903 0.905423 -0.4119996666666667
383366782 0.8996049999999999 -0.4158053333333333
384852661 0.8959123333333333 -0.416371
386338540 0.89262 -0.41572733333333334
387824419 0.8877833333333335 -0.4149043333333333
389310298 0.8837583333333333 -0.4156066666666667
390796177 0.8826273333333333 -0.41644166666666665
392282056 0.8845360000000001 -0.42095666666666665
393767935 0.8870746666666666 -0.424137
395253814 0.888483 -0.42709166666666665
396739693 0.8895693333333332 -0.42985566666666664
398225572 0.8915043333333333 -0.43303
399711451 0.89255 -0.43434833333333334
401197330 0.8930009999999999 -0.4368176666666666
402683209 0.8933196666666667 -0.439077
404169088 0.8928476666666666 -0.4398273333333333
405654967 0.892579 -0.44031266666666663
407140846 0.8913473333333334 -0.44125333333333333
408626725 0.8894086666666666 -0.44132533333333335
410112604 0.8884273333333333 -0.44209800000000005
411598483 0.885118 -0.44167266666666666
413084362 0.8832916666666667 -0.442455
414570241 0.8801 -0.4423033333333333
416056120 0.8753013333333334 -0.4421203333333334
417541999 0.872904 -0.440904
419027878 0.8670439999999999 -0.4407813333333333
420513757 0.8651953333333333 -0.44106533333333336
421999636 0.8673723333333333 -0.4456346666666667
423485515 0.8694320000000001 -0.4498356666666667
424971394 0.871229 -0.451926
426457273 0.8716926666666667 -0.4556963333333333
427943152 0.873482 -0.45807833333333337
429429031 0.8747083333333334 -0.4600693333333334
430914910 0.8712270000000001 -0.4674656666666667
432400789 0.8738626666666667 -0.46432366666666663
433886668 0.8700829999999998 -0.46942766666666663
435372547 0.8735970000000001 -0.46613699999999997
436858426 0.8690533333333333 -0.473068
438344305 0.8709813333333334 -0.468145
439830184 0.8663 -0.47359999999999997
441316063 0.8670366666666666 -0.4687596666666667
442801942 0.861603 -0.47411633333333336
444287821 0.861472 -0.469163
445773700 0.8542706666666667 -0.47337433333333334
447259579 0.8540753333333333 -0.46913800000000005
448745458 0.846047 -0.4728776666666667
450231337 0.8456129999999998 -0.46687900000000004
451717216 0.8480690000000001 -0.472277
453203095 0.8512023333333335 -0.47434366666666666
454688974 0.850818 -0.478759
456174853 0.8530183333333333 -0.480945
457660732 0.8537509999999999 -0.482783
459146611 0.8548490000000001 -0.484459
460632490 0.8554930000000001 -0.486774
462118369 0.854445 -0.48811033333333337
463604248 0.8555280000000001 -0.48875700000000005
465090127 0.8552223333333333 -0.49026900000000007
466576006 0.8534989999999999 -0.490526
468061885 0.8532270000000001 -0.49079366666666663
469547764 0.8496376666666667 -0.4916913333333333
471033643 0.8607833333333333 -0.48694566666666667
472519522 0.8454433333333333 -0.4912356666666667
474005401 0.8431643333333333 -0.49102033333333334
475491280 0.8390409999999999 -0.4911843333333333
476977159 0.835425 -0.4900276666666667
478463038 0.8313386666666666 -0.49046799999999996
479948917 0.8272773333333333 -0.48887233333333335
481434796 0.8290913333333333 -0.4925886666666666
482920675 0.8308226666666667 -0.495458
484406554 0.8322539999999999 -0.49898099999999995
485892433 0.8344460000000001 -0.5020073333333334
487378312 0.8348840000000001 -0.5039876666666667
488864191 0.8396136666666667 -0.5001773333333334
490350070 0.837507 -0.5067823333333333
491835949 0.837399 -0.5098153333333332
493321828 0.8373263333333334 -0.5106243333333333
494807707 0.8361586666666666 -0.5128046666666667
496293586 0.8365966666666665 -0.5124036666666667
497779465 0.8334016666666667 -0.5134759999999999
499265344 0.8338683333333333 -0.5125866666666666
500751223 0.8315263333333333 -0.5135723333333333
502237102 0.828481 -0.5122336666666666
503722981 0.8259836666666667 -0.5134936666666667
505208860 0.8225726666666667 -0.5129480000000001
506694739 0.8183333333333334 -0.5116126666666666
508180618 0.8141913333333334 -0.5120840000000001
509666497 0.8093499999999999 -0.5110713333333333
511152376 0.8099973333333333 -0.5135353333333333
512638255 0.812782 -0.5177336666666666
514124134 0.8152176666666667 -0.5204046666666667
515610013 0.8172036666666666 -0.522024
517095892 0.817344 -0.5252533333333332
518581771 0.8184066666666666 -0.5278546666666667
520067650 0.8194719999999999 -0.5283306666666667
521553529 0.8198743333333333 -0.5312843333333334
523039408 0.819813 -0.532447
524525287 0.8181083333333333 -0.5335230000000001
526011166 0.817536 -0.5343443333333333
527497045 0.816827 -0.5342623333333333
528982924 0.8149933333333333 -0.5342403333333334
530468803 0.812636 -0.5344433333333334
531954682 0.8105159999999999 -0.5342530000000001
533440561 0.8050463333333333 -0.5391226666666666
534926440 0.8025206666666667 -0.533781
536412319 0.8003396666666666 -0.533166
537898198 0.7950083333333332 -0.5343640000000001
539384077 0.7898499999999999 -0.5331653333333334
540869956 0.790417 -0.5338786666666667
542355835 0.793195 -0.5367376666666667
543841714 0.7967449999999999 -0.538015
545327593 0.7967810000000001 -0.540408
546813472 0.7978193333333333 -0.5433046666666667
548299351 0.7994720000000001 -0.5422933333333333
549785230 0.7990243333333332 -0.5458033333333333
551271109 0.7997213333333333 -0.545562
552756988 0.7992306666666668 -0.5462483333333333
554242867 0.799254 -0.546068
555728746 0.8001983333333333 -0.5439443333333334
557214625 0.7971233333333334 -0.5439226666666667
558700504 0.7957350000000001 -0.5428923333333334
560186383 0.7930036666666666 -0.5428033333333332
561672262 0.789968 -0.5415083333333334
563158141 0.7879743333333334 -0.5397956666666667
564644020 0.7829323333333332 -0.539106
566129899 0.7790003333333333 -0.5378536666666667
567615778 0.7746236666666667 -0.5345363333333334
569101657 0.768888 -0.5346363333333334
570587536 0.7661899999999999 -0.5341293333333333
572073415 0.767506 -0.5395056666666667
573559294 0.769736 -0.5435356666666666
575045173 0.7696869999999999 -0.5489543333333332
576531052 0.7719336666666666 -0.5519029999999999
578016931 0.771419 -0.5564616666666666
579502810 0.77225 -0.5582166666666666
580988689 0.7728069999999999 -0.5612646666666666
582474568 0.7707313333333333 -0.564815
583960447 0.771979 -0.5650756666666666
585446326 0.7703709999999999 -0.5673986666666666
586932205 0.7694926666666667 -0.5696813333333334
588418084 0.7673549999999999 -0.5712659999999999
589903963 0.7658196666666667 -0.5712473333333333
591389842 0.7626196666666667 -0.5720946666666666
592875721 0.7605366666666665 -0.5730173333333334
594361600 0.7566473333333333 -0.5727036666666666
595847479 0.7521893333333333 -0.5741013333333332
597333358 0.7484296666666667 -0.5738
598819237 0.7455233333333334 -0.5736786666666666
600305116 0.7420593333333333 -0.5743913333333334
601790995 0.7430073333333334 -0.577889
603276874 0.7468863333333333 -0.5815686666666667
604762753 0.747955 -0.5846576666666666
606248632 0.7503303333333333 -0.587695
607734511 0.7503366666666667 -0.5903256666666666
609220390 0.752294 -0.5928816666666666
610706269 0.7514683333333334 -0.5953753333333333
612192148 0.752579 -0.5965403333333333
613678027 0.7523456666666667 -0.5982983333333334
615163906 0.7506856666666666 -0.5994503333333333
616649785 0.7515456666666668 -0.5997073333333334
618135664 0.7495056666666667 -0.6003893333333333
619621543 0.7486609999999999 -0.598402
621107422 0.746231 -0.5990833333333333
622593301 0.74351 -0.5987496666666666
624079180 0.7424026666666667 -0.5963313333333332
625565059 0.7379073333333332 -0.5956556666666667
627050938 0.7336746666666666 -0.5948636666666668
628536817 0.7295769999999999 -0.593251
630022696 0.7260956666666667 -0.5909743333333334
631508575 0.7279986666666667 -0.594766
632994454 0.7287529999999999 -0.6011496666666667
634480333 0.7298853333333333 -0.603258
635966212 0.7319563333333333 -0.6067093333333333
637452091 0.733515 -0.6093196666666667
638937970 0.732192 -0.6119806666666666
640423849 0.7331506666666666 -0.612124
641909728 0.7331076666666667 -0.6156426666666667
643395607 0.7330223333333333 -0.6153080000000001
644881486 0.7322383333333334 -0.6161146666666667
646367365 0.733149 -0.616892
647853244 0.7318560000000001 -0.6160456666666666
649339123 0.729949 -0.6172373333333333
650825002 0.7275153333333333 -0.6160473333333334
652310881 0.7252519999999999 -0.6153906666666668
653796760 0.7240596666666667 -0.612553
655282639 0.72397 -0.6087380000000001
656768518 0.7158973333333333 -0.6097260000000001
658254397 0.7117923333333334 -0.6100656666666666
659740276 0.708615 -0.606792
661226155 0.7092643333333334 -0.6102126666666666
662712034 0.7120946666666667 -0.612488
664197913 0.7126116666666666 -0.6165713333333334
665683792 0.7136553333333334 -0.6181760000000001
667169671 0.7145703333333334 -0.6211116666666667
668655550 0.7145346666666667 -0.6241526666666667
670141429 0.7160833333333333 -0.6257703333333334
671627308 0.715725 -0.6264310000000001
673113187 0.718802 -0.6274703333333332
674599066 0.7174636666666666 -0.6282046666666666
676084945 0.7553 -0.6254143333333334
677570824 0.7156893333333333 -0.6266993333333334
679056703 0.715281 -0.6254143333333333
680542582 0.709453 -0.6286026666666666
682028461 0.710484 -0.6256849999999999
683514340 0.70914 -0.6229716666666666
685000219 0.7059903333333333 -0.622172
686486098 0.7038513333333333 -0.6207026666666666
687971977 0.6996366666666667 -0.6185023333333334
689457856 0.6959443333333333 -0.615386
690943735 0.6942933333333333 -0.6181666666666666
692429614 0.6952936666666667 -0.6213746666666667
693915493 0.6962556666666666 -0.6248343333333333
695401372 0.6952736666666667 -0.6287313333333334
696887251 0.6968513333333334 -0.630627
698373130 0.697477 -0.633448
699859009 0.695982 -0.6351746666666668
701344888 0.6962866666666666 -0.6360256666666667
702830767 0.6948253333333333 -0.6378400000000001
704316646 0.694988 -0.6385413333333333
705802525 0.6941923333333332 -0.6386146666666667
707288404 0.6901653333333333 -0.641603
708774283 0.6864043333333334 -0.6420586666666667
710260162 0.6845043333333334 -0.6429330000000001
711746041 0.6841246666666666 -0.6413956666666666
713231920 0.6794676666666667 -0.6419633333333334
714717799 0.6769463333333334 -0.642505
716203678 0.6728766666666667 -0.6413986666666668
717689557 0.6713673333333333 -0.63827
719175436 0.6656903333333334 -0.637099
720661315 0.663856 -0.6379009999999999
722147194 0.6649973333333333 -0.6421026666666666
723633073 0.6657973333333334 -0.6455903333333333
725118952 0.6674776666666666 -0.6483243333333334
726604831 0.6687613333333333 -0.6506816666666667
728090710 0.6695076666666667 -0.6523696666666667
729576589 0.669387 -0.6549983333333333
731062468 0.6687656666666667 -0.656745
732548347 0.6680306666666667 -0.6573506666666667
734034226 0.6695226666666666 -0.658545
735520105 0.667245 -0.660962
737005984 0.6666753333333334 -0.6590056666666667
738491863 0.6649253333333333 -0.660049
739977742 0.662555 -0.6581133333333332
741463621 0.6617063333333334 -0.6589806666666667
742949500 0.6606433333333334 -0.6581986666666667
744435379 0.6583496666666667 -0.6566276666666666
745921258 0.6556686666666667 -0.655228
747407137 0.650776 -0.6554133333333333
748893016 0.647593 -0.653722
750378895 0.6467186666666667 -0.6520320000000001
751864774 0.6465470000000001 -0.656097
753350653 0.6472393333333333 -0.656826
754836532 0.6495100000000001 -0.6628656666666667
756322411 0.650364 -0.6644303333333332
757808290 0.648629 -0.667224
759294169 0.649936 -0.6681523333333333
760780048 0.6498026666666666 -0.6692953333333334
762265927 0.6485393333333332 -0.6719863333333334
763751806 0.6470766666666666 -0.6718263333333333
765237685 0.6480996666666666 -0.6723676666666667
766723564 0.6457893333333334 -0.6727586666666667
768209443 0.6459423333333333 -0.6712509999999999
769695322 0.6414190000000001 -0.6724263333333332
771181201 0.6401823333333333 -0.6719740000000001
772667080 0.6379146666666666 -0.6711073333333334
774152959 0.6352593333333333 -0.6699403333333334
775638838 0.6319953333333334 -0.6683979999999999
777124717 0.6283273333333333 -0.667164
778610596 0.6239693333333334 -0.6657373333333333
780096475 0.6213353333333332 -0.6633003333333334
781582354 0.621513 -0.668187
783068233 0.6234833333333333 -0.6707973333333334
784554112 0.6251083333333334 -0.6743836666666666
786039991 0.6267486666666667 -0.6768533333333333
787525870 0.627749 -0.6779853333333333
789011749 0.6279493333333334 -0.6807513333333333
790497628 0.6285046666666666 -0.6821146666666666
791983507 0.628783 -0.6835223333333333
793469386 0.6288659999999999 -0.6842343333333334
794955265 0.6291733333333333 -0.6833913333333334
796441144 0.6282753333333333 -0.6847376666666668
797927023 0.6272446666666667 -0.6838163333333332
799412902 0.6259956666666667 -0.6829103333333334
800898781 0.6239786666666668 -0.6830513333333333
802384660 0.6219903333333333 -0.68106
803870539 0.619954 -0.6808633333333333
805356418 0.6166193333333334 -0.678279
806842297 0.614012 -0.6765813333333334
808328176 0.6101726666666666 -0.6737540000000001
809814055 0.6062443333333333 -0.6719743333333333
811299934 0.6064896666666667 -0.6750523333333334
812785813 0.608772 -0.6791563333333334
814271692 0.608222 -0.68301
815757571 0.6081949999999999 -0.6852103333333334
817243450 0.609644 -0.6875723333333333
818729329 0.6089923333333332 -0.6913870000000001
820215208 0.6147776666666667 -0.6908336666666667
821701087 0.6082186666666667 -0.6953766666666666
823186966 0.6119773333333334 -0.6940103333333334
824672845 0.6072216666666667 -0.6977253333333334
826158724 0.6107290000000001 -0.6944803333333334
827644603 0.6018666666666667 -0.7004373333333334
829130482 0.6073696666666667 -0.694461
830616361 0.5971696666666667 -0.6996766666666666
832102240 0.6035106666666666 -0.6941056666666666
833588119 0.5915593333333332 -0.69864
835073998 0.5978683333333333 -0.6922389999999999
836559877 0.5566993333333333 -0.6929826666666666
838045756 0.5910316666666667 -0.6879403333333333
839531635 0.5769716666666667 -0.6918666666666667
841017514 0.5867216666666667 -0.6882290000000001
842503393 0.577643 -0.6995089999999999
843989272 0.5880766666666667 -0.6959346666666667
845475151 0.5806623333333333 -0.7053833333333334
846961030 0.5872386666666667 -0.7034373333333334
848446909 0.581643 -0.7097223333333332
849932788 0.5909046666666667 -0.7051886666666668
851418667 0.5814336666666666 -0.713199
852904546 0.5898586666666668 -0.7091310000000001
854390425 0.5799066666666667 -0.7147133333333334
855876304 0.5872959999999999 -0.7106076666666666
857362183 0.5776153333333333 -0.715758
858848062 0.5856886666666666 -0.7097910000000001
860333941 0.577049 -0.713288
861819820 0.581867 -0.7071576666666667
863305699 0.5715096666666667 -0.7111776666666666
864791578 0.5766333333333332 -0.7055923333333333
866277457 0.5663256666666667 -0.7066849999999999
867763336 0.5724953333333334 -0.7008373333333333
869249215 0.5600310000000001 -0.7016936666666665
870735094 0.563298 -0.6993383333333334
872220973 0.5624976666666667 -0.7044416666666667
873706852 0.5633193333333333 -0.7076796666666666
875192731 0.563574 -0.7115653333333333
876678610 0.5658 -0.7128073333333332
878164489 0.5635439999999999 -0.7170506666666667
879650368 0.5656043333333333 -0.7177553333333333
881136247 0.5654376666666666 -0.7188133333333333
882622126 0.5658629999999999 -0.7196910000000001
884108005 0.5639746666666666 -0.7228833333333333
885593884 0.5638783333333334 -0.7209466666666667
887079763 0.5628993333333333 -0.7213243333333333
888565642 0.5623130000000001 -0.720309
890051521 0.559307 -0.719613
891537400 0.5583443333333333 -0.7185896666666668
893023279 0.5568460000000001 -0.71789
894509158 0.5560703333333333 -0.7139729999999999
895995037 0.5512593333333333 -0.7137683333333333
897480916 0.5498023333333334 -0.7104360000000001
898966795 0.5436913333333333 -0.7077946666666667
900452674 0.5418916666666667 -0.7084050000000001
901938553 0.5422253333333334 -0.7127396666666667
903424432 0.544655 -0.7151709999999999
904910311 0.5448676666666666 -0.7171706666666666
906396190 0.5437683333333333 -0.7195343333333334
907882069 0.5444273333333333 -0.722354
909367948 0.5451126666666667 -0.7245739999999999
910853827 0.5433086666666667 -0.7279396666666668
912339706 0.543717 -0.7294633333333334
913825585 0.5423786666666667 -0.7297113333333334
915311464 0.544501 -0.72975
916797343 0.5411203333333333 -0.7296293333333334
918283222 0.5391906666666667 -0.7294363333333332
919769101 0.5396553333333333 -0.7292786666666666
921254980 0.5388106666666667 -0.7259669999999999
922740859 0.5336030000000002 -0.726576
924226738 0.5331656666666666 -0.7246736666666665
925712617 0.5315703333333334 -0.722194
927198496 0.5267463333333333 -0.7202623333333333
928684375 0.521256 -0.7209133333333334
930170254 0.4893173333333333 -0.698839
931656133 0.5227236666666667 -0.7189869999999999
933142012 0.523936 -0.7222843333333334
934627891 0.5229933333333333 -0.726404
936113770 0.5254846666666667 -0.7278910000000001
937599649 0.5256626666666666 -0.730712
939085528 0.525134 -0.7328416666666667
940571407 0.5240813333333333 -0.7348256666666667
942057286 0.52493 -0.736173
943543165 0.5256773333333333 -0.7365526666666667
945029044 0.5251583333333333 -0.7373963333333333
946514923 0.5236016666666666 -0.7366693333333334
948000802 0.5236913333333333 -0.737734
949486681 0.5248596666666666 -0.7357606666666667
950972560 0.5217756666666666 -0.7366753333333333
952458439 0.52178 -0.7332299999999999
953944318 0.5185153333333333 -0.7329159999999999
955430197 0.5177003333333333 -0.7308613333333334
956916076 0.516485 -0.7276343333333332
958401955 0.5140586666666667 -0.7259236666666666
959887834 0.5109026666666666 -0.723599
961373713 0.5116493333333333 -0.7257933333333333
962859592 0.510493 -0.730158
964345471 0.511579 -0.7316086666666667
965831350 0.510169 -0.7346933333333333
967317229 0.5109526666666667 -0.7378833333333334
968803108 0.511643 -0.7392993333333333
970288987 0.509972 -0.7405473333333333
971774866 0.5106223333333334 -0.7422763333333333
973260745 0.5087223333333333 -0.7431533333333333
974746624 0.5089693333333333 -0.7421526666666667
976232503 0.5074753333333334 -0.7431329999999999
977718382 0.5051726666666666 -0.7440823333333334
979204261 0.5054646666666667 -0.743402
980690140 0.5032206666666666 -0.7430856666666666
982176019 0.5023873333333334 -0.741375
983661898 0.4989113333333333 -0.7393986666666668
985147777 0.49809600000000004 -0.7383953333333334
986633656 0.49429000000000006 -0.7380813333333333
988119535 0.49202133333333337 -0.7354176666666667
989605414 0.49139333333333335 -0.732799
991091293 0.4894696666666667 -0.735141
992577172 0.49465200000000004 -0.7348856666666667
994063051 0.490257 -0.7399823333333333
995548930 0.49495966666666663 -0.7392226666666666
997034809 0.489241 -0.7445473333333332
998520688 0.4947683333333333 -0.7439866666666667
1000006567 0.49061399999999994 -0.746485
1001492446 0.49219266666666667 -0.7466659999999999
1002978325 0.49098366666666665 -0.7475786666666666
1004464204 0.49225199999999997 -0.7468226666666666
1005950083 0.4883693333333334 -0.7485493333333334
1007435962 0.492953 -0.7452153333333333
1008921841 0.48534600000000006 -0.7485503333333333
1010407720 0.48878133333333335 -0.7458453333333334
1011893599 0.48242199999999996 -0.7459346666666667
1013379478 0.485874 -0.7427333333333332
1014865357 0.47803199999999996 -0.7434233333333333
1016351236 0.48100999999999994 -0.7393823333333334
1017837115 0.47334899999999996 -0.7391356666666667
1019322994 0.47738966666666666 -0.7350326666666667
1020808873 0.47006533333333334 -0.7377586666666667
1022294752 0.47540033333333337 -0.7388556666666668
1023780631 0.471665 -0.7431010000000001
1025266510 0.47633233333333336 -0.743386
1026752389 0.47325999999999996 -0.7481460000000001
1028238268 0.47786633333333334 -0.7468556666666667
1029724147 0.47334266666666663 -0.7500783333333333
1031210026 0.476485 -0.7494643333333334
1032695905 0.47231633333333334 -0.7521106666666667
1034181784 0.47603066666666666 -0.7503349999999999
1035667663 0.4693346666666667 -0.7524373333333333
1037153542 0.4707403333333333 -0.752252
1038639421 0.47021766666666664 -0.7531626666666668
1040125300 0.4659946666666667 -0.7514616666666667
1041611179 0.466122 -0.7503456666666667
1043097058 0.4624726666666667 -0.7508896666666667
1044582937 0.4605726666666666 -0.7489516666666667
1046068816 0.4583196666666667 -0.7477836666666667
1047554695 0.45400899999999994 -0.7470903333333334
1049040574 0.45129866666666674 -0.7431333333333333
1050526453 0.45183533333333337 -0.7430249999999999
1052012332 0.45153233333333337 -0.745406
1053498211 0.4514373333333333 -0.7495536666666668
1054984090 0.4524896666666667 -0.7525143333333334
1056469969 0.453513 -0.7545926666666668
1057955848 0.454713 -0.7562823333333334
1059441727 0.453584 -0.7583053333333334
1060927606 0.45175899999999997 -0.7614000000000001
1062413485 0.45587400000000006 -0.7599033333333334
1063899364 0.4537436666666667 -0.7607010000000001
1065385243 0.453899 -0.7606073333333333
1066871122 0.45108466666666663 -0.7615533333333334
1068357001 0.45237733333333335 -0.7605453333333333
1069842880 0.47506999999999994 -0.7623863333333333
1071328759 0.44615099999999996 -0.7610166666666666
1072814638 0.4477256666666667 -0.7581663333333332
1074300517 0.44436666666666663 -0.7561846666666666
1075786396 0.44138400000000005 -0.754235
1077272275 0.43908366666666665 -0.7531093333333333
1078758154 0.43708199999999997 -0.7509596666666667
1080244033 0.43387166666666666 -0.749589
1081729912 0.43543000000000004 -0.7533516666666666
1083215791 0.43442933333333333 -0.7569643333333334
1084701670 0.43580900000000006 -0.7601563333333333
1086187549 0.43757533333333337 -0.7615463333333333
1087673428 0.43654433333333337 -0.7634166666666666
1089159307 0.43722633333333333 -0.7638956666666666
1090645186 0.439139 -0.7653423333333333
1092131065 0.436669 -0.7670253333333333
1093616944 0.43737066666666663 -0.7668353333333333
1095102823 0.43545066666666665 -0.7685249999999999
1096588702 0.43631233333333336 -0.7679140000000001
1098074581 0.4358026666666667 -0.7663786666666668
1099560460 0.43446500000000005 -0.7646610000000001
1101046339 0.43089266666666665 -0.7642496666666666
1102532218 0.43121133333333334 -0.7637893333333334
1104018097 0.42538666666666664 -0.7606173333333333
1105503976 0.427802 -0.7588586666666667
1106989855 0.42384266666666665 -0.755527
1108475734 0.418509 -0.7546343333333333
1109961613 0.41408 -0.7512766666666666
1111447492 0.41538 -0.755773
1112933371 0.4167779999999999 -0.758038
1114419250 0.41856066666666664 -0.7613463333333333
1115905129 0.4179716666666667 -0.7645066666666667
1117391008 0.41871600000000003 -0.7663413333333334
1118876887 0.41745833333333326 -0.7697836666666666
1120362766 0.4177596666666667 -0.770301
1121848645 0.41815433333333335 -0.7717860000000001
1123334524 0.41818266666666665 -0.7723353333333334
1124820403 0.4186276666666666 -0.7729413333333334
1126306282 0.4168513333333333 -0.7724763333333334
1127792161 0.41754399999999997 -0.7724863333333333
1129278040 0.41450633333333337 -0.772512
1130763919 0.411052 -0.7713916666666667
1132249798 0.411156 -0.769065
1133735677 0.40426500000000004 -0.7696670000000001
1135221556 0.40877 -0.7661203333333333
1136707435 0.4040893333333333 -0.7645376666666666
1138193314 0.40138633333333334 -0.7618906666666666
1139679193 0.399691 -0.7585123333333333
1141165072 0.394412 -0.7611343333333332
1142650951 0.3989606666666667 -0.7666826666666666
1144136830 0.397523 -0.7698893333333333
1145622709 0.39746499999999996 -0.7709136666666666
1147108588 0.399089 -0.7729019999999999
1148594467 0.3999166666666667 -0.7755113333333333
1150080346 0.39716599999999996 -0.7778813333333333
1151566225 0.3997283333333333 -0.7766346666666667
1153052104 0.398456 -0.7783283333333334
1154537983 0.39715733333333336 -0.7806746666666667
1156023862 0.3964006666666666 -0.7788006666666667
1157509741 0.3965256666666666 -0.7778830000000001
1158995620 0.395055 -0.7766783333333332
1160481499 0.39452366666666666 -0.774852
1161967378 0.39488233333333334 -0.77314
1163453257 0.3912676666666666 -0.7711963333333335
1164939136 0.3875766666666667 -0.7704676666666668
1166425015 0.385118 -0.766914
1167910894 0.38258400000000004 -0.7647020000000001
1169396773 0.378686 -0.7616116666666666
1170882652 0.376964 -0.7627079999999999
1172368531 0.37716466666666665 -0.7656536666666667
1173854410 0.37739300000000003 -0.7688173333333334
1175340289 0.37636766666666666 -0.7716430000000001
1176826168 0.37638299999999997 -0.7744273333333332
1178312047 0.37717466666666666 -0.775779
1179797926 0.377864 -0.7768799999999999
1181283805 0.3751926666666667 -0.7784713333333334
1182769684 0.3754146666666667 -0.7784176666666666
1184255563 0.3741293333333333 -0.7801716666666666
1185741442 0.37514733333333333 -0.7784460000000001
1187227321 0.37330599999999997 -0.7784633333333333
1188713200 0.37037000000000003 -0.7771876666666667
1190199079 0.37100599999999995 -0.775602
1191684958 0.36700533333333335 -0.7749590000000001
1193170837 0.3656456666666667 -0.7728823333333334
1194656716 0.363054 -0.7711216666666667
1196142595 0.3623133333333333 -0.7675886666666667
1197628474 0.35899533333333333 -0.764668
1199114353 0.3554283333333334 -0.761874
1200600232 0.35349 -0.7616766666666667
1202086111 0.3552963333333334 -0.7652173333333333
1203571990 0.35487433333333335 -0.769215
1205057869 0.35487399999999997 -0.7724989999999999
1206543748 0.354789 -0.7766403333333334
1208029627 0.35377833333333336 -0.7776886666666667
1209515506 0.35383800000000004 -0.7790046666666667
1211001385 0.35560100000000006 -0.7796316666666666
1212487264 0.35389 -0.7819286666666666
1213973143 0.35547866666666667 -0.7828103333333333
1215459022 0.3542943333333333 -0.7816006666666667
1216944901 0.355188 -0.7812993333333332
1218430780 0.3549903333333333 -0.780557
1219916659 0.35145833333333326 -0.7799493333333333
1221402538 0.34115199999999996 -0.8230846666666666
1222888417 0.3517696666666667 -0.7763059999999999
1224374296 0.349671 -0.774204
1225860175 0.3459083333333333 -0.7722676666666667
1227346054 0.346609 -0.769905
1228831933 0.34200566666666665 -0.767128
1230317812 0.343203 -0.7637396666666666
1231803691 0.34116433333333335 -0.766784
1233289570 0.341348 -0.7707063333333334
1234775449 0.34274066666666664 -0.7730800000000001
1236261328 0.3400573333333334 -0.7749526666666666
1237747207 0.3400463333333334 -0.777444
1239233086 0.34227 -0.7796336666666667
1240718965 0.33854199999999995 -0.781529
1242204844 0.339786 -0.7818206666666666
1243690723 0.3399563333333333 -0.782447
1245176602 0.33860633333333334 -0.7813180000000001
1246662481 0.339894 -0.7798163333333333
1248148360 0.33863266666666664 -0.7797456666666666
1249634239 0.3392186666666667 -0.7777183333333334
1251120118 0.33837933333333337 -0.77597
1252605997 0.3375616666666666 -0.7735393333333332
1254091876 0.3348656666666667 -0.7721036666666667
1255577755 0.3344456666666667 -0.7684946666666667
1257063634 0.3349516666666667 -0.7665703333333335
1258549513 0.330073 -0.7649393333333333
1260035392 0.328717 -0.7579376666666667
1261521271 0.32680266666666674 -0.7629213333333335
1263007150 0.32640833333333336 -0.76552
1264493029 0.32859166666666667 -0.7691556666666667
1265978908 0.32683466666666666 -0.7703993333333333
1267464787 0.32651300000000005 -0.7722863333333333
1268950666 0.32344900000000004 -0.775986
1270436545 0.3242296666666667 -0.7751206666666667
1271922424 0.32236233333333336 -0.7779226666666667
1273408303 0.3238816666666667 -0.7777440000000001
1274894182 0.3229043333333333 -0.7780406666666666
1276380061 0.31788333333333335 -0.7780556666666666
1277865940 0.3189766666666667 -0.777108
1279351819 0.31847633333333336 -0.77678
1280837698 0.3170963333333333 -0.7757203333333332
1282323577 0.31628433333333333 -0.7742193333333333
1283809456 0.31359133333333333 -0.7743603333333334
1285295335 0.335255 -0.7762393333333333
1286781214 0.31104466666666664 -0.7699813333333334
1288267093 0.30987866666666664 -0.7680526666666667
1289752972 0.30657399999999996 -0.7629389999999999
1291238851 0.30635300000000004 -0.7672193333333334
1292724730 0.30804800000000004 -0.7708533333333333
1294210609 0.30256866666666665 -0.7743993333333333
1295696488 0.30493933333333334 -0.7750130000000001
1297182367 0.3062286666666667 -0.7763333333333334
1298668246 0.3060676666666667 -0.77793
1300154125 0.30444933333333335 -0.7796686666666667
1301640004 0.30552433333333334 -0.781545
1303125883 0.306174 -0.7823086666666667
1304611762 0.3069743333333333 -0.7827343333333333
1306097641 0.3067843333333334 -0.7815973333333334
1307583520 0.30730266666666667 -0.7809526666666667
1309069399 0.3039696666666667 -0.780646
1310555278 0.3053536666666667 -0.7801943333333333
1312041157 0.30586166666666664 -0.7788096666666666
1313527036 0.30315866666666663 -0.777854
1315012915 0.3067386666666667 -0.7726053333333333
1316498794 0.3028936666666666 -0.7718020000000001
1317984673 0.301289 -0.7687189999999999
1319470552 0.30092366666666664 -0.7675223333333333
1320956431 0.300268 -0.7699190000000001
1322442310 0.29756133333333334 -0.7708013333333333
1323928189 0.29780466666666666 -0.7750849999999999
1325414068 0.297375 -0.7784913333333332
1326899947 0.2991426666666666 -0.778812
1328385826 0.29944133333333334 -0.7799356666666667
1329871705 0.29877333333333334 -0.7820313333333333
1331357584 0.299035 -0.7829419999999999
1332843463 0.297529 -0.7833989999999998
1334329342 0.2976906666666667 -0.7845590000000001
1335815221 0.2954656666666667 -0.7870976666666666
1337301100 0.2986763333333333 -0.7841993333333334
1338786979 0.29567866666666665 -0.7851933333333333
1340272858 0.2948736666666667 -0.7844030000000001
1341758737 0.29312200000000005 -0.7832733333333334
1343244616 0.29356833333333326 -0.7826253333333334
1344730495 0.29019799999999996 -0.7819573333333333
1346216374 0.2878783333333334 -0.7811253333333333
1347702253 0.2881283333333333 -0.7789456666666666
1349188132 0.2847403333333333 -0.7768926666666668
1350674011 0.28428733333333334 -0.7768146666666667
1352159890 0.285202 -0.7785226666666666
1353645769 0.287902 -0.7798219999999999
1355131648 0.28348900000000005 -0.7819380000000001
1356617527 0.2820203333333333 -0.7840379999999999
1358103406 0.28130499999999997 -0.7843823333333333
1359589285 0.28176399999999996 -0.784838
1361075164 0.280862 -0.785809
1362561043 0.27915266666666666 -0.7864906666666668
1364046922 0.27904899999999994 -0.7860529999999999
1365532801 0.2784413333333333 -0.785745
1367018680 0.27613333333333334 -0.7829016666666667
1368504559 0.27488033333333334 -0.7836583333333333
1369990438 0.27033599999999997 -0.783743
1371476317 0.2711596666666667 -0.7805316666666666
1372962196 0.269795 -0.7792193333333334
1374448075 0.26369266666666663 -0.7784773333333334
1375933954 0.2596213333333333 -0.7761856666666667
1377419833 0.259966 -0.7732476666666667
1378905712 0.28135566666666667 -0.7830509999999999
1380391591 0.2531406666666666 -0.7708873333333334
1381877470 0.2523396666666667 -0.773695
1383363349 0.25603966666666667 -0.7766143333333333
1384849228 0.2545006666666667 -0.7797930000000001
1386335107 0.2553436666666667 -0.781319
1387820986 0.260521 -0.7835556666666667
1389306865 0.26013933333333333 -0.7850246666666667
1390792744 0.259292 -0.7862253333333333
1392278623 0.260488 -0.786744
1393764502 0.26338833333333334 -0.7866926666666666
1395250381 0.26250666666666667 -0.7859133333333334
1396736260 0.26122666666666666 -0.7864260000000001
1398222139 0.2610036666666667 -0.7851279999999999
1399708018 0.2610966666666667 -0.785533
1401193897 0.26050100000000004 -0.783815
1402679776 0.25650599999999996 -0.7803020000000002
1404165655 0.2577506666666667 -0.781364
1405651534 0.25732166666666667 -0.7757123333333333
1407137413 0.25649533333333335 -0.774194
1408623292 0.25585066666666667 -0.771465
1410109171 0.25221566666666667 -0.769853
1411595050 0.2508603333333333 -0.7756723333333332
1413080929 0.2541043333333333 -0.7767390000000001
1414566808 0.2566886666666666 -0.7818323333333334
1416052687 0.25941166666666665 -0.782162
1417538566 0.25482733333333335 -0.7825826666666668
1419024445 0.2586416666666667 -0.7861743333333333
1420510324 0.25963733333333333 -0.7904993333333333
1421996203 0.2582556666666666 -0.7920883333333334
1423482082 0.2616443333333333 -0.7903943333333333
1424967961 0.2608786666666667 -0.7903160000000001
1426453840 0.2596353333333334 -0.7911716666666667
1427939719 0.260416 -0.7912340000000001
1429425598 0.26117266666666666 -0.7906020000000001
1430911477 0.26155833333333334 -0.7888416666666666
1432397356 0.25834533333333337 -0.789189
1433883235 0.25856033333333334 -0.785873
1435369114 0.25826066666666664 -0.7828643333333333
1436854993 0.25420133333333333 -0.7818533333333333
1438340872 0.2534456666666666 -0.7778703333333334
1439826751 0.25081166666666665 -0.7754296666666667
1441312630 0.251361 -0.776354
1442798509 0.25075733333333333 -0.7814003333333334
1444284388 0.250102 -0.7834666666666666
1445770267 0.24862099999999998 -0.786345
1447256146 0.25182166666666667 -0.7869933333333333
1448742025 0.25128233333333333 -0.7881783333333333
1450227904 0.2534446666666667 -0.7895449999999999
1451713783 0.25232366666666667 -0.7887063333333334
1453199662 0.25057766666666664 -0.790677
1454685541 0.2505016666666667 -0.7906036666666667
1456171420 0.2482513333333333 -0.7897493333333334
1457657299 0.24967366666666668 -0.7884920000000001
1459143178 0.24631133333333333 -0.7879680000000001
1460629057 0.2460726666666667 -0.785632
1462114936 0.24347266666666667 -0.783617
1463600815 0.24051066666666668 -0.781908
1465086694 0.23945033333333332 -0.7790156666666667
1466572573 0.238271 -0.775709
1468058452 0.233946 -0.7737756666666668
1469544331 0.23123033333333332 -0.7692353333333334
1471030210 0.23095566666666667 -0.7712383333333334
1472516089 0.23226566666666668 -0.7756926666666667
1474001968 0.23460466666666666 -0.777257
1475487847 0.23196666666666665 -0.7811846666666667
1476973726 0.23089233333333334 -0.784641
1478459605 0.23352433333333333 -0.7864646666666667
1479945484 0.230313 -0.7877896666666667
1481431363 0.23274066666666668 -0.7891640000000001
1482917242 0.23303733333333332 -0.7895546666666666
1484403121 0.23314966666666667 -0.7894886666666666
1485889000 0.23054133333333335 -0.789794
1487374879 0.2316883333333333 -0.7899943333333335
1488860758 0.233675 -0.7886329999999999
1490346637 0.23078366666666664 -0.787906
1491832516 0.23079233333333335 -0.785377
1493318395 0.23125066666666663 -0.7823669999999999
1494804274 0.23260100000000003 -0.7810463333333333
1496290153 0.22610133333333335 -0.7792453333333333
1497776032 0.2247106666666667 -0.7753826666666667
1499261911 0.222352 -0.7717376666666667
1500747790 0.22150566666666668 -0.7718143333333334
1502233669 0.2204273333333333 -0.7747593333333334
1503719548 0.220523 -0.7793903333333333
1505205427 0.22000233333333333 -0.7805523333333334
1506691306 0.21914733333333333 -0.7834119999999999
1508177185 0.22079533333333334 -0.7852003333333334
1509663064 0.21741633333333332 -0.7875273333333332
1511148943 0.21702466666666667 -0.7880146666666666
1512634822 0.21895066666666665 -0.789456
1514120701 0.2199783333333333 -0.789399
1515606580 0.215647 -0.7884486666666667
1517092459 0.219441 -0.7880593333333333
1518578338 0.214884 -0.7873303333333334
1520064217 0.229877 -0.7901253333333335
1521550096 0.20925266666666667 -0.7848023333333334
1523035975 0.211634 -0.7824383333333333
1524521854 0.211782 -0.7788746666666667
1526007733 0.20636066666666666 -0.7770523333333333
1527493612 0.20812566666666665 -0.7735
1528979491 0.20292833333333335 -0.7704876666666666
1530465370 0.19934466666666664 -0.7702513333333334
1531951249 0.20611866666666667 -0.8081053333333333
1533437128 0.20124466666666666 -0.7764003333333332
1534923007 0.20192900000000003 -0.7777983333333333
1536408886 0.199132 -0.781278
1537894765 0.2005026666666667 -0.782576
1539380644 0.1970896666666667 -0.7850246666666667
1540866523 0.20105599999999998 -0.784023
1542352402 0.19893833333333333 -0.786263
1543838281 0.199599 -0.7856283333333334
1545324160 0.19714933333333332 -0.7866036666666667
1546810039 0.20124733333333333 -0.784067
1548295918 0.197168 -0.783618
1549781797 0.19985566666666665 -0.7800073333333334
1551267676 0.19486866666666666 -0.7799649999999999
1552753555 0.19530833333333333 -0.7780926666666667
1554239434 0.19547066666666665 -0.7753633333333333
1555725313 0.19406200000000004 -0.773086
1557211192 0.19504333333333332 -0.7683713333333334
1558697071 0.18796533333333332 -0.7660243333333332
1560182950 0.192438 -0.7611913333333334
1561668829 0.18908266666666665 -0.766379
1563154708 0.18745199999999998 -0.7697790000000001
1564640587 0.18728599999999998 -0.7721426666666668
1566126466 0.18895733333333334 -0.7745799999999999
1567612345 0.18664566666666668 -0.7766203333333334
1569098224 0.18700333333333333 -0.778379
1570584103 0.18778799999999998 -0.7796223333333333
1572069982 0.18555533333333332 -0.7806363333333334
1573555861 0.1841843333333333 -0.7829033333333334
1575041740 0.18467966666666666 -0.7826956666666667
1576527619 0.18397033333333335 -0.7820236666666668
1578013498 0.18332766666666667 -0.7824826666666667
1579499377 0.18451233333333336 -0.7808686666666667
1580985256 0.18442266666666665 -0.7795523333333333
1582471135 0.183218 -0.7774346666666667
1583957014 0.181885 -0.7765913333333333
1585442893 0.1848886666666667 -0.7764159999999999
1586928772 0.179324 -0.7711693333333333
1588414651 0.17845266666666668 -0.7689786666666668
1589900530 0.17642166666666667 -0.7664956666666667
1591386409 0.17550666666666667 -0.7678223333333333
1592872288 0.17490333333333333 -0.7710310000000001
1594358167 0.1765756666666667 -0.7728296666666666
1595844046 0.17430833333333332 -0.7761606666666667
1597329925 0.17604766666666669 -0.7779216666666667
1598815804 0.17243966666666666 -0.7790333333333334
1600301683 0.17232766666666666 -0.7809143333333334
1601787562 0.1739746666666667 -0.7815810000000001
1603273441 0.171138 -0.7821536666666665
1604759320 0.17254066666666668 -0.7824186666666666
1606245199 0.174961 -0.7818993333333334
1607731078 0.17236700000000002 -0.7810579999999999
1609216957 0.17287666666666665 -0.780761
1610702836 0.17230866666666667 -0.7782743333333334
1612188715 0.170119 -0.7787956666666666
1613674594 0.17259666666666665 -0.7756053333333334
1615160473 0.1689773333333333 -0.7744193333333333
1616646352 0.1713066666666667 -0.7712479999999999
1618132231 0.16941133333333333 -0.768402
1619618110 0.1700326666666667 -0.7636783333333333
1621103989 0.16504566666666667 -0.7663826666666665
1622589868 0.16532966666666668 -0.7690346666666666
1624075747 0.16447033333333336 -0.7719033333333334
1625561626 0.16393666666666665 -0.773961
1627047505 0.162293 -0.7760546666666667
1628533384 0.16073333333333334 -0.7777620000000001
1630019263 0.16216066666666665 -0.7780549999999998
1631505142 0.16228233333333333 -0.7786196666666667
1632991021 0.15877733333333333 -0.780322
1634476900 0.15943633333333332 -0.7803843333333332
1635962779 0.15638633333333332 -0.781167
1637448658 0.15743700000000002 -0.7792896666666667
1638934537 0.15864066666666665 -0.7799360000000001
1640420416 0.153744 -0.7786633333333334
1641906295 0.15373 -0.7785026666666667
1643392174 0.15087799999999998 -0.7769573333333333
1644878053 0.1511336666666667 -0.7751363333333333
1646363932 0.15275133333333332 -0.7714333333333333
1647849811 0.14843333333333333 -0.7715783333333333
1649335690 0.14871199999999998 -0.7674593333333334
1650821569 0.148829 -0.7669016666666666
1652307448 0.1477433333333333 -0.7708503333333333
1653793327 0.147485 -0.7741176666666666
1655279206 0.14394666666666667 -0.7745843333333333
1656765085 0.14763033333333334 -0.7755163333333334
1658250964 0.146902 -0.7773680000000001
1659736843 0.14638033333333333 -0.7778036666666667
1661222722 0.145087 -0.7795023333333333
1662708601 0.145884 -0.7796943333333334
1664194480 0.14531233333333335 -0.7793303333333333
1665680359 0.14509533333333333 -0.778241
1667166238 0.142953 -0.7787543333333334
1668652117 0.14291933333333331 -0.7757176666666666
1670137996 0.15892266666666666 -0.8079913333333333
1671623875 0.14606633333333333 -0.7741806666666666
1673109754 0.14054466666666665 -0.7720286666666666
1674595633 0.14325666666666667 -0.7692636666666667
1676081512 0.13844866666666666 -0.7673186666666667
1677567391 0.13792066666666666 -0.7640493333333334
1679053270 0.13594766666666666 -0.761501
1680539149 0.13414033333333333 -0.7607826666666666
1682025028 0.1370833333333333 -0.7625803333333333
1683510907 0.13673366666666667 -0.76547
1684996786 0.13956033333333331 -0.769141
1686482665 0.136987 -0.7707633333333334
1687968544 0.134679 -0.7742476666666667
1689454423 0.13831000000000002 -0.7738056666666667
1690940302 0.13956366666666664 -0.7771750000000001
1692426181 0.13977900000000001 -0.7765736666666667
1693912060 0.14117133333333332 -0.773584
1695397939 0.13888866666666666 -0.7783056666666667
1696883818 0.139214 -0.7771330000000001
1698369697 0.140333 -0.77497
1699855576 0.14167766666666667 -0.7748736666666667
1701341455 0.138655 -0.7747719999999999
1702827334 0.139364 -0.7719573333333333
1704313213 0.14137999999999998 -0.7670503333333333
1705799092 0.13623433333333332 -0.7649656666666665
1707284971 0.13522233333333333 -0.764189
1708770850 0.13641933333333334 -0.7617233333333333
1710256729 0.13546233333333335 -0.7590913333333335
1711742608 0.13510066666666667 -0.762152
1713228487 0.13511400000000004 -0.764892
1714714366 0.134947 -0.7673596666666667
1716200245 0.13712033333333332 -0.7697233333333333
1717686124 0.13382066666666667 -0.7712363333333333
1719172003 0.13621033333333332 -0.7728653333333334
1720657882 0.13579766666666668 -0.7717446666666667
1722143761 0.13264600000000001 -0.773502
1723629640 0.130041 -0.7642756666666667
1725115519 0.13542 -0.7743676666666667
1726601398 0.13596666666666665 -0.7720386666666667
1728087277 0.132625 -0.772344
1729573156 0.13384700000000002 -0.7696663333333333
1731059035 0.13163333333333335 -0.7699646666666666
1732544914 0.13229966666666668 -0.7674249999999999
1734030793 0.12981399999999998 -0.7651243333333334
1735516672 0.129872 -0.7637863333333333
1737002551 0.126634 -0.7606526666666666
1738488430 0.123881 -0.758369
1739974309 0.12326433333333332 -0.754001
1741460188 0.12520366666666669 -0.756827
1742946067 0.12520233333333333 -0.761139
1744431946 0.12276833333333333 -0.7637499999999999
1745917825 0.12330166666666668 -0.765896
1747403704 0.12248566666666666 -0.7689866666666667
1748889583 0.12243199999999999 -0.768371
1750375462 0.123039 -0.7712370000000001
1751861341 0.124726 -0.7710936666666667
1753347220 0.12283999999999999 -0.771743
1754833099 0.12093733333333333 -0.7738116666666667
1756318978 0.122737 -0.7723930000000001
1757804857 0.12129166666666667 -0.771963
1759290736 0.11836766666666666 -0.7706023333333333
1760776615 0.119176 -0.7692416666666668
1762262494 0.12100033333333333 -0.7674150000000001
1763748373 0.11821066666666667 -0.7675936666666666
1765234252 0.118937 -0.7655556666666667
1766720131 0.118753 -0.763295
1768206010 0.11496033333333333 -0.7578743333333332
1769691889 0.113219 -0.7559140000000001
1771177768 0.11497533333333333 -0.7583706666666666
1772663647 0.11417500000000001 -0.7606470000000001
1774149526 0.11288766666666666 -0.7642413333333332
1775635405 0.11688433333333333 -0.7664613333333333
1777121284 0.113079 -0.7695346666666666
1778607163 0.112288 -0.769301
1780093042 0.11346733333333335 -0.7736546666666667
1781578921 0.114439 -0.772261
1783064800 0.11632733333333334 -0.7755076666666666
1784550679 0.11385033333333333 -0.774452
1786036558 0.11604966666666668 -0.7725126666666666
1787522437 0.11657433333333334 -0.7748863333333333
1789008316 0.11264566666666669 -0.7726303333333333
1790494195 0.11539333333333333 -0.7711073333333333
1791980074 0.11764400000000001 -0.7684476666666668
1793465953 0.11555833333333333 -0.7674286666666665
1794951832 0.11387166666666666 -0.7648630000000001
1796437711 0.11187866666666667 -0.761993
1797923590 0.11386766666666666 -0.7578536666666666
1799409469 0.11171433333333332 -0.7549576666666667
1800895348 0.110334 -0.7556456666666667
1802381227 0.10966966666666667 -0.7584863333333334
1803867106 0.11039166666666667 -0.7591226666666667
1805352985 0.11209766666666666 -0.7629886666666666
1806838864 0.10994833333333333 -0.7640926666666666
1808324743 0.11257733333333332 -0.7663223333333334
1809810622 0.11127333333333334 -0.7679429999999999
1811296501 0.11020200000000001 -0.7678576666666667
1812782380 0.10988466666666667 -0.767541
1814268259 0.109748 -0.766056
1815754138 0.110996 -0.7691616666666666
1817240017 0.107254 -0.765654
1818725896 0.111041 -0.7628213333333335
1820211775 0.108958 -0.7644553333333333
1821697654 0.11054433333333334 -0.7607423333333333
1823183533 0.107854 -0.7580076666666665
1824669412 0.10870566666666666 -0.7579126666666666
1826155291 0.107014 -0.7526866666666666
1827641170 0.10662333333333333 -0.7507366666666666
1829127049 0.08928833333333334 -0.7253426666666667
1830612928 0.10056233333333332 -0.7462643333333334
1832098807 0.09787433333333333 -0.7477386666666667
1833584686 0.09904366666666668 -0.7532456666666668
1835070565 0.10053066666666666 -0.7536889999999999
1836556444 0.09906300000000001 -0.7579323333333333
1838042323 0.10512733333333335 -0.757361
1839528202 0.09916066666666667 -0.7597766666666667
1841014081 0.101482 -0.7622863333333333
1842499960 0.10080766666666667 -0.7612253333333333
1843985839 0.096178 -0.7633703333333334
1845471718 0.09758133333333334 -0.7651279999999999
1846957597 0.096621 -0.7629276666666667
1848443476 0.09608766666666667 -0.764485
1849929355 0.093537 -0.7632249999999999
1851415234 0.09403100000000002 -0.7619056666666667
1852901113 0.09511633333333334 -0.7602540000000001
1854386992 0.09371566666666668 -0.756119
1855872871 0.09452633333333332 -0.756064
1857358750 0.09282833333333333 -0.7518983333333334
1858844629 0.08924 -0.7509420000000001
1860330508 0.09156199999999999 -0.7481366666666668
1861816387 0.09018833333333333 -0.752771
1863302266 0.08570533333333334 -0.7541906666666667
1864788145 0.09096466666666668 -0.7568826666666667
1866274024 0.09054866666666667 -0.7579203333333334
1867759903 0.089124 -0.761586
1869245782 0.087714 -0.762292
1870731661 0.09039133333333332 -0.764191
1872217540 0.092044 -0.7660836666666667
1873703419 0.08996866666666666 -0.7645099999999999
1875189298 0.08543866666666666 -0.7651140000000001
1876675177 0.088814 -0.7640243333333334
1878161056 0.091214 -0.7640356666666667
1879646935 0.08484399999999999 -0.764363
1881132814 0.08839733333333333 -0.7615259999999999
1882618693 0.085702 -0.7600453333333334
1884104572 0.08561266666666667 -0.759097
1885590451 0.08497500000000001 -0.7565583333333333
1887076330 0.08479966666666666 -0.7533096666666665
1888562209 0.08196033333333333 -0.7517466666666666
1890048088 0.083074 -0.7472803333333333
1891533967 0.08009733333333334 -0.7512439999999999
1893019846 0.07980333333333332 -0.7527156666666667
1894505725 0.07972366666666665 -0.7533343333333332
1895991604 0.07845566666666667 -0.753461
1897477483 0.08300099999999999 -0.7575363333333334
1898963362 0.08265366666666667 -0.7584
1900449241 0.08412133333333334 -0.7567856666666666
1901935120 0.08074833333333332 -0.7608513333333334
1903420999 0.08115300000000002 -0.7590636666666667
1904906878 0.08093233333333333 -0.7595413333333333
1906392757 0.086225 -0.7560033333333332
1907878636 0.08345633333333334 -0.7562446666666668
1909364515 0.07786833333333333 -0.7552806666666667
1910850394 0.081807 -0.753443
1912336273 0.07749133333333333 -0.7524246666666667
1913822152 0.07903700000000001 -0.7502913333333333
1915308031 0.07761933333333333 -0.7468836666666666
1916793910 0.080289 -0.743138
1918279789 0.075173 -0.740133
1919765668 0.07613033333333334 -0.7373313333333332
1921251547 0.07398966666666666 -0.7391169999999999
1922737426 0.07340166666666667 -0.7416193333333334
1924223305 0.07432733333333334 -0.7424240000000001
1925709184 0.07412766666666666 -0.747116
1927195063 0.07143466666666666 -0.748713
1928680942 0.07447633333333332 -0.750778
1930166821 0.07090099999999999 -0.7537923333333333
1931652700 0.07164666666666666 -0.7519886666666666
1933138579 0.06978433333333332 -0.7537353333333333
1934624458 0.06876333333333333 -0.752482
1936110337 0.06719966666666667 -0.7540316666666667
1937596216 0.06835066666666667 -0.7533089999999999
1939082095 0.06802366666666668 -0.7542706666666666
1940567974 0.069324 -0.7520656666666666
1942053853 0.06636466666666667 -0.7499310000000001
1943539732 0.06752466666666668 -0.7490953333333333
1945025611 0.06451266666666666 -0.7478646666666666
1946511490 0.06268133333333333 -0.745964
1947997369 0.06559233333333332 -0.7418726666666666
1949483248 0.06369466666666666 -0.7407406666666668
1950969127 0.06365366666666666 -0.7419933333333333
1952455006 0.06382633333333333 -0.7439543333333334
1953940885 0.061670333333333334 -0.746952
1955426764 0.057866999999999995 -0.7491273333333334
1956912643 0.06274266666666667 -0.7497903333333333
1958398522 0.061815666666666665 -0.749816
1959884401 0.061790333333333336 -0.7519566666666666
1961370280 0.059058 -0.753066
1962856159 0.057506 -0.7538793333333333
1964342038 0.056760000000000005 -0.7534146666666667
1965827917 0.056476 -0.7523399999999999
1967313796 0.057883 -0.7525073333333333
1968799675 0.05801666666666666 -0.7501226666666666
1970285554 0.076668 -0.764603
1971771433 0.05967366666666666 -0.747595
1973257312 0.05638033333333333 -0.744979
1974743191 0.05803833333333334 -0.7421863333333333
1976229070 0.051356000000000006 -0.7431126666666666
1977714949 0.05415433333333333 -0.7377556666666667
1979200828 0.03902066666666667 -0.7340616666666667
1980686707 0.05103366666666667 -0.7342910000000001
1982172586 0.05361866666666667 -0.737638
1983658465 0.05306633333333333 -0.739558
1985144344 0.05455366666666667 -0.7411616666666667
1986630223 0.04899566666666667 -0.7434836666666667
1988116102 0.05529566666666667 -0.743308
1989601981 0.05254066666666666 -0.7487326666666667
1991087860 0.04885233333333333 -0.7462126666666667
1992573739 0.050288 -0.7476446666666666
1994059618 0.049862333333333335 -0.7473696666666667
1995545497 0.050665999999999996 -0.747729
1997031376 0.050339999999999996 -0.7464136666666666
1998517255 0.04930266666666666 -0.745173
2000003134 0.049744000000000003 -0.742969
2001489013 0.051587999999999995 -0.7433549999999999
2002974892 0.049919333333333336 -0.7403286666666666
2004460771 0.05001766666666666 -0.7373790000000001
2005946650 0.04840166666666667 -0.734409
2007432529 0.044922 -0.7328936666666667
2008918408 0.045858333333333334 -0.7314930000000001
2010404287 0.04481966666666667 -0.727359
2011890166 0.04248066666666667 -0.7314163333333333
2013376045 0.041376333333333334 -0.7345443333333334
2014861924 0.042791 -0.736655
2016347803 0.041056 -0.7392306666666667
2017833682 0.042527 -0.7408629999999999
2019319561 0.041942 -0.7423556666666666
2020805440 0.04182666666666667 -0.7426026666666666
2022291319 0.04187633333333333 -0.7443676666666668
2023777198 0.043298 -0.7413936666666666
2025263077 0.04089266666666667 -0.7453763333333333
2026748956 0.04024233333333333 -0.7451953333333333
2028234835 0.040466999999999996 -0.7434243333333334
2029720714 0.03858366666666666 -0.7456996666666668
2031206593 0.040163 -0.7424216666666666
2032692472 0.035838666666666665 -0.7412986666666667
2034178351 0.039562999999999994 -0.7393253333333334
2035664230 0.039370333333333334 -0.73751
2037150109 0.038408 -0.7336586666666666
2038635988 0.03670933333333334 -0.7313956666666668
2040121867 0.036628333333333325 -0.7310653333333333
2041607746 0.03669066666666667 -0.7318206666666667
2043093625 0.03492666666666667 -0.7338999999999999
2044579504 0.03640033333333333 -0.735883
2046065383 0.034472666666666665 -0.7372299999999999
2047551262 0.03431800000000001 -0.7388123333333333
2049037141 0.030773333333333333 -0.7401056666666667
2050523020 0.030420000000000003 -0.7412323333333334
2052008899 0.032725 -0.7395706666666667
2053494778 0.03552966666666666 -0.7404510000000001
2054980657 0.03258933333333333 -0.7389973333333333
2056466536 0.030965333333333334 -0.739599
2057952415 0.03273766666666667 -0.7390506666666666
2059438294 0.030177 -0.7359786666666667
2060924173 0.029423 -0.735497
2062410052 0.029302666666666668 -0.732206
2063895931 0.025741999999999998 -0.7320226666666666
2065381810 0.027757 -0.7279276666666666
2066867689 0.028501333333333333 -0.7261573333333334
2068353568 0.024756 -0.723817
2069839447 0.024255333333333334 -0.7215846666666668
2071325326 0.021781333333333333 -0.7218253333333333
2072811205 0.023572 -0.7253786666666667
2074297084 0.023708666666666666 -0.7281436666666666
2075782963 0.022147333333333335 -0.7302013333333334
2077268842 0.022982333333333337 -0.7312799999999999
2078754721 0.021846 -0.7330156666666667
2080240600 0.024720333333333334 -0.7336043333333334
2081726479 0.021824333333333334 -0.7369306666666667
2083212358 0.023968 -0.7367596666666666
2084698237 0.023842000000000002 -0.7384539999999999
2086184116 0.025685666666666666 -0.7386396666666667
2087669995 0.025108999999999996 -0.738117
2089155874 0.024025 -0.7373543333333333
2090641753 0.023066666666666666 -0.737199
2092127632 0.024508000000000002 -0.7349533333333333
2093613511 0.024824 -0.73299
2095099390 0.028199666666666665 -0.7303423333333333
2096585269 0.023436333333333333 -0.7282016666666666
2098071148 0.024303333333333333 -0.7265526666666666
2099557027 0.024235000000000003 -0.7222706666666667
2101042906 0.022597666666666665 -0.724204
2102528785 0.022033666666666663 -0.7265130000000001
2104014664 0.021618333333333333 -0.7300766666666666
2105500543 0.019578666666666664 -0.7308810000000001
2106986422 0.020637666666666665 -0.7343846666666667
2108472301 0.02278933333333333 -0.7355656666666666
2109958180 0.018869 -0.7359176666666668
2111444059 0.021182666666666666 -0.737029
2112929938 0.020058 -0.7387229999999999
2114415817 0.019669666666666665 -0.7379656666666667
2115901696 0.019234666666666667 -0.7383283333333334
2117387575 0.022489333333333333 -0.738338
2118873454 0.019024666666666665 -0.736929
2120359333 0.020431 -0.7359833333333333
2121845212 0.019908 -0.7350976666666668
2123331091 0.022415666666666667 -0.7325309999999999
2124816970 0.019045999999999997 -0.732095
2126302849 0.02075566666666667 -0.7295683333333333
2127788728 0.019667333333333332 -0.7264200000000001
2129274607 0.015286 -0.7234389999999999
2130760486 0.016488666666666665 -0.7251203333333334
2132246365 0.014865666666666668 -0.7260046666666667
2133732244 0.014681666666666668 -0.7290389999999999
2135218123 0.017034666666666667 -0.731779
2136704002 0.009247666666666666 -0.7311033333333334
2138189881 0.009846333333333334 -0.7341786666666666
2139675760 0.010055333333333333 -0.7374533333333333
2141161639 0.009642333333333334 -0.7356973333333333
2142647518 0.011846666666666667 -0.736707
2144133397 0.012208000000000002 -0.7375163333333333
2145619276 0.008791 -0.736408
2147105155 0.010146666666666667 -0.737022
2148591034 0.005901666666666667 -0.735433
2150076913 0.007561999999999999 -0.733796
2151562792 0.006381 -0.7330496666666667
2153048671 0.007581333333333333 -0.7325493333333334
2154534550 0.00514 -0.7309356666666668
2156020429 0.004176666666666667 -0.726035
2157506308 0.0044863333333333335 -0.7239243333333333
2158992187 0.0019783333333333332 -0.7223306666666667
2160478066 0.002735666666666666 -0.7218506666666666
2161963945 0.001137 -0.7259916666666667
2163449824 0.0013006666666666668 -0.7268743333333333
2164935703 0.0007003333333333332 -0.7302933333333333
2166421582 0.004054333333333333 -0.7323170000000001
2167907461 -0.0011403333333333335 -0.7325146666666665
2169393340 0.00025766666666666673 -0.7362806666666666
2170879219 0.0016786666666666666 -0.7361546666666667
2172365098 0.0009543333333333334 -0.7375703333333333
2173850977 -0.009094 -0.7347386666666668
2175336856 0.0048969999999999994 -0.7364813333333333
2176822735 0.004402333333333334 -0.736074
2178308614 0.0016560000000000001 -0.7346663333333333
2179794493 0.004711333333333334 -0.7349326666666668
2181280372 0.006817 -0.7332219999999999
2182766251 0.006195333333333333 -0.7334999999999999
2184252130 0.006052333333333333 -0.7283390000000001
2185738009 0.008707333333333333 -0.727721
2187223888 0.004331333333333334 -0.7233646666666668
2188709767 0.005366333333333333 -0.722606
2190195646 0.007000666666666666 -0.7203196666666667
2191681525 0.007875 -0.7208606666666667
2193167404 0.007955666666666666 -0.7261746666666666
2194653283 0.005003666666666667 -0.7265693333333333
2196139162 0.004448333333333334 -0.7275946666666666
2197625041 0.005269666666666666 -0.729731
2199110920 0.006594333333333334 -0.7297606666666666
2200596799 0.007281666666666668 -0.7316886666666668
2202082678 0.007385333333333334 -0.72928
2203568557 0.006530666666666666 -0.7303566666666667
2205054436 0.008368333333333334 -0.7311203333333333
2206540315 0.006045333333333333 -0.7303216666666668
2208026194 0.006791666666666667 -0.7240953333333334
2209512073 0.008916 -0.7267006666666668
2210997952 0.012314 -0.7265383333333334
2212483831 0.010199666666666668 -0.7252796666666667
2213969710 0.006986666666666666 -0.7216279999999999
2215455589 0.008560333333333335 -0.7199823333333334
2216941468 0.010417666666666667 -0.7170746666666666
2218427347 0.007147666666666667 -0.7142350000000001
2219913226 0.007632333333333334 -0.708573
2221399105 0.009937000000000001 -0.7121903333333334
2222884984 0.007665999999999999 -0.7155659999999999
2224370863 0.0038656666666666666 -0.7166886666666666
2225856742 0.004739 -0.7174096666666667
2227342621 0.003412333333333333 -0.721196
2228828500 0.0008376666666666668 -0.720633
2230314379 0.0037323333333333336 -0.7227543333333334
2231800258 0.0009186666666666666 -0.7231253333333333
2233286137 0.003975666666666666 -0.7248290000000001
2234772016 0.004938666666666667 -0.725761
2236257895 0.0021396666666666665 -0.7249176666666667
2237743774 0.004169333333333333 -0.725142
2239229653 0.006306666666666666 -0.7247173333333334
2240715532 0.0018046666666666669 -0.7241706666666667
2242201411 0.004648 -0.7232573333333333
2243687290 0.004004 -0.7213706666666666
2245173169 -0.00020533333333333333 -0.719268
2246659048 0.0008020000000000001 -0.717038
2248144927 0.0034390000000000007 -0.715509
2249630806 -0.0009003333333333334 -0.7119986666666668
2251116685 -0.0013169999999999998 -0.7135576666666666
2252602564 0.002081 -0.7173573333333333
2254088443 -0.0026200000000000004 -0.7185236666666667
2255574322 -0.0014456666666666665 -0.7177663333333334
2257060201 -0.004116666666666667 -0.7214840000000001
2258546080 -0.0027706666666666665 -0.7209273333333334
2260031959 -0.0013616666666666666 -0.7225206666666666
2261517838 -0.008384666666666667 -0.723023
2263003717 -0.007969666666666667 -0.7212586666666666
2264489596 -0.0013500000000000003 -0.724203
2265975475 -0.003665 -0.7230843333333333
2267461354 -0.010477333333333333 -0.720007
2268947233 -0.014841 -0.7193416666666668
2270433112 -0.0015483333333333332 -0.7208423333333333
2271918991 -0.012553666666666666 -0.7177703333333335
2273404870 -0.008752000000000001 -0.7140456666666667
2274890749 0.010205 -0.7454846666666667
2276376628 -0.009811666666666666 -0.7105883333333333
2277862507 -0.010712666666666667 -0.7086806666666666
2279348386 -0.012210333333333332 -0.7081613333333333
2280834265 -0.009212 -0.7084316666666667
2282320144 -0.010303666666666668 -0.7105926666666668
2283806023 -0.011464 -0.7123516666666667
2285291902 -0.011132666666666667 -0.7120506666666667
2286777781 -0.008177 -0.7144356666666667
2288263660 -0.017115 -0.71243
2289749539 -0.009977666666666668 -0.7191193333333333
2291235418 -0.013378333333333334 -0.7158416666666666
2292721297 -0.014865333333333335 -0.7163423333333334
2294207176 -0.012993333333333334 -0.7148859999999999
2295693055 -0.010625 -0.71785
2297178934 -0.010120333333333334 -0.7159536666666666
2298664813 -0.010700666666666666 -0.7148496666666667
2300150692 -0.016578 -0.714549
2301636571 -0.011277666666666667 -0.7121326666666666
2303122450 -0.014315333333333333 -0.7128453333333334
2304608329 -0.009845 -0.7093433333333333
2306094208 -0.015605 -0.7078696666666667
2307580087 -0.015907666666666667 -0.7031233333333334
2309065966 -0.016110666666666665 -0.7026733333333334
2310551845 -0.014645666666666668 -0.702124
2312037724 -0.017055333333333332 -0.7046996666666666
2313523603 -0.014209666666666667 -0.708072
2315009482 -0.011996 -0.7107283333333333
2316495361 -0.016613 -0.7104056666666666
2317981240 -0.014883666666666668 -0.713709
2319467119 -0.014381333333333335 -0.7140413333333333
2320952998 -0.016611 -0.7152876666666668
2322438877 -0.013917333333333332 -0.7178970000000001
2323924756 -0.011882000000000002 -0.7185983333333333
2325410635 -0.015833666666666666 -0.7164336666666666
2326896514 -0.017696666666666666 -0.7182513333333334
2328382393 -0.009194666666666667 -0.7243196666666667
2329868272 -0.016183666666666666 -0.717963
2331354151 -0.020479666666666663 -0.7169650000000001
2332840030 -0.019038 -0.7168049999999999
2334325909 -0.033554 -0.7127810000000001
2335811788 -0.02232033333333333 -0.7128273333333333
2337297667 -0.015386333333333333 -0.7136973333333333
2338783546 -0.020487999999999996 -0.70865
2340269425 -0.019385666666666666 -0.7094896666666667
2341755304 -0.022421666666666663 -0.707432
2343241183 -0.01811866666666667 -0.7129856666666666
2344727062 -0.029190000000000004 -0.7153823333333333
2346212941 -0.019089666666666668 -0.7145856666666667
2347698820 -0.020882666666666664 -0.7171416666666666
2349184699 -0.025249333333333332 -0.7196506666666668
2350670578 -0.02267 -0.7201749999999999
2352156457 -0.018167333333333334 -0.7179113333333333
2353642336 -0.029131333333333332 -0.72065
2355128215 -0.020503333333333332 -0.718644
2356614094 -0.029126666666666665 -0.7187583333333333
2358099973 -0.02199833333333333 -0.716959
2359585852 -0.026728333333333337 -0.7164046666666666
2361071731 -0.027622333333333332 -0.7159306666666666
2362557610 -0.027565333333333334 -0.7078626666666666
2364043489 -0.02910266666666667 -0.7113103333333332
2365529368 -0.031137666666666664 -0.710124
2367015247 -0.032267333333333335 -0.7074429999999999
2368501126 -0.03568366666666667 -0.7042826666666667
2369987005 -0.03220933333333333 -0.702997
2371472884 -0.03786966666666667 -0.7051756666666668
2372958763 -0.03131133333333334 -0.7060590000000001
2374444642 -0.039385333333333335 -0.7091666666666666
2375930521 -0.033756 -0.7105326666666668
2377416400 -0.03570133333333333 -0.7086
2378902279 -0.03393733333333334 -0.7144376666666666
2380388158 -0.035857 -0.7139443333333334
2381874037 -0.03596333333333333 -0.7150063333333333
2383359916 -0.027865 -0.7134163333333333
2384845795 -0.032555 -0.715753
2386331674 -0.033911 -0.715969
2387817553 -0.03044833333333333 -0.7135873333333334
2389303432 -0.02910233333333333 -0.7126703333333334
2390789311 -0.031496333333333335 -0.7083146666666668
2392275190 -0.029829333333333336 -0.7093820000000001
2393761069 -0.030848666666666667 -0.7078776666666666
2395246948 -0.033052 -0.7024896666666667
2396732827 -0.03147866666666667 -0.698945
2398218706 -0.032584999999999996 -0.696234
2399704585 -0.032293666666666665 -0.695509
2401190464 -0.036301999999999994 -0.6964413333333334
2402676343 -0.03643633333333334 -0.695532
2404162222 -0.03931766666666667 -0.7015039999999999
2405648101 -0.035813000000000005 -0.7008523333333333
2407133980 -0.034221 -0.7050896666666667
2408619859 -0.035802 -0.702976
2410105738 -0.037881000000000005 -0.7052076666666666
2411591617 -0.03945066666666666 -0.709348
2413077496 -0.03641866666666666 -0.7107429999999999
2414563375 -0.04253733333333334 -0.7085486666666667
2416049254 -0.038050999999999995 -0.7088616666666666
2417535133 -0.041082 -0.710261
2419021012 -0.035951666666666666 -0.7002926666666666
2420506891 -0.04138 -0.708079
2421992770 -0.046414333333333335 -0.7073630000000001
2423478649 -0.04582033333333333 -0.7063063333333334
2424964528 -0.044953333333333324 -0.7057586666666668
2426450407 -0.043450666666666665 -0.700955
2427936286 -0.04961733333333334 -0.7007103333333333
2429422165 -0.04397566666666667 -0.6947793333333333
2430908044 -0.05034566666666667 -0.69931
2432393923 -0.048584666666666665 -0.7012946666666667
2433879802 -0.04912066666666667 -0.7025716666666667
2435365681 -0.05170333333333333 -0.7031353333333333
2436851560 -0.047113666666666665 -0.7042496666666667
2438337439 -0.04849133333333333 -0.7062970000000001
2439823318 -0.04573566666666667 -0.7073683333333333
2441309197 -0.04987433333333333 -0.7083246666666666
2442795076 -0.04760333333333333 -0.7069956666666667
2444280955 -0.047133 -0.707021
2445766834 -0.046482 -0.7060219999999999
2447252713 -0.04655633333333334 -0.7069966666666666
2448738592 -0.04649866666666667 -0.7064533333333335
2450224471 -0.048116 -0.7037576666666667
2451710350 -0.049564 -0.701333
2453196229 -0.049998999999999995 -0.6985706666666666
2454682108 -0.050717000000000005 -0.6966703333333334
2456167987 -0.05088666666666666 -0.6934363333333334
2457653866 -0.049917333333333334 -0.688386
2459139745 -0.048527999999999995 -0.6842563333333334
2460625624 -0.050979 -0.686461
2462111503 -0.05377733333333334 -0.6892526666666666
2463597382 -0.053642666666666665 -0.6906696666666666
2465083261 -0.05220666666666667 -0.6935306666666667
2466569140 -0.052507666666666675 -0.694003
2468055019 -0.052843 -0.6971703333333332
2469540898 -0.053364333333333326 -0.6983233333333333
2471026777 -0.05440933333333333 -0.698913
2472512656 -0.05768466666666666 -0.6977583333333334
2473998535 -0.05439366666666667 -0.6994733333333333
2475484414 -0.05567333333333333 -0.697777
2476970293 -0.056280666666666666 -0.694921
2478456172 -0.05841966666666667 -0.6967086666666668
2479942051 -0.05721166666666667 -0.694603
2481427930 -0.057680666666666665 -0.693172
2482913809 -0.05370033333333333 -0.6926666666666667
2484399688 -0.05536233333333334 -0.6905726666666667
2485885567 -0.057462000000000006 -0.687285
2487371446 -0.05578666666666667 -0.6844936666666667
2488857325 -0.058935999999999995 -0.682227
2490343204 -0.058367 -0.682894
2491829083 -0.06017533333333334 -0.6827396666666666
2493314962 -0.059598000000000005 -0.6868346666666666
2494800841 -0.057138 -0.68872
2496286720 -0.062427666666666666 -0.6913839999999999
2497772599 -0.05879399999999999 -0.6923523333333333
2499258478 -0.059124 -0.693652
2500744357 -0.05702300000000001 -0.6970999999999999
2502230236 -0.05881366666666666 -0.696848
2503716115 -0.059795999999999995 -0.6966126666666667
2505201994 -0.05790033333333333 -0.6970993333333334
2506687873 -0.055980333333333326 -0.6975893333333333
2508173752 -0.05228366666666667 -0.6981303333333333
2509659631 -0.054096000000000005 -0.695766
2511145510 -0.053718666666666665 -0.6960700000000001
2512631389 -0.052081333333333334 -0.6945013333333333
2514117268 -0.053681 -0.6928420000000001
2515603147 -0.053461 -0.6901466666666667
2517089026 -0.053329666666666664 -0.6893523333333333
2518574905 -0.05349633333333333 -0.6875596666666667
2520060784 -0.049259 -0.6833916666666666
2521546663 -0.05361666666666667 -0.6873963333333334
2523032542 -0.05116433333333333 -0.6854383333333333
2524518421 -0.052781 -0.6908110000000001
2526004300 -0.05256966666666666 -0.6930499999999999
2527490179 -0.054709 -0.6948306666666667
2528976058 -0.05659733333333333 -0.6961993333333334
2530461937 -0.05742766666666666 -0.6960896666666666
2531947816 -0.05632600000000001 -0.6967186666666666
2533433695 -0.05401 -0.6964963333333333
2534919574 -0.056254 -0.6969116666666667
2536405453 -0.05795666666666666 -0.6969016666666668
2537891332 -0.060841 -0.6978613333333333
2539377211 -0.06015399999999999 -0.6978656666666666
2540863090 -0.057367 -0.6949049999999999
2542348969 -0.057001 -0.6961356666666667
2543834848 -0.06087299999999999 -0.6948973333333334
2545320727 -0.060638000000000004 -0.6916133333333333
2546806606 -0.05957200000000001 -0.689777
2548292485 -0.06347166666666666 -0.6915443333333333
2549778364 -0.06193733333333334 -0.6865166666666668
2551264243 -0.060909333333333336 -0.684908
2552750122 -0.065516 -0.6895356666666667
2554236001 -0.06194533333333333 -0.6922996666666666
2555721880 -0.06455533333333334 -0.6919686666666666
2557207759 -0.06835200000000001 -0.6953999999999999
2558693638 -0.06804 -0.6973116666666667
2560179517 -0.06308366666666666 -0.6971106666666667
2561665396 -0.070788 -0.7003743333333334
2563151275 -0.068234 -0.6997626666666665
2564637154 -0.070117 -0.701312
2566123033 -0.07177066666666666 -0.6982733333333333
2567608912 -0.06795499999999999 -0.7010329999999999
2569094791 -0.06814033333333332 -0.6998463333333333
2570580670 -0.07830633333333333 -0.7248273333333333
2572066549 -0.07333733333333334 -0.7023526666666666
2573552428 -0.071035 -0.6986133333333333
2575038307 -0.07215700000000001 -0.6926836666666666
2576524186 -0.072021 -0.6970529999999999
2578010065 -0.07256233333333334 -0.6930846666666666
2579495944 -0.07442033333333332 -0.6919420000000001
2580981823 -0.07140433333333333 -0.6895776666666666
2582467702 -0.06946566666666666 -0.6905633333333334
2583953581 -0.07128133333333334 -0.6909436666666666
2585439460 -0.07479300000000001 -0.6905983333333334
2586925339 -0.07123233333333333 -0.6911926666666667
2588411218 -0.07350133333333332 -0.6923823333333333
2589897097 -0.069953 -0.6919243333333333
2591382976 -0.067756 -0.6888963333333334
2592868855 -0.07221366666666666 -0.6912013333333333
2594354734 -0.06993133333333333 -0.687895
2595840613 -0.06746466666666667 -0.6895060000000001
2597326492 -0.070132 -0.686565
2598812371 -0.06365166666666668 -0.6877843333333332
2600298250 -0.06941133333333334 -0.6802606666666667
2601784129 -0.06882766666666668 -0.6801886666666667
2603270008 -0.07300566666666668 -0.676684
2604755887 -0.06981833333333333 -0.6752463333333334
2606241766 -0.06977366666666666 -0.6741776666666667
2607727645 -0.07195566666666667 -0.6690806666666665
2609213524 -0.071964 -0.6657426666666667
2610699403 -0.07100466666666666 -0.6634566666666667
2612185282 -0.07303533333333333 -0.665887
2613671161 -0.07268833333333334 -0.665955
2615157040 -0.07195166666666665 -0.6685460000000001
2616642919 -0.07341500000000001 -0.6705593333333333
2618128798 -0.070394 -0.674386
2619614677 -0.07236933333333333 -0.671193
2621100556 -0.07112133333333333 -0.6732066666666667
2622586435 -0.06783100000000002 -0.6782199999999999
2624072314 -0.070698 -0.6342776666666666
2625558193 -0.07484233333333333 -0.6735159999999999
2627044072 -0.07363066666666666 -0.6713796666666667
2628529951 -0.07125766666666666 -0.6772696666666667
2630015830 -0.07462233333333333 -0.6739293333333333
2631501709 -0.07281066666666668 -0.6723
2632987588 -0.07316233333333333 -0.6675559999999999
2634473467 -0.07069133333333334 -0.6708163333333333
2635959346 -0.07425666666666667 -0.6686286666666666
2637445225 -0.07600566666666668 -0.6660983333333333
2638931104 -0.07194766666666667 -0.6631183333333334
2640416983 -0.07701733333333333 -0.6611866666666667
2641902862 -0.074274 -0.6642486666666667
2643388741 -0.07532233333333334 -0.6672656666666666
2644874620 -0.07815033333333334 -0.6684103333333334
2646360499 -0.082027 -0.6731583333333333
2647846378 -0.07998133333333333 -0.6747836666666666
2649332257 -0.072404 -0.6807843333333334
2650818136 -0.07530333333333333 -0.6796380000000001
2652304015 -0.07613533333333333 -0.683075
2653789894 -0.07953366666666667 -0.6833253333333333
2655275773 -0.075591 -0.6844196666666668
2656761652 -0.07935233333333333 -0.6850976666666666
2658247531 -0.072669 -0.6881293333333334
2659733410 -0.076725 -0.6838810000000001
2661219289 -0.08038066666666667 -0.681313
2662705168 -0.078021 -0.6838683333333333
2664191047 -0.07853700000000001 -0.6829703333333333
2665676926 -0.085108 -0.6799503333333333
2667162805 -0.07927433333333334 -0.6792060000000001
2668648684 -0.08056366666666666 -0.678888
2670134563 -0.08066366666666668 -0.679372
2671620442 -0.08272033333333334 -0.6813476666666668
2673106321 -0.07438866666666666 -0.686041
2674592200 -0.08069133333333334 -0.6858596666666666
2676078079 -0.07822866666666667 -0.6858933333333334
2677563958 -0.077609 -0.6879529999999999
2679049837 -0.08115866666666667 -0.6873343333333333
2680535716 -0.08133066666666668 -0.6875046666666665
2682021595 -0.07848733333333334 -0.6894123333333333
2683507474 -0.07650366666666666 -0.6896073333333333
2684993353 -0.07366166666666667 -0.6898563333333333
2686479232 -0.06969366666666667 -0.68892
2687965111 -0.08142433333333333 -0.7044966666666667
2689450990 -0.07031 -0.684968
2690936869 -0.07348900000000001 -0.685458
2692422748 -0.07587866666666666 -0.6809033333333333
2693908627 -0.07134833333333333 -0.679913
2695394506 -0.07499366666666667 -0.6768003333333333
2696880385 -0.07208133333333333 -0.6735953333333334
2698366264 -0.07246833333333333 -0.6686066666666667
2699852143 -0.0735 -0.6682983333333334
2701338022 -0.07945333333333333 -0.6691153333333334
2702823901 -0.07342933333333333 -0.6724613333333332
2704309780 -0.068149 -0.6744516666666667
2705795659 -0.069005 -0.6761876666666667
2707281538 -0.06901733333333333 -0.6761876666666667
2708767417 -0.06862700000000001 -0.6785603333333333
2710253296 -0.06266866666666666 -0.6811296666666666
2711739175 -0.061789666666666666 -0.6759976666666666
2713225054 -0.064746 -0.6775613333333332
2714710933 -0.06393133333333333 -0.67841
2716196812 -0.06346733333333333 -0.677903
2717682691 -0.06283433333333334 -0.677402
2719168570 -0.062213 -0.6762746666666666
2720654449 -0.06280433333333334 -0.6722936666666666
2722140328 -0.05777833333333334 -0.6725280000000001
2723626207 -0.061529 -0.6675103333333334
2725112086 -0.06681833333333333 -0.670713
2726597965 -0.06306833333333334 -0.6633349999999999
2728083844 -0.06553199999999999 -0.660564
2729569723 -0.059703000000000006 -0.6568443333333334
2731055602 -0.06358466666666666 -0.6607933333333333
2732541481 -0.06832133333333333 -0.6626606666666667
2734027360 -0.06960433333333334 -0.6662803333333333
2735513239 -0.073822 -0.6688636666666666
2736999118 -0.071565 -0.6703553333333333
2738484997 -0.07630733333333334 -0.673692
2739970876 -0.07906466666666667 -0.6732480000000001
2741456755 -0.07335533333333333 -0.674548
2742942634 -0.07814900000000001 -0.6770746666666666
2744428513 -0.08087833333333333 -0.6788393333333334
2745914392 -0.084823 -0.6836193333333332
2747400271 -0.08489999999999999 -0.680951
2748886150 -0.08383966666666666 -0.681367
2750372029 -0.08078733333333334 -0.6821976666666667
2751857908 -0.081437 -0.6824486666666667
2753343787 -0.09028266666666668 -0.680409
2754829666 -0.09272966666666667 -0.6803323333333333
2756315545 -0.08836566666666668 -0.6806676666666668
2757801424 -0.09423366666666667 -0.6760863333333335
2759287303 -0.08666866666666667 -0.6746353333333334
2760773182 -0.09260266666666667 -0.674626
2762259061 -0.08902033333333333 -0.6824300000000001
2763744940 -0.08981433333333333 -0.6820046666666667
2765230819 -0.09067933333333333 -0.6868073333333333
2766716698 -0.09155966666666666 -0.6802906666666666
2768202577 -0.08997 -0.6896546666666667
2769688456 -0.080813 -0.6888406666666667
2771174335 -0.08704066666666667 -0.682095
2772660214 -0.081336 -0.6881896666666667
2774146093 -0.08879100000000001 -0.6938353333333334
2775631972 -0.07549833333333333 -0.6894513333333334
2777117851 -0.08347966666666667 -0.6866223333333332
2778603730 -0.08677066666666666 -0.6856406666666667
2780089609 -0.08061166666666668 -0.6824203333333333
2781575488 -0.07944466666666668 -0.6789200000000001
2783061367 -0.07534933333333332 -0.6771250000000001
2784547246 -0.07657933333333333 -0.676336
2786033125 -0.080736 -0.6746766666666666
2787519004 -0.07531966666666666 -0.6750393333333333
2789004883 -0.07835533333333333 -0.668053
2790490762 -0.07777033333333333 -0.665058
2791976641 -0.08298766666666667 -0.66812
2793462520 -0.083549 -0.6704553333333333
2794948399 -0.08269166666666666 -0.6699926666666668
2796434278 -0.08672766666666666 -0.6683673333333333
2797920157 -0.08633433333333333 -0.671281
2799406036 -0.083935 -0.6731556666666666
2800891915 -0.08969666666666666 -0.6753563333333332
2802377794 -0.08647966666666666 -0.6781003333333334
2803863673 -0.09121666666666667 -0.6788866666666666
2805349552 -0.08523766666666666 -0.677442
2806835431 -0.09297 -0.677952
2808321310 -0.09384633333333332 -0.676186
2809807189 -0.09097633333333333 -0.6784933333333334
2811293068 -0.092408 -0.6740493333333334
2812778947 -0.093822 -0.6768136666666665
2814264826 -0.09117433333333334 -0.6716623333333334
2815750705 -0.090016 -0.6679903333333334
2817236584 -0.091489 -0.6704886666666666
2818722463 -0.09529633333333333 -0.6676529999999999
2820208342 -0.09628433333333335 -0.6675643333333333
2821694221 -0.095557 -0.6672560000000001
2823180100 -0.09396533333333333 -0.6719223333333333
2824665979 -0.09337933333333333 -0.6733286666666668
2826151858 -0.09199066666666667 -0.6751916666666666
2827637737 -0.095344 -0.6740749999999999
2829123616 -0.097316 -0.6733936666666667
2830609495 -0.09374233333333333 -0.6710033333333333
2832095374 -0.09016066666666667 -0.6759863333333334
2833581253 -0.09006966666666666 -0.6712553333333333
2835067132 -0.09485266666666665 -0.675315
2836553011 -0.091588 -0.669264
2838038890 -0.09288733333333332 -0.668502
2839524769 -0.08729133333333333 -0.6707783333333334
2841010648 -0.08961833333333334 -0.6683983333333332
2842496527 -0.09433833333333334 -0.6594906666666667
2843982406 -0.092741 -0.6605346666666666
2845468285 -0.09140266666666667 -0.6569083333333333
2846954164 -0.09727066666666667 -0.6537860000000001
2848440043 -0.09329333333333334 -0.653403
2849925922 -0.09197633333333333 -0.6496780000000001
2851411801 -0.093018 -0.6463236666666666
2852897680 -0.09115666666666666 -0.6494059999999999
2854383559 -0.093746 -0.6504526666666667
2855869438 -0.09406133333333333 -0.65394
2857355317 -0.09409733333333332 -0.6581183333333334
2858841196 -0.09279733333333333 -0.6626080000000001
2860327075 -0.09247 -0.6614776666666667
2861812954 -0.09366833333333334 -0.6610933333333333
2863298833 -0.09041766666666667 -0.6638113333333333
2864784712 -0.09615499999999999 -0.6628933333333333
2866270591 -0.08884566666666667 -0.6602703333333334
2867756470 -0.090544 -0.6609893333333333
2869242349 -0.10016833333333335 -0.6463163333333334
2870728228 -0.09605233333333334 -0.6914129999999999
2872214107 -0.09250599999999999 -0.6567526666666667
2873699986 -0.089559 -0.6568826666666667
2875185865 -0.08249366666666667 -0.6560856666666667
2876671744 -0.07689366666666665 -0.6534479999999999
2878157623 -0.07812200000000001 -0.6517379999999999
2879643502 -0.083376 -0.647385
2881129381 -0.081372 -0.6500769999999999
2882615260 -0.08524733333333334 -0.651649
2884101139 -0.08354366666666667 -0.6536753333333333
2885587018 -0.08236733333333333 -0.6560403333333333
2887072897 -0.088929 -0.657657
2888558776 -0.08375400000000001 -0.6603946666666667
2890044655 -0.08609066666666666 -0.6606943333333334
2891530534 -0.085829 -0.6627860000000001
2893016413 -0.08492766666666667 -0.663887
2894502292 -0.08321566666666667 -0.6635486666666667
2895988171 -0.09077433333333333 -0.6594596666666667
2897474050 -0.092512 -0.659379
2898959929 -0.09117533333333333 -0.6601180000000001
2900445808 -0.08959266666666667 -0.660358
2901931687 -0.089499 -0.6581046666666667
2903417566 -0.09258499999999999 -0.657159
2904903445 -0.09393066666666666 -0.6552546666666667
2906389324 -0.09404 -0.6556113333333333
2907875203 -0.08971066666666666 -0.6517283333333334
2909361082 -0.089705 -0.647938
2910846961 -0.09114933333333335 -0.6496403333333334
2912332840 -0.09529066666666668 -0.6516786666666667
2913818719 -0.09409133333333335 -0.6527850000000001
2915304598 -0.09398633333333332 -0.6516906666666666
2916790477 -0.09820433333333334 -0.6567653333333333
2918276356 -0.09867133333333333 -0.6567379999999999
2919762235 -0.10020266666666666 -0.658451
2921248114 -0.09949633333333334 -0.6554016666666667
2922733993 -0.10008833333333333 -0.657744
2924219872 -0.09714966666666668 -0.6480883333333333
2925705751 -0.09930866666666667 -0.657441
2927191630 -0.10056766666666667 -0.6594816666666667
2928677509 -0.10033133333333333 -0.655904
2930163388 -0.10187666666666667 -0.6537403333333334
2931649267 -0.10610599999999999 -0.6538896666666667
2933135146 -0.10354366666666666 -0.6507296666666665
2934621025 -0.10560399999999999 -0.647666
2936106904 -0.10578666666666665 -0.6470336666666667
2937592783 -0.10385066666666666 -0.642338
2939078662 -0.10861133333333334 -0.6442720000000001
2940564541 -0.10933133333333334 -0.6437886666666667
2942050420 -0.10796333333333334 -0.645521
2943536299 -0.10798666666666668 -0.6461653333333334
2945022178 -0.10986033333333334 -0.6475456666666667
2946508057 -0.11177566666666666 -0.6499356666666667
2947993936 -0.109406 -0.652012
2949479815 -0.106732 -0.6515776666666667
2950965694 -0.109223 -0.6530613333333334
2952451573 -0.10905233333333335 -0.653946
2953937452 -0.10903499999999999 -0.6566126666666666
2955423331 -0.10776599999999999 -0.653822
2956909210 -0.11058233333333334 -0.6524173333333333
2958395089 -0.10376466666666667 -0.6525313333333332
2959880968 -0.10835733333333332 -0.6483949999999999
2961366847 -0.10663466666666666 -0.6475963333333333
2962852726 -0.10603866666666667 -0.648618
2964338605 -0.10551933333333334 -0.645788
2965824484 -0.10845466666666666 -0.6425796666666667
2967310363 -0.106167 -0.643361
2968796242 -0.10703033333333334 -0.6387933333333333
2970282121 -0.10545700000000001 -0.6363323333333334
2971768000 -0.10554366666666666 -0.6383776666666666
2973253879 -0.10882966666666667 -0.6403326666666667
2974739758 -0.10730533333333332 -0.6416776666666667
2976225637 -0.10602666666666666 -0.6436793333333334
2977711516 -0.10606166666666668 -0.648864
2979197395 -0.10923966666666668 -0.6446606666666667
2980683274 -0.10481833333333335 -0.646319
2982169153 -0.10211166666666667 -0.646994
2983655032 -0.10544066666666667 -0.6426223333333333
2985140911 -0.10552600000000001 -0.6431416666666666
2986626790 -0.10467633333333333 -0.6444616666666666
2988112669 -0.105452 -0.6446586666666666
2989598548 -0.09901166666666666 -0.6439243333333332
2991084427 -0.09874833333333333 -0.6419986666666667
2992570306 -0.09833666666666667 -0.640764
2994056185 -0.098373 -0.6388533333333334
2995542064 -0.09875066666666665 -0.632094
2997027943 -0.095124 -0.633274
2998513822 -0.09578666666666669 -0.6320549999999999
2999999701 -0.09593066666666666 -0.626744
