# HZ S RI R 50
10000 1.0545003333333334 -0.16565
1495879 0.9076076666666667 1.4164223333333332
2981758 0.5777326666666666 0.6883563333333335
4467637 0.5808113333333332 0.32660433333333333
5953516 0.65069 0.1377366666666667
7439395 0.7433786666666666 0.012273000000000001
8925274 1.05781 -0.06180966666666667
10411153 1.096956 0.037239
11897032 1.0849543333333334 0.1686386666666667
13382911 1.0175923333333332 0.29209366666666664
14868790 0.9147056666666668 0.379451
16354669 0.8022423333333334 0.4265583333333333
17840548 0.6981473333333333 0.44075
19326427 0.6092836666666667 0.4335773333333333
20812306 0.5359586666666667 0.41555633333333336
22298185 0.4765276666666667 0.3914226666666667
23784064 0.42916400000000005 0.3650976666666666
25269943 0.3904636666666667 0.3395806666666667
26755822 0.35897833333333334 0.314608
28241701 0.3330113333333333 0.29098466666666667
29727580 0.31115166666666666 0.2691596666666667
31213459 0.3212703333333333 0.2564363333333333
32699338 0.33820266666666665 0.239221
34185217 0.3536623333333333 0.2258536666666667
35671096 0.3689153333333333 0.2097973333333333
37156975 0.3838063333333333 0.19105399999999997
38642854 0.39810366666666663 0.17437866666666665
40128733 0.4122873333333334 0.15137933333333334
41614612 0.425214 0.13962633333333332
43100491 0.438375 0.117309
44586370 0.45145066666666667 0.09951833333333333
46072249 0.46515033333333333 0.07598066666666668
47558128 0.47994800000000004 0.05893166666666667
49044007 0.49620266666666674 0.041532
50529886 0.514754 0.027046333333333335
52015765 0.5366726666666667 -0.0021873333333333337
53501644 0.5653506666666667 -0.020989333333333332
54987523 0.603303 -0.04588233333333333
56473402 0.6560413333333334 -0.08434233333333334
57959281 0.7439396666666666 -0.10077533333333333
59445160 0.9018419999999999 -0.080797
60931039 0.997807 -0.05127500000000001
62416918 1.0012423333333331 -0.060577
63902797 1.003919 -0.07052766666666667
65388676 1.006545 -0.078891
66874555 1.00882 -0.07554866666666667
68360434 1.003201 -0.16019033333333332
69846313 1.0147 -0.05386066666666667
71332192 1.015739 -0.04866433333333333
72818071 1.0149040000000003 -0.09306333333333333
74303950 1.0154379999999998 -0.08358666666666666
75789829 1.0182013333333335 -0.016595
77275708 1.0175413333333332 -0.025859666666666666
78761587 1.0160753333333334 -0.020068
80247466 1.0076553333333333 -0.13647800000000002
81733345 1.011306 -0.08928200000000001
83219224 1.008001 -0.10018433333333333
84705103 1.0027023333333334 -0.12605333333333335
86190982 1.0055376666666664 -0.0004340000000000001
87676861 0.9972543333333334 -0.11795300000000002
89162740 0.9950296666666666 -0.09256966666666666
90648619 0.9924776666666667 -0.11095333333333333
92134498 0.9959346666666667 -0.10900366666666667
93620377 1.0030626666666667 -0.077878
95106256 1.003175 -0.105757
96592135 1.0053023333333335 -0.103995
98078014 1.0076310000000002 -0.09933966666666667
99563893 1.009343 -0.09697599999999999
101049772 1.0108333333333333 -0.11063666666666667
102535651 1.010573 -0.11179
104021530 1.0110080000000001 -0.11213666666666666
105507409 1.0102976666666668 -0.11389733333333334
106993288 1.0095636666666665 -0.11490800000000001
108479167 1.0089876666666664 -0.11643833333333335
109965046 1.007237 -0.11709533333333333
111450925 1.0054943333333333 -0.11774899999999999
112936804 1.0039403333333334 -0.11778
114422683 1.0014886666666667 -0.11930933333333332
115908562 0.9979633333333333 -0.12021366666666666
117394441 0.9942099999999999 -0.12100233333333332
118880320 0.9912416666666667 -0.12154333333333334
120366199 0.9879760000000001 -0.12203900000000001
121852078 0.9927753333333333 -0.124763
123337957 0.996197 -0.12719266666666665
124823836 1.000323 -0.129365
126309715 1.0035026666666667 -0.13095766666666667
127795594 1.0059760000000002 -0.13403833333333334
129281473 1.0090023333333333 -0.13355133333333333
130767352 1.0106733333333333 -0.13584333333333332
132253231 1.0119193333333334 -0.137516
133739110 1.014392 -0.13819166666666668
135224989 0.9981843333333332 -0.149483
136710868 0.9985136666666666 -0.15091233333333334
138196747 0.9986776666666666 -0.15096500000000002
139682626 0.9971863333333334 -0.15231366666666665
141168505 0.996595 -0.15299866666666664
142654384 0.9950616666666666 -0.15288400000000002
144140263 0.9937543333333334 -0.15315399999999998
145626142 0.991216 -0.15431266666666665
147112021 0.9886270000000001 -0.15415633333333334
148597900 0.9862576666666666 -0.15467166666666665
150083779 0.9826323333333334 -0.15357600000000002
151569658 0.9867286666666666 -0.15622533333333333
153055537 0.9890293333333333 -0.15805366666666665
154541416 0.9910683333333333 -0.16013966666666668
156027295 0.993966 -0.16229233333333334
157513174 0.9958840000000001 -0.162974
158999053 0.9987383333333333 -0.16576333333333335
160484932 0.9991866666666667 -0.16682266666666667
161970811 0.999121 -0.167498
163456690 0.9998943333333333 -0.169532
164942569 0.999392 -0.16954699999999998
166428448 0.9987133333333333 -0.17144799999999996
167914327 0.998436 -0.17208766666666667
169400206 0.9972110000000001 -0.17353733333333335
170886085 0.995442 -0.174135
172371964 1.0084386666666667 -0.153785
173857843 0.9796359999999998 -0.20022133333333336
175343722 0.9884013333333334 -0.17756266666666665
176829601 0.9848493333333334 -0.17916233333333334
178315480 0.9817183333333332 -0.18045733333333333
179801359 0.977347 -0.182164
181287238 0.9795116666666667 -0.18399466666666667
182773117 0.982806 -0.18597133333333335
184258996 0.9853386666666667 -0.186914
185744875 0.9879943333333333 -0.1898983333333333
187230754 0.9902436666666666 -0.19077133333333332
188716633 0.9919016666666667 -0.19233166666666668
190202512 0.9934386666666666 -0.193568
191688391 0.994036 -0.19513333333333335
193174270 0.9946173333333332 -0.19676266666666667
194660149 0.9947396666666667 -0.19760633333333333
196146028 0.993723 -0.19938833333333336
197631907 0.993277 -0.20057833333333333
199117786 0.991785 -0.20119133333333336
200603665 0.9897840000000001 -0.2024163333333333
202089544 0.9881306666666667 -0.204515
203575423 0.9853643333333334 -0.20474133333333333
205061302 0.9819330000000001 -0.20697933333333332
206547181 0.9785403333333335 -0.20831966666666668
208033060 0.9748786666666667 -0.20982166666666666
209518939 0.970595 -0.21101333333333336
211004818 0.971257 -0.21359433333333333
212490697 0.9749933333333334 -0.21557799999999996
213976576 0.978463 -0.217581
215462455 0.9815346666666667 -0.21955866666666668
216948334 0.9832973333333334 -0.22089033333333333
218434213 0.985631 -0.22181366666666666
219920092 0.987606 -0.22427033333333335
221405971 0.9877236666666667 -0.22544799999999998
222891850 0.987793 -0.2266973333333333
224377729 0.988607 -0.22660433333333332
225863608 0.9831773333333333 -0.240004
227349487 0.9866153333333333 -0.23001033333333334
228835366 0.985608 -0.23070533333333332
230321245 0.9829283333333333 -0.23165933333333333
231807124 0.9810673333333334 -0.23420866666666665
233293003 0.9783406666666666 -0.235232
234778882 0.9749013333333334 -0.23588066666666666
236264761 0.9712489999999999 -0.23677600000000001
237750640 0.9671026666666668 -0.2393603333333333
239236519 0.9629596666666668 -0.2406353333333333
240722398 0.9615536666666666 -0.24291600000000002
242208277 0.9656379999999999 -0.24501133333333333
243694156 0.9689353333333335 -0.24757733333333332
245180035 0.9725936666666667 -0.24934566666666666
246665914 0.9751460000000001 -0.25039066666666665
248151793 0.977434 -0.2527493333333333
249637672 0.9780830000000001 -0.25526766666666667
251123551 0.9800863333333334 -0.25536866666666663
252609430 0.980463 -0.2568306666666667
254095309 0.9801043333333332 -0.25822666666666666
255581188 0.9799476666666666 -0.2597913333333333
257067067 0.979842 -0.260295
258552946 0.9772476666666666 -0.261011
260038825 0.9749323333333333 -0.26205000000000006
261524704 0.972832 -0.26327433333333333
263010583 0.9699686666666668 -0.264153
264496462 0.966554 -0.26502333333333333
265982341 0.9623146666666665 -0.26576099999999997
267468220 0.958638 -0.267095
268954099 0.9533339999999999 -0.26875133333333334
270439978 0.9509246666666668 -0.2710143333333333
271925857 0.9545096666666666 -0.2734773333333333
273411736 0.9586256666666667 -0.27669466666666664
274897615 0.9612676666666666 -0.27837300000000004
276383494 0.9643419999999999 -0.28086833333333333
277869373 0.9671663333333332 -0.28220266666666666
279355252 0.9677456666666666 -0.2851156666666667
280841131 0.9697616666666665 -0.286067
282327010 0.9709303333333333 -0.28670333333333337
283812889 0.9708563333333333 -0.28957700000000003
285298768 0.969769 -0.2899636666666667
286784647 0.970252 -0.29090366666666667
288270526 0.9684986666666667 -0.2908003333333333
289756405 0.9665046666666667 -0.292498
291242284 0.9647796666666667 -0.29361066666666663
292728163 0.9608949999999999 -0.293618
294214042 0.9577116666666666 -0.2952066666666667
295699921 0.953979 -0.296154
297185800 0.949035 -0.29561733333333334
298671679 0.9447506666666667 -0.296923
300157558 0.9404516666666667 -0.29663233333333333
301643437 0.9437143333333333 -0.29999400000000004
303129316 0.9476193333333333 -0.30317333333333335
304615195 0.951397 -0.30590366666666663
306101074 0.9540416666666666 -0.3082006666666666
307586953 0.9558813333333332 -0.310393
309072832 0.9586056666666667 -0.311574
310558711 0.9600986666666667 -0.31410333333333335
312044590 0.9609413333333333 -0.31545666666666666
313530469 0.9606346666666666 -0.31635433333333335
315016348 0.9611280000000001 -0.318027
316502227 0.9597526666666667 -0.3173273333333333
317988106 0.9591023333333334 -0.3201813333333334
319473985 0.9573406666666667 -0.3190323333333333
320959864 0.9481103333333333 -0.33061066666666666
322445743 0.9518463333333332 -0.3204116666666667
323931622 0.9494123333333334 -0.3208883333333333
325417501 0.9449646666666668 -0.32037133333333334
326903380 0.9403003333333334 -0.32155233333333333
328389259 0.9364386666666666 -0.3214666666666666
329875138 0.9301913333333333 -0.32162500000000005
331361017 0.9329183333333333 -0.32503166666666666
332846896 0.9296616666666666 -0.33827366666666664
334332775 0.9376973333333334 -0.3318696666666667
335818654 0.939854 -0.334579
337304533 0.9427346666666666 -0.3370586666666666
338790412 0.9437526666666667 -0.339021
340276291 0.9463623333333334 -0.3414696666666666
341762170 0.946265 -0.34358466666666665
343248049 0.9455176666666666 -0.3451403333333334
344733928 0.9470543333333333 -0.3456666666666666
346219807 0.9448163333333333 -0.34587300000000004
347705686 0.9431293333333333 -0.34724466666666665
349191565 0.94111 -0.34820200000000007
350677444 0.93913 -0.348486
352163323 0.9355756666666668 -0.34856033333333336
353649202 0.9327306666666667 -0.34962166666666666
355135081 0.9279926666666666 -0.34916566666666665
356620960 0.9251649999999999 -0.3501286666666667
358106839 0.919345 -0.34900133333333333
359592718 0.9151243333333333 -0.34969933333333336
361078597 0.9147433333333334 -0.35328933333333334
362564476 0.9177453333333334 -0.35527333333333333
364050355 0.9209546666666667 -0.35957
365536234 0.9230613333333334 -0.3625073333333333
367022113 0.9248556666666667 -0.3654806666666666
368507992 0.9268146666666667 -0.3670466666666667
369993871 0.927413 -0.36836399999999997
371479750 0.9286743333333334 -0.3705776666666667
372965629 0.9289040000000001 -0.37204733333333334
374451508 0.9291649999999999 -0.37399133333333334
375937387 0.9285946666666667 -0.3745246666666667
377423266 0.927791 -0.3747403333333333
378909145 0.9257996666666667 -0.3753163333333333
380395024 0.923883 -0.3752723333333334
381880903 0.9222456666666666 -0.37588266666666664
383366782 0.9187623333333333 -0.375939
384852661 0.9154479999999999 -0.37583733333333336
386338540 0.910901 -0.3752496666666667
387824419 0.9072073333333334 -0.3749813333333334
389310298 0.9027676666666666 -0.37455666666666665
390796177 0.9017123333333332 -0.37639500000000004
392282056 0.9044449999999999 -0.3803243333333333
393767935 0.9070003333333334 -0.383585
395253814 0.9093249999999999 -0.3870133333333334
396739693 0.911197 -0.389056
398225572 0.912438 -0.39177333333333336
399711451 0.9125406666666667 -0.39316766666666664
401197330 0.9147696666666668 -0.3952273333333333
402683209 0.914469 -0.3975766666666667
404169088 0.9135863333333333 -0.3979833333333333
405654967 0.914176 -0.39837866666666666
407140846 0.9133930000000001 -0.3995856666666667
408626725 0.9093263333333333 -0.4050916666666667
410112604 0.9102003333333334 -0.4006613333333333
411598483 0.9076023333333333 -0.39972499999999994
413084362 0.9043253333333333 -0.40067433333333335
414570241 0.9016206666666667 -0.39890066666666674
416056120 0.8978106666666665 -0.3993506666666667
417541999 0.8940046666666666 -0.3985976666666667
419027878 0.8894253333333334 -0.39906966666666666
420513757 0.8876059999999999 -0.398318
421999636 0.8889703333333333 -0.403773
423485515 0.891968 -0.40670366666666663
424971394 0.8941946666666666 -0.4092463333333333
426457273 0.895807 -0.41207433333333326
427943152 0.896548 -0.4146013333333333
429429031 0.896741 -0.4179166666666667
430914910 0.8978266666666667 -0.419498
432400789 0.8985653333333333 -0.4206193333333333
433886668 0.899094 -0.42114499999999994
435372547 0.897551 -0.42255100000000007
436858426 0.8958283333333333 -0.4241156666666667
438344305 0.8960976666666666 -0.42469333333333337
439830184 0.8938246666666667 -0.42469466666666666
441316063 0.891032 -0.4242516666666667
442801942 0.8895483333333333 -0.4251453333333333
444287821 0.8862019999999999 -0.42530766666666664
445773700 0.8823366666666667 -0.424655
447259579 0.8783093333333333 -0.4258043333333333
448745458 0.8740933333333333 -0.424329
450231337 0.8718756666666666 -0.4228803333333333
451717216 0.8743906666666666 -0.42477666666666664
453203095 0.8757716666666666 -0.429042
454688974 0.8783543333333332 -0.43189066666666664
456174853 0.8806536666666668 -0.434884
457660732 0.88062 -0.43645266666666666
459146611 0.8814416666666668 -0.4394643333333333
460632490 0.8841063333333333 -0.44095233333333334
462118369 0.8824339999999999 -0.44068466666666667
463604248 0.8830103333333333 -0.4428433333333333
465090127 0.8816776666666666 -0.44440833333333335
466576006 0.8813966666666667 -0.4445646666666667
468061885 0.8801040000000001 -0.444525
469547764 0.8784983333333334 -0.44511033333333333
471033643 0.8766036666666667 -0.44541533333333333
472519522 0.8730763333333332 -0.44456266666666666
474005401 0.8703426666666667 -0.4447096666666666
475491280 0.8678743333333333 -0.4441173333333333
476977159 0.8636696666666666 -0.444344
478463038 0.8590503333333332 -0.44393466666666664
479948917 0.853927 -0.4434613333333333
481434796 0.8563876666666667 -0.446478
482920675 0.858835 -0.4496173333333333
484406554 0.861458 -0.4521123333333333
485892433 0.863041 -0.45469033333333336
487378312 0.8649333333333334 -0.4564633333333334
488864191 0.8660913333333333 -0.45881600000000006
490350070 0.8678206666666667 -0.46106833333333336
491835949 0.866353 -0.4627846666666667
493321828 0.867104 -0.46311233333333335
494807707 0.8669013333333334 -0.46327633333333335
496293586 0.866663 -0.46444100000000005
497779465 0.8652656666666667 -0.4649396666666667
499265344 0.8636586666666667 -0.46595800000000004
500751223 0.8610946666666667 -0.4658963333333333
502237102 0.859061 -0.4665456666666667
503722981 0.8558406666666666 -0.4659853333333333
505208860 0.8529346666666666 -0.4650896666666667
506694739 0.8455666666666667 -0.46964300000000003
508180618 0.8442736666666666 -0.4643916666666667
509666497 0.8410253333333334 -0.4637533333333333
511152376 0.842159 -0.46692833333333333
512638255 0.84343 -0.47052
514124134 0.8460173333333333 -0.4712456666666667
515610013 0.8475243333333333 -0.4754243333333333
517095892 0.850015 -0.47678533333333334
518581771 0.8510110000000001 -0.4803296666666667
520067650 0.851486 -0.48064866666666667
521553529 0.8518406666666666 -0.48156333333333334
523039408 0.8520629999999999 -0.48386
524525287 0.8515226666666665 -0.484632
526011166 0.852278 -0.484346
527497045 0.8487543333333334 -0.48565166666666665
528982924 0.8482419999999999 -0.48543566666666665
530468803 0.854415 -0.47626000000000007
531954682 0.8424170000000001 -0.486501
533440561 0.8404156666666668 -0.48503566666666664
534926440 0.8405103333333335 -0.481047
536412319 0.8336359999999999 -0.484798
537898198 0.828287 -0.4850303333333333
539384077 0.8246986666666666 -0.4834233333333333
540869956 0.8243376666666666 -0.4844546666666667
542355835 0.8261323333333334 -0.48742866666666673
543841714 0.828971 -0.48954433333333336
545327593 0.8313033333333332 -0.4919233333333333
546813472 0.831635 -0.49295833333333333
548299351 0.8335283333333333 -0.49397399999999997
549785230 0.8344523333333332 -0.4942663333333333
551271109 0.834051 -0.495811
552756988 0.833704 -0.49625
554242867 0.8343033333333333 -0.495585
555728746 0.8323096666666666 -0.493851
557214625 0.8312256666666666 -0.49472200000000005
558700504 0.8290903333333333 -0.493542
560186383 0.8269396666666667 -0.49316200000000004
561672262 0.8246683333333333 -0.491756
563158141 0.8210023333333334 -0.4899983333333333
564644020 0.816787 -0.48945600000000006
566129899 0.8120736666666667 -0.4885793333333333
567615778 0.8078133333333333 -0.4875416666666667
569101657 0.803135 -0.48592799999999997
570587536 0.8014796666666667 -0.4861546666666667
572073415 0.8021759999999999 -0.491047
573559294 0.8065570000000001 -0.48986999999999997
575045173 0.8064080000000001 -0.498651
576531052 0.8066383333333333 -0.5033353333333334
578016931 0.8080876666666666 -0.5064160000000001
579502810 0.8083406666666667 -0.509327
580988689 0.8091039999999999 -0.5112826666666667
582474568 0.808589 -0.5139316666666667
583960447 0.8085883333333334 -0.5166746666666667
585446326 0.8073626666666667 -0.5178940000000001
586932205 0.8064826666666667 -0.5187253333333334
588418084 0.805379 -0.5207133333333333
589903963 0.8036456666666667 -0.5224876666666667
591389842 0.8013346666666666 -0.5216236666666667
592875721 0.798521 -0.52381
594361600 0.7961096666666667 -0.52298
595847479 0.7916156666666666 -0.5237183333333334
597333358 0.7877523333333333 -0.5233176666666667
598819237 0.7836286666666666 -0.5242840000000001
600305116 0.7819206666666667 -0.523106
601790995 0.784496 -0.5270446666666667
603276874 0.7872236666666667 -0.5299443333333334
604762753 0.7889203333333333 -0.5331683333333334
606248632 0.7896533333333333 -0.5369916666666668
607734511 0.7917126666666667 -0.539494
609220390 0.7923166666666667 -0.5418826666666666
610706269 0.7938273333333332 -0.5443213333333333
612192148 0.7923333333333332 -0.5454683333333333
613678027 0.793967 -0.5477820000000001
615163906 0.7936743333333333 -0.5467643333333333
616649785 0.7936070000000001 -0.5478003333333333
618135664 0.7922950000000001 -0.5484249999999999
619621543 0.804515 -0.539267
621107422 0.7877230000000001 -0.547807
622593301 0.785151 -0.5465553333333334
624079180 0.782877 -0.5451323333333334
625565059 0.7809133333333333 -0.5450796666666666
627050938 0.7768906666666666 -0.543484
628536817 0.7716556666666667 -0.541929
630022696 0.7687363333333334 -0.5401096666666666
631508575 0.770038 -0.5442496666666666
632994454 0.7726983333333334 -0.5484103333333333
634480333 0.7744603333333333 -0.5505746666666668
635966212 0.773536 -0.555984
637452091 0.7767406666666666 -0.5561809999999999
638937970 0.7773213333333334 -0.5594709999999999
640423849 0.777177 -0.560579
641909728 0.7778663333333333 -0.5620866666666666
643395607 0.778121 -0.5637989999999999
644881486 0.7778313333333333 -0.5636456666666666
646367365 0.777287 -0.5631133333333334
647853244 0.7757510000000001 -0.5637523333333333
649339123 0.7742156666666666 -0.5644516666666667
650825002 0.771833 -0.563735
652310881 0.7695793333333333 -0.5619156666666666
653796760 0.768017 -0.5621736666666667
655282639 0.7633009999999999 -0.5603343333333334
656768518 0.7609846666666668 -0.5597476666666666
658254397 0.75753 -0.5577993333333333
659740276 0.7529443333333333 -0.5544383333333334
661226155 0.7529876666666667 -0.5576986666666667
662712034 0.7556223333333333 -0.5615466666666666
664197913 0.7582909999999999 -0.5638296666666667
665683792 0.7609633333333333 -0.565886
667169671 0.7612863333333334 -0.569335
668655550 0.761127 -0.570516
670141429 0.7625443333333332 -0.5711626666666666
671627308 0.7616900000000001 -0.5739503333333333
673113187 0.76456 -0.5738746666666668
674599066 0.7630076666666668 -0.5733130000000001
676084945 0.7637626666666666 -0.574753
677570824 0.7622503333333333 -0.5745723333333332
679056703 0.7621600000000001 -0.5731116666666667
680542582 0.7595843333333333 -0.572196
682028461 0.7578126666666667 -0.5718053333333334
683514340 0.7563523333333334 -0.5688593333333333
685000219 0.7524603333333334 -0.568809
686486098 0.749533 -0.5669816666666666
687971977 0.7462556666666668 -0.5638246666666666
689457856 0.7420216666666667 -0.5626603333333332
690943735 0.7421196666666666 -0.5638683333333333
692429614 0.7429906666666666 -0.568372
693915493 0.7438993333333332 -0.570212
695401372 0.742393 -0.575293
696887251 0.7448136666666666 -0.577693
698373130 0.7448743333333333 -0.5795766666666666
699859009 0.7451433333333334 -0.5815553333333333
701344888 0.7450393333333333 -0.5833716666666667
702830767 0.7442036666666668 -0.5845756666666666
704316646 0.742267 -0.586607
705802525 0.7424876666666668 -0.5866026666666666
707288404 0.7397923333333334 -0.5884836666666666
708774283 0.739683 -0.5889493333333333
710260162 0.7376066666666666 -0.5890733333333333
711746041 0.7324733333333334 -0.5880070000000001
713231920 0.730343 -0.5871643333333333
714717799 0.7293276666666667 -0.5882529999999999
716203678 0.7246453333333335 -0.586036
717689557 0.7198503333333335 -0.5878456666666666
719175436 0.7167613333333334 -0.5844863333333333
720661315 0.714949 -0.5852189999999999
722147194 0.715952 -0.5906943333333333
723633073 0.7167586666666667 -0.5949953333333333
725118952 0.7194856666666666 -0.5953390000000001
726604831 0.7209346666666666 -0.597358
728090710 0.7194389999999999 -0.6023496666666667
729576589 0.7199063333333333 -0.603911
731062468 0.7220780000000001 -0.6031943333333333
732548347 0.720421 -0.605556
734034226 0.7212106666666666 -0.6055626666666666
735520105 0.718969 -0.6076566666666667
737005984 0.7204906666666666 -0.6072163333333332
738491863 0.7195263333333334 -0.6075146666666668
739977742 0.7159826666666667 -0.6088033333333334
741463621 0.714471 -0.6062453333333333
742949500 0.7122033333333334 -0.606218
744435379 0.7095906666666667 -0.605576
745921258 0.707167 -0.6038436666666667
747407137 0.7033233333333332 -0.6024376666666668
748893016 0.7009916666666668 -0.6015866666666667
750378895 0.6987516666666668 -0.5995983333333332
751864774 0.7002426666666667 -0.6036036666666665
753350653 0.7032783333333333 -0.6074649999999999
754836532 0.7037019999999999 -0.6085046666666667
756322411 0.7031813333333333 -0.6128096666666666
757808290 0.7047493333333333 -0.6132179999999999
759294169 0.7031139999999999 -0.615479
760780048 0.7041743333333333 -0.617985
762265927 0.7037610000000001 -0.61933
763751806 0.7030703333333334 -0.618793
765237685 0.7027506666666666 -0.6180783333333334
766723564 0.7018173333333334 -0.6197499999999999
768209443 0.699639 -0.6208116666666667
769695322 0.70174 -0.6275076666666667
771181201 0.6954899999999999 -0.6200546666666668
772667080 0.6828066666666667 -0.6240266666666666
774152959 0.6907226666666667 -0.6169396666666667
775638838 0.6856963333333335 -0.6174286666666666
777124717 0.683579 -0.6153766666666667
778610596 0.6794776666666666 -0.6139166666666667
780096475 0.6761276666666666 -0.612118
781582354 0.6780816666666668 -0.6158036666666666
783068233 0.67816 -0.6205953333333333
784554112 0.6802046666666667 -0.6224863333333334
786039991 0.6824396666666667 -0.6242396666666666
787525870 0.6835366666666666 -0.6277996666666666
789011749 0.6849913333333334 -0.6282113333333333
790497628 0.6861863333333335 -0.6303616666666666
791983507 0.6860866666666666 -0.6315866666666666
793469386 0.6855146666666666 -0.632051
794955265 0.6850053333333334 -0.6324013333333333
796441144 0.684412 -0.6328663333333333
797927023 0.6838423333333333 -0.631644
799412902 0.6836913333333333 -0.6309816666666667
800898781 0.6807766666666666 -0.6305253333333334
802384660 0.6783876666666666 -0.6295983333333334
803870539 0.6778513333333333 -0.627678
805356418 0.6744923333333332 -0.626188
806842297 0.6710983333333332 -0.6247673333333333
808328176 0.6669643333333334 -0.6235523333333334
809814055 0.6623690000000001 -0.6218956666666666
811299934 0.6627393333333333 -0.625393
812785813 0.6662336666666667 -0.6277533333333333
814271692 0.6671906666666666 -0.630471
815757571 0.6669110000000001 -0.6354083333333334
817243450 0.668843 -0.636372
818729329 0.667552 -0.6406723333333333
820215208 0.6689380000000001 -0.6414746666666667
821701087 0.667892 -0.6444766666666667
823186966 0.6680513333333332 -0.6445150000000001
824672845 0.6667329999999999 -0.6451756666666667
826158724 0.6661966666666667 -0.6463106666666666
827644603 0.664127 -0.6462843333333333
829130482 0.6637603333333334 -0.6450253333333333
830616361 0.6616366666666667 -0.6450186666666666
832102240 0.656652 -0.6468806666666667
833588119 0.6560553333333333 -0.6441436666666666
835073998 0.6534906666666668 -0.6422333333333333
836559877 0.6497323333333332 -0.6415986666666665
838045756 0.645323 -0.6408303333333333
839531635 0.6425746666666666 -0.63795
841017514 0.6413823333333334 -0.6411663333333334
842503393 0.642405 -0.6463213333333333
843989272 0.645167 -0.6478106666666666
845475151 0.644319 -0.6517336666666668
846961030 0.645651 -0.654017
848446909 0.6457906666666667 -0.6566863333333334
849932788 0.6472256666666666 -0.657408
851418667 0.6471246666666667 -0.6593446666666666
852904546 0.6480403333333333 -0.6595776666666667
854390425 0.6460986666666666 -0.6617350000000001
855876304 0.6460433333333333 -0.661335
857362183 0.643496 -0.6625306666666666
858848062 0.6429116666666667 -0.6622183333333332
860333941 0.6420389999999999 -0.6593516666666667
861819820 0.6399243333333332 -0.6589796666666666
863305699 0.6379036666666668 -0.6575746666666666
864791578 0.6351509999999999 -0.6550953333333333
866277457 0.6317543333333334 -0.6531256666666666
867763336 0.6286753333333334 -0.6522456666666667
869249215 0.6246633333333333 -0.6493896666666666
870735094 0.6229326666666667 -0.6510986666666666
872220973 0.622772 -0.6537226666666667
873706852 0.6243786666666667 -0.6557553333333334
875192731 0.6261266666666666 -0.6607476666666666
876678610 0.6257573333333334 -0.6629206666666667
878164489 0.6264653333333333 -0.6654013333333334
879650368 0.6275573333333333 -0.66705
881136247 0.6277353333333333 -0.6696013333333334
882622126 0.6276103333333334 -0.6701493333333333
884108005 0.6282253333333333 -0.6708966666666667
885593884 0.626734 -0.6697933333333334
887079763 0.6264356666666667 -0.671404
888565642 0.6251213333333334 -0.6703070000000001
890051521 0.623239 -0.6700413333333334
891537400 0.6207276666666667 -0.6692693333333333
893023279 0.618344 -0.6663676666666667
894509158 0.615333 -0.6667006666666667
895995037 0.6127883333333334 -0.6635426666666667
897480916 0.6118193333333334 -0.660058
898966795 0.6057199999999999 -0.658957
900452674 0.6071213333333333 -0.6581283333333334
901938553 0.6071050000000001 -0.66057
903424432 0.6068756666666666 -0.6651866666666667
904910311 0.6092396666666667 -0.6674410000000001
906396190 0.6091073333333333 -0.6687073333333333
907882069 0.6072823333333334 -0.6734766666666667
909367948 0.6100876666666667 -0.6732346666666666
910853827 0.607347 -0.676775
912339706 0.6097853333333333 -0.6787383333333334
913825585 0.6092983333333333 -0.6781450000000001
915311464 0.6083823333333332 -0.6769646666666667
916797343 0.606202 -0.6796296666666667
918283222 0.606743 -0.67796
919769101 0.6045573333333333 -0.6769093333333333
921254980 0.6050063333333334 -0.6757523333333334
922740859 0.6001993333333333 -0.6751683333333333
924226738 0.599098 -0.673314
925712617 0.5959656666666667 -0.6721753333333332
927198496 0.5932339999999999 -0.6672399999999999
928684375 0.6284123333333334 -0.6757543333333332
930170254 0.587745 -0.6640883333333333
931656133 0.589009 -0.6699236666666667
933142012 0.5880356666666667 -0.6732093333333333
934627891 0.5890596666666666 -0.6762116666666667
936113770 0.591265 -0.6786789999999999
937599649 0.590544 -0.6810346666666667
939085528 0.5918523333333333 -0.683176
940571407 0.5939503333333334 -0.6825066666666667
942057286 0.5928586666666668 -0.6850333333333333
943543165 0.5928023333333333 -0.6848906666666666
945029044 0.5928043333333334 -0.6872173333333333
946514923 0.5919673333333333 -0.686765
948000802 0.5921449999999999 -0.6863933333333333
949486681 0.5900703333333334 -0.6863633333333333
950972560 0.5899113333333333 -0.684044
952458439 0.5782543333333333 -0.688692
953944318 0.587602 -0.6812459999999999
955430197 0.5837216666666666 -0.6803303333333334
956916076 0.582456 -0.6775396666666668
958401955 0.5800196666666667 -0.6750303333333334
959887834 0.578361 -0.67419
961373713 0.5789156666666667 -0.6768143333333333
962859592 0.5776543333333334 -0.6799426666666667
964345471 0.5794119999999999 -0.682859
965831350 0.578544 -0.6837589999999999
967317229 0.5778593333333334 -0.687266
968803108 0.5788263333333333 -0.6889543333333333
970288987 0.5783846666666667 -0.6911523333333333
971774866 0.5772003333333333 -0.6927433333333334
973260745 0.5769633333333333 -0.6934323333333333
974746624 0.5773290000000001 -0.6936079999999999
976232503 0.5770766666666667 -0.6936746666666668
977718382 0.576365 -0.6923046666666667
979204261 0.574627 -0.6935500000000001
980690140 0.5856173333333333 -0.6849103333333333
982176019 0.5712619999999999 -0.690877
983661898 0.5687533333333333 -0.692784
985147777 0.5678266666666666 -0.6891273333333333
986633656 0.5637093333333333 -0.6885683333333333
988119535 0.5627436666666666 -0.6850529999999999
989605414 0.5586713333333333 -0.6843966666666667
991091293 0.5573866666666666 -0.686385
992577172 0.5586506666666667 -0.6900746666666667
994063051 0.5582966666666667 -0.6917276666666666
995548930 0.560876 -0.6928193333333333
997034809 0.5597446666666667 -0.695002
998520688 0.5596636666666667 -0.6980096666666666
1000006567 0.5593543333333333 -0.6985600000000001
1001492446 0.5604946666666667 -0.6987466666666666
1002978325 0.559301 -0.6991116666666667
1004464204 0.5623793333333333 -0.698133
1005950083 0.5584336666666667 -0.6999073333333333
1007435962 0.5619406666666666 -0.6966663333333333
1008921841 0.5565953333333333 -0.6982186666666667
1010407720 0.5588953333333333 -0.6964813333333334
1011893599 0.5492469999999999 -0.699277
1013379478 0.5572386666666667 -0.6918943333333334
1014865357 0.5448386666666667 -0.6969646666666667
1016351236 0.5511556666666667 -0.6892463333333333
1017837115 0.5397206666666667 -0.69366
1019322994 0.545022 -0.6860736666666667
1020808873 0.535444 -0.6909743333333335
1022294752 0.543533 -0.6908056666666668
1023780631 0.5371933333333333 -0.6971326666666666
1025266510 0.5476706666666666 -0.6933456666666666
1026752389 0.5387286666666666 -0.7007566666666666
1028238268 0.5466666666666666 -0.6991913333333333
1029724147 0.5384676666666667 -0.7044320000000001
1031210026 0.545935 -0.6999413333333333
1032695905 0.5384093333333334 -0.7067233333333333
1034181784 0.5482253333333333 -0.7013433333333333
1035667663 0.5371893333333333 -0.7076560000000001
1037153542 0.5445603333333334 -0.7016256666666667
1038639421 0.5349926666666667 -0.705588
1040125300 0.5420476666666666 -0.7007063333333333
1041611179 0.5310536666666666 -0.7052203333333332
1043097058 0.53867 -0.6988233333333334
1044582937 0.5269166666666666 -0.7037183333333333
1046068816 0.532811 -0.6969443333333333
1047554695 0.5219283333333333 -0.7001499999999999
1049040574 0.527918 -0.6922900000000002
1050526453 0.5227256666666666 -0.694999
1052012332 0.521912 -0.6992546666666667
1053498211 0.5226063333333334 -0.7013983333333335
1054984090 0.5264183333333333 -0.7024490000000001
1056469969 0.52523 -0.7049090000000001
1057955848 0.5261203333333334 -0.7073103333333334
1059441727 0.5256723333333334 -0.7101593333333333
1060927606 0.525641 -0.7103973333333333
1062413485 0.5264013333333334 -0.7119536666666666
1063899364 0.5260876666666666 -0.7121996666666667
1065385243 0.5262696666666667 -0.7122206666666666
1066871122 0.5229743333333334 -0.7130846666666667
1068357001 0.552328 -0.7153176666666666
1069842880 0.5242816666666666 -0.7112823333333335
1071328759 0.5223773333333334 -0.709952
1072814638 0.5176516666666667 -0.711132
1074300517 0.517717 -0.7088573333333335
1075786396 0.5141699999999999 -0.7073093333333333
1077272275 0.5121956666666666 -0.7049996666666667
1078758154 0.49266033333333326 -0.6708446666666665
1080244033 0.5119766666666666 -0.6982589999999999
1081729912 0.511119 -0.7036106666666666
1083215791 0.5132173333333333 -0.7061516666666666
1084701670 0.5147796666666666 -0.708685
1086187549 0.515982 -0.7108983333333333
1087673428 0.5156406666666667 -0.7138566666666667
1089159307 0.5157889999999999 -0.715024
1090645186 0.5169036666666667 -0.7146460000000001
1092131065 0.5167736666666666 -0.715035
1093616944 0.515485 -0.715567
1095102823 0.5207109999999999 -0.7146446666666666
1096588702 0.5194723333333333 -0.7152753333333334
1098074581 0.519319 -0.7138466666666666
1099560460 0.5173493333333333 -0.7135653333333334
1101046339 0.5162623333333333 -0.713057
1102532218 0.5127713333333334 -0.7113860000000001
1104018097 0.5082433333333333 -0.7101313333333333
1105503976 0.49800133333333335 -0.7123029999999999
1106989855 0.49623833333333334 -0.7082943333333334
1108475734 0.4953376666666667 -0.7063983333333334
1109961613 0.48830366666666664 -0.7053366666666667
1111447492 0.4904246666666667 -0.7082419999999999
1112933371 0.49079366666666663 -0.7128556666666667
1114419250 0.48998766666666665 -0.7149276666666666
1115905129 0.49169233333333334 -0.7167330000000001
1117391008 0.4948316666666666 -0.7190690000000001
1118876887 0.49153766666666665 -0.7218856666666666
1120362766 0.4939086666666667 -0.7227056666666667
1121848645 0.4923313333333333 -0.7243356666666667
1123334524 0.4939796666666667 -0.7246046666666667
1124820403 0.4910933333333333 -0.7256006666666667
1126306282 0.4899366666666667 -0.726756
1127792161 0.4918673333333334 -0.7257776666666667
1129278040 0.4880866666666666 -0.724869
1130763919 0.487611 -0.7230089999999999
1132249798 0.4830636666666666 -0.7249883333333332
1133735677 0.484403 -0.719791
1135221556 0.47980566666666663 -0.7203906666666667
1136707435 0.477627 -0.7178490000000001
1138193314 0.47461200000000003 -0.7156253333333332
1139679193 0.472499 -0.7116873333333332
1141165072 0.46909533333333336 -0.7167056666666666
1142650951 0.4742973333333333 -0.7166929999999999
1144136830 0.4737196666666667 -0.72063
1145622709 0.4717693333333333 -0.724117
1147108588 0.47472633333333336 -0.726442
1148594467 0.474364 -0.7275973333333333
1150080346 0.47292533333333325 -0.7285563333333333
1151566225 0.474616 -0.7307433333333334
1153052104 0.471773 -0.7309463333333334
1154537983 0.47163400000000005 -0.7324326666666666
1156023862 0.47303199999999995 -0.73026
1157509741 0.47188433333333335 -0.7286296666666666
1158995620 0.4693156666666667 -0.7292230000000001
1160481499 0.46592433333333333 -0.7289056666666666
1161967378 0.46462699999999996 -0.7277423333333334
1163453257 0.46451833333333337 -0.7254436666666667
1164939136 0.461818 -0.7230606666666667
1166425015 0.457242 -0.7200150000000001
1167910894 0.4549126666666667 -0.7183700000000001
1169396773 0.45092233333333337 -0.7153303333333333
1170882652 0.44977300000000003 -0.7165856666666667
1172368531 0.45221433333333333 -0.7183076666666667
1173854410 0.4520313333333333 -0.720561
1175340289 0.4499086666666667 -0.7252356666666667
1176826168 0.45381299999999997 -0.7263283333333334
1178312047 0.450258 -0.728895
1179797926 0.452802 -0.7284276666666667
1181283805 0.4476333333333333 -0.730808
1182769684 0.45144266666666666 -0.7302333333333334
1184255563 0.4495716666666667 -0.7313403333333334
1185741442 0.449367 -0.7312826666666666
1187227321 0.450197 -0.7282543333333334
1188713200 0.44621266666666665 -0.72987
1190199079 0.44566599999999995 -0.7280863333333333
1191684958 0.4432926666666667 -0.7258263333333334
1193170837 0.4416603333333333 -0.7253076666666667
1194656716 0.43760533333333335 -0.7227033333333334
1196142595 0.4349703333333333 -0.7212390000000001
1197628474 0.4311833333333333 -0.7194926666666667
1199114353 0.4313116666666667 -0.712851
1200600232 0.4284126666666666 -0.7152106666666667
1202086111 0.43121666666666664 -0.7174866666666667
1203571990 0.4295636666666667 -0.7222083333333332
1205057869 0.4332016666666667 -0.7236963333333333
1206543748 0.43353100000000006 -0.7263846666666666
1208029627 0.4318683333333333 -0.7299236666666666
1209515506 0.431508 -0.7310773333333334
1211001385 0.43304366666666666 -0.7317123333333333
1212487264 0.4315523333333333 -0.7330336666666666
1213973143 0.4323883333333333 -0.7340070000000001
1215459022 0.4341363333333333 -0.7327453333333334
1216944901 0.42871166666666666 -0.7346943333333332
1218430780 0.4326693333333333 -0.7314286666666666
1219916659 0.43236333333333327 -0.7357346666666666
1221402538 0.42975 -0.7302496666666666
1222888417 0.42999733333333334 -0.7274276666666667
1224374296 0.42689466666666664 -0.7275366666666666
1225860175 0.42500699999999997 -0.724097
1227346054 0.42460933333333334 -0.7217156666666668
1228831933 0.4197493333333333 -0.7188433333333334
1230317812 0.44975666666666675 -0.7305090000000001
1231803691 0.4203523333333334 -0.7195733333333333
1233289570 0.4204206666666667 -0.723166
1234775449 0.4204543333333333 -0.72526
1236261328 0.42319866666666667 -0.7270530000000001
1237747207 0.42432133333333333 -0.728489
1239233086 0.42217733333333335 -0.7322830000000001
1240718965 0.4248103333333333 -0.7309233333333333
1242204844 0.42305400000000004 -0.7318003333333333
1243690723 0.423178 -0.7318106666666667
1245176602 0.42273 -0.7311656666666667
1246662481 0.41944066666666663 -0.734074
1248148360 0.4243566666666667 -0.7307453333333335
1249634239 0.4230076666666666 -0.7283719999999999
1251120118 0.4199063333333333 -0.7293716666666666
1252605997 0.4196236666666667 -0.7264156666666667
1254091876 0.41702400000000006 -0.7238963333333334
1255577755 0.41605833333333336 -0.7202419999999999
1257063634 0.4121603333333333 -0.718767
1258549513 0.40921366666666664 -0.7176119999999999
1260035392 0.40965100000000004 -0.7108636666666666
1261521271 0.41030066666666665 -0.7144356666666667
1263007150 0.4083406666666667 -0.7175506666666666
1264493029 0.40800966666666666 -0.7213006666666667
1265978908 0.4091816666666667 -0.7247466666666668
1267464787 0.40842466666666666 -0.724436
1268950666 0.4083403333333333 -0.7270033333333333
1270436545 0.40525866666666666 -0.7306336666666665
1271922424 0.407434 -0.730177
1273408303 0.4336176666666667 -0.7418810000000001
1274894182 0.402742 -0.7306940000000001
1276380061 0.40218933333333334 -0.732759
1277865940 0.40074866666666664 -0.7314953333333333
1279351819 0.40204100000000004 -0.7319599999999999
1280837698 0.4007243333333334 -0.7305873333333333
1282323577 0.3984366666666667 -0.7312993333333333
1283809456 0.39506066666666667 -0.7255583333333333
1285295335 0.39333766666666664 -0.7268183333333335
1286781214 0.39226033333333327 -0.7253423333333333
1288267093 0.38764533333333334 -0.7234356666666667
1289752972 0.38793133333333335 -0.722986
1291238851 0.385851 -0.7224750000000001
1292724730 0.38454799999999995 -0.7270280000000001
1294210609 0.3863263333333333 -0.729349
1295696488 0.3881033333333333 -0.7303266666666666
1297182367 0.3865446666666667 -0.7322956666666666
1298668246 0.389629 -0.734746
1300154125 0.39048600000000006 -0.7359723333333333
1301640004 0.38962366666666665 -0.7346213333333335
1303125883 0.3900423333333333 -0.7379399999999999
1304611762 0.389721 -0.736832
1306097641 0.388296 -0.738057
1307583520 0.38996566666666665 -0.7358493333333334
1309069399 0.390454 -0.735296
1310555278 0.3889816666666667 -0.7346326666666667
1312041157 0.38921500000000003 -0.7325813333333334
1313527036 0.3844266666666667 -0.7328743333333333
1315012915 0.38566866666666666 -0.72903
1316498794 0.382137 -0.727216
1317984673 0.3840846666666667 -0.7234473333333332
1319470552 0.3814363333333333 -0.7219773333333332
1320956431 0.3807136666666667 -0.7243673333333334
1322442310 0.380902 -0.7272366666666666
1323928189 0.38137233333333337 -0.7293206666666667
1325414068 0.3815576666666667 -0.7318276666666668
1326899947 0.38147 -0.7348310000000001
1328385826 0.38226466666666664 -0.733978
1329871705 0.37960766666666673 -0.7369303333333334
1331357584 0.3812423333333333 -0.738238
1332843463 0.3784206666666667 -0.7393426666666666
1334329342 0.37957 -0.7390036666666666
1335815221 0.3814286666666667 -0.7407596666666666
1337301100 0.3805963333333333 -0.7398683333333334
1338786979 0.37764333333333333 -0.7405196666666667
1340272858 0.3793493333333333 -0.7382433333333333
1341758737 0.375554 -0.7386436666666666
1343244616 0.377558 -0.7370843333333333
1344730495 0.37428733333333336 -0.7360413333333332
1346216374 0.36975766666666665 -0.7347416666666667
1347702253 0.3698976666666667 -0.7321073333333334
1349188132 0.36855333333333334 -0.7310533333333334
1350674011 0.368762 -0.7308116666666667
1352159890 0.3688643333333333 -0.7326156666666667
1353645769 0.369585 -0.7353026666666667
1355131648 0.3680413333333334 -0.7379023333333333
1356617527 0.368185 -0.7390013333333334
1358103406 0.36769500000000005 -0.7389703333333334
1359589285 0.3670346666666667 -0.7391826666666667
1361075164 0.363451 -0.7417696666666668
1362561043 0.3652043333333333 -0.7392600000000001
1364046922 0.36577666666666664 -0.7389933333333333
1365532801 0.359574 -0.741083
1367018680 0.3589183333333333 -0.7407543333333333
1368504559 0.3579436666666667 -0.738592
1369990438 0.35468900000000003 -0.7390076666666667
1371476317 0.3551876666666667 -0.7372326666666668
1372962196 0.373203 -0.728424
1374448075 0.34925866666666666 -0.7346226666666666
1375933954 0.3480916666666667 -0.7312906666666666
1377419833 0.34539800000000004 -0.7289213333333334
1378905712 0.34108066666666664 -0.7305670000000001
1380391591 0.3382336666666667 -0.7276536666666668
1381877470 0.3373446666666666 -0.731794
1383363349 0.33339633333333335 -0.7353846666666666
1384849228 0.35007133333333335 -0.7344006666666667
1386335107 0.354125 -0.7359940000000001
1387820986 0.3402273333333334 -0.7373949999999999
1389306865 0.3549623333333334 -0.7385163333333332
1390792744 0.3559076666666667 -0.7402683333333334
1392278623 0.3559426666666667 -0.7396726666666668
1393764502 0.3566593333333333 -0.7388246666666666
1395250381 0.3569066666666667 -0.7402043333333334
1396736260 0.343431 -0.7415556666666667
1398222139 0.3654473333333333 -0.737476
1399708018 0.3578153333333334 -0.7384689999999999
1401193897 0.35764666666666667 -0.7357146666666666
1402679776 0.3561026666666667 -0.734938
1404165655 0.3547086666666666 -0.7336083333333333
1405651534 0.35397366666666663 -0.7310813333333334
1407137413 0.35360199999999997 -0.7281323333333334
1408623292 0.340825 -0.7279003333333334
1410109171 0.3403066666666666 -0.725937
1411595050 0.3406993333333334 -0.7283146666666666
1413080929 0.344862 -0.7337946666666667
1414566808 0.34314266666666665 -0.736004
1416052687 0.34293866666666667 -0.7387216666666667
1417538566 0.34488 -0.7419086666666667
1419024445 0.3464913333333333 -0.7418456666666667
1420510324 0.3493386666666667 -0.7425
1421996203 0.3465333333333333 -0.7451363333333334
1423482082 0.3473566666666667 -0.7457966666666667
1424967961 0.348925 -0.7455706666666666
1426453840 0.3477673333333333 -0.7472156666666666
1427939719 0.3504693333333333 -0.7454566666666667
1429425598 0.3491756666666667 -0.7471633333333333
1430911477 0.3442753333333333 -0.7436349999999999
1432397356 0.3476183333333333 -0.743113
1433883235 0.346388 -0.7400463333333334
1435369114 0.3446473333333333 -0.7386293333333334
1436854993 0.35081366666666663 -0.7356443333333332
1438340872 0.34124899999999997 -0.7351136666666668
1439826751 0.33880533333333335 -0.7319703333333334
1441312630 0.33980666666666665 -0.7322806666666667
1442798509 0.3406093333333333 -0.736797
1444284388 0.34189566666666665 -0.7399226666666667
1445770267 0.34547066666666665 -0.7405466666666668
1447256146 0.34191 -0.743087
1448742025 0.34128566666666665 -0.7446923333333334
1450227904 0.34211600000000003 -0.7447876666666667
1451713783 0.343678 -0.7459713333333333
1453199662 0.3397966666666667 -0.7458773333333334
1454685541 0.340856 -0.7458283333333333
1456171420 0.34138 -0.7454933333333332
1457657299 0.338886 -0.7453309999999999
1459143178 0.33786066666666664 -0.7432073333333333
1460629057 0.33745700000000006 -0.7424399999999999
1462114936 0.33122866666666667 -0.7416163333333333
1463600815 0.32890766666666665 -0.7389290000000001
1465086694 0.3319813333333333 -0.7356503333333334
1466572573 0.326757 -0.7335436666666667
1468058452 0.32435966666666666 -0.7312703333333334
1469544331 0.3200693333333333 -0.7284153333333334
1471030210 0.3203133333333334 -0.7292793333333334
1472516089 0.32159699999999997 -0.733483
1474001968 0.3211633333333333 -0.7368523333333333
1475487847 0.32259466666666664 -0.7392903333333334
1476973726 0.32358133333333333 -0.7410256666666667
1478459605 0.32549866666666666 -0.7439866666666667
1479945484 0.3231853333333334 -0.7467296666666666
1481431363 0.3220856666666667 -0.7459776666666667
1482917242 0.323123 -0.7475103333333334
1484403121 0.32533433333333334 -0.7469243333333333
1485889000 0.32413566666666666 -0.747596
1487374879 0.3239573333333334 -0.7478186666666667
1488860758 0.32422466666666666 -0.746289
1490346637 0.321824 -0.7453433333333334
1491832516 0.3220703333333333 -0.7428246666666668
1493318395 0.3193243333333333 -0.7421136666666666
1494804274 0.31803800000000004 -0.7389996666666668
1496290153 0.3151133333333333 -0.7380596666666667
1497776032 0.31268566666666664 -0.7354893333333333
1499261911 0.30978633333333333 -0.7323163333333333
1500747790 0.31174066666666667 -0.7313836666666668
1502233669 0.3128056666666667 -0.7342493333333334
1503719548 0.31281766666666666 -0.7380346666666666
1505205427 0.310614 -0.7409643333333333
1506691306 0.3109633333333333 -0.7428163333333333
1508177185 0.30994266666666664 -0.7456786666666666
1509663064 0.31021366666666667 -0.7457073333333334
1511148943 0.30949766666666667 -0.7504149999999999
1512634822 0.3123696666666667 -0.749581
1514120701 0.30957300000000004 -0.7482416666666666
1515606580 0.307232 -0.7499143333333333
1517092459 0.308799 -0.747545
1518578338 0.30665133333333333 -0.7477593333333333
1520064217 0.30658833333333335 -0.7451063333333333
1521550096 0.30298933333333333 -0.7453393333333334
1523035975 0.3031363333333333 -0.7445976666666668
1524521854 0.300275 -0.7410640000000001
1526007733 0.29972366666666667 -0.7366903333333333
1527493612 0.28884200000000004 -0.6986576666666666
1528979491 0.291934 -0.7325546666666667
1530465370 0.2952533333333333 -0.730563
1531951249 0.291253 -0.7349093333333334
1533437128 0.2905663333333333 -0.7374153333333333
1534923007 0.28962099999999996 -0.7410916666666667
1536408886 0.29119833333333334 -0.742981
1537894765 0.29234666666666664 -0.7441533333333333
1539380644 0.2920216666666667 -0.7457956666666666
1540866523 0.292232 -0.746091
1542352402 0.2930983333333333 -0.747477
1543838281 0.289166 -0.7479306666666666
1545324160 0.29236233333333334 -0.7458983333333333
1546810039 0.290731 -0.745923
1548295918 0.29128099999999996 -0.7445473333333332
1549781797 0.2909083333333333 -0.742066
1551267676 0.28877533333333333 -0.7410083333333334
1552753555 0.2870803333333333 -0.7395856666666667
1554239434 0.28401766666666667 -0.7367310000000001
1555725313 0.28629933333333335 -0.733457
1557211192 0.280437 -0.7316596666666667
1558697071 0.2784923333333333 -0.7301056666666667
1560182950 0.28006000000000003 -0.7243186666666666
1561668829 0.27986700000000003 -0.7282176666666667
1563154708 0.2784363333333333 -0.7307746666666667
1564640587 0.277457 -0.7348129999999999
1566126466 0.27901033333333336 -0.7362686666666667
1567612345 0.2765756666666667 -0.7393213333333333
1569098224 0.27508266666666664 -0.7425083333333333
1570584103 0.2786283333333333 -0.7423259999999999
1572069982 0.27786700000000003 -0.7428473333333333
1573555861 0.2764216666666666 -0.7445146666666668
1575041740 0.279165 -0.7429770000000001
1576527619 0.2771733333333333 -0.744241
1578013498 0.27646599999999993 -0.744824
1579499377 0.274181 -0.7437346666666667
1580985256 0.275106 -0.742517
1582471135 0.27254866666666666 -0.740976
1583957014 0.27360033333333333 -0.7381943333333334
1585442893 0.27196966666666667 -0.7358083333333334
1586928772 0.2699496666666667 -0.7348186666666666
1588414651 0.270907 -0.7304813333333334
1589900530 0.2669086666666667 -0.7286726666666666
1591386409 0.26679899999999995 -0.7317353333333333
1592872288 0.268176 -0.7342706666666666
1594358167 0.2688546666666667 -0.7361966666666667
1595844046 0.26669933333333334 -0.7396406666666667
1597329925 0.26463166666666665 -0.741825
1598815804 0.26695399999999997 -0.7422853333333332
1600301683 0.26599333333333336 -0.7449586666666667
1601787562 0.26743333333333336 -0.744758
1603273441 0.26644766666666664 -0.7454473333333334
1604759320 0.26709133333333335 -0.7459483333333333
1606245199 0.26641966666666667 -0.7446006666666666
1607731078 0.2662406666666667 -0.744997
1609216957 0.2649863333333333 -0.744262
1610702836 0.266978 -0.7417253333333335
1612188715 0.265144 -0.7402066666666666
1613674594 0.2612136666666667 -0.740138
1615160473 0.26708966666666667 -0.7352460000000001
1616646352 0.258723 -0.7352016666666666
1618132231 0.26140633333333335 -0.731699
1619618110 0.25843299999999997 -0.7291143333333333
1621103989 0.25654666666666665 -0.7302606666666667
1622589868 0.2558063333333333 -0.73325
1624075747 0.2570403333333333 -0.7352713333333334
1625561626 0.2569993333333333 -0.7373553333333334
1627047505 0.25541433333333335 -0.7406063333333334
1628533384 0.2554796666666667 -0.7409736666666666
1630019263 0.25462233333333334 -0.7424116666666666
1631505142 0.2530693333333333 -0.744561
1632991021 0.252963 -0.7441823333333334
1634476900 0.25462066666666666 -0.744322
1635962779 0.2520966666666667 -0.7449173333333333
1637448658 0.25320366666666666 -0.7435809999999999
1638934537 0.2505173333333333 -0.7448646666666666
1640420416 0.25187166666666666 -0.7419276666666668
1641906295 0.24846866666666667 -0.7421286666666665
1643392174 0.2463236666666667 -0.7417083333333334
1644878053 0.24691200000000002 -0.7377889999999999
1646363932 0.24388500000000002 -0.7374066666666667
1647849811 0.24306799999999998 -0.7353186666666667
1649335690 0.24047433333333332 -0.7327573333333333
1650821569 0.240038 -0.732511
1652307448 0.23648566666666668 -0.7355263333333334
1653793327 0.24694666666666665 -0.736399
1655279206 0.2347503333333333 -0.7398046666666667
1656765085 0.244269 -0.7412386666666667
1658250964 0.23584766666666668 -0.7433136666666668
1659736843 0.24393433333333334 -0.741934
1661222722 0.23598333333333335 -0.7446706666666666
1662708601 0.24754233333333334 -0.7422933333333334
1664194480 0.23526866666666665 -0.7452763333333334
1665680359 0.24456399999999998 -0.7429113333333334
1667166238 0.2354183333333333 -0.7441610000000001
1668652117 0.24575433333333332 -0.7410793333333333
1670137996 0.23452399999999998 -0.7414083333333332
1671623875 0.24118666666666666 -0.73893
1673109754 0.23257466666666668 -0.7377603333333335
1674595633 0.238636 -0.7344556666666667
1676081512 0.22894466666666666 -0.7350473333333333
1677567391 0.23881966666666665 -0.7296276666666667
1679053270 0.23511666666666667 -0.7275626666666667
1680539149 0.23420666666666667 -0.7270353333333334
1682025028 0.233484 -0.7304593333333332
1683510907 0.234043 -0.7323083333333334
1684996786 0.23469933333333334 -0.735769
1686482665 0.23554633333333333 -0.7376616666666665
1687968544 0.24104633333333333 -0.7379626666666668
1689454423 0.233911 -0.7417743333333333
1690940302 0.23563166666666666 -0.7415563333333332
1692426181 0.23485199999999998 -0.742808
1693912060 0.23288366666666668 -0.7456109999999999
1695397939 0.234738 -0.7434876666666667
1696883818 0.23421000000000003 -0.7426903333333333
1698369697 0.23582899999999998 -0.7424909999999999
1699855576 0.23292533333333335 -0.7407889999999999
1701341455 0.23378900000000002 -0.7405556666666667
1702827334 0.235812 -0.7381036666666668
1704313213 0.23355166666666669 -0.734986
1705799092 0.23548966666666668 -0.734517
1707284971 0.23179566666666665 -0.7317026666666667
1708770850 0.22868266666666667 -0.7302116666666666
1710256729 0.22808833333333334 -0.7291386666666666
1711742608 0.22696666666666665 -0.7306966666666667
1713228487 0.23113433333333333 -0.7317779999999999
1714714366 0.22929866666666668 -0.7338443333333333
1716200245 0.228625 -0.7372953333333333
1717686124 0.23074933333333333 -0.7396766666666666
1719172003 0.23244733333333334 -0.7390120000000001
1720657882 0.23066299999999998 -0.7396583333333333
1722143761 0.2290013333333333 -0.7419636666666666
1723629640 0.2146343333333333 -0.731038
1725115519 0.230989 -0.7408389999999999
1726601398 0.23085200000000003 -0.7390566666666666
1728087277 0.23050066666666666 -0.73924
1729573156 0.22934633333333332 -0.7398906666666667
1731059035 0.228303 -0.7375046666666667
1732544914 0.22609533333333331 -0.7371016666666667
1734030793 0.226859 -0.7333883333333334
1735516672 0.22382233333333335 -0.7322756666666667
1737002551 0.223197 -0.727833
1738488430 0.22127233333333332 -0.7247910000000001
1739974309 0.21978466666666666 -0.7222513333333334
1741460188 0.21559899999999999 -0.7261476666666667
1742946067 0.21992366666666666 -0.7294709999999999
1744431946 0.21953433333333336 -0.7322953333333334
1745917825 0.21752233333333335 -0.7346443333333333
1747403704 0.21914600000000004 -0.7371576666666666
1748889583 0.21785100000000002 -0.7399903333333334
1750375462 0.21807266666666666 -0.7400226666666666
1751861341 0.21724 -0.7397133333333333
1753347220 0.21856566666666666 -0.7403476666666666
1754833099 0.21826966666666667 -0.7421153333333335
1756318978 0.219239 -0.7413123333333332
1757804857 0.21627433333333335 -0.7409889999999999
1759290736 0.21839833333333333 -0.7396243333333334
1760776615 0.216912 -0.739396
1762262494 0.21585566666666667 -0.7387476666666667
1763748373 0.21711266666666665 -0.7363493333333334
1765234252 0.21286666666666665 -0.7359966666666667
1766720131 0.211143 -0.7324286666666667
1768206010 0.21088066666666663 -0.7282990000000001
1769691889 0.209502 -0.7268129999999999
1771177768 0.20834699999999998 -0.7294186666666667
1772663647 0.20759566666666665 -0.7312336666666667
1774149526 0.209363 -0.7336103333333334
1775635405 0.21010533333333334 -0.7377910000000001
1777121284 0.21024066666666666 -0.7378816666666667
1778607163 0.21282766666666664 -0.7414886666666667
1780093042 0.212831 -0.7433413333333334
1781578921 0.21165333333333333 -0.7446473333333333
1783064800 0.213166 -0.7436333333333334
1784550679 0.216728 -0.7448706666666668
1786036558 0.21178766666666668 -0.7432456666666667
1787522437 0.21337966666666666 -0.7433040000000001
1789008316 0.212479 -0.7432966666666667
1790494195 0.210688 -0.7412596666666667
1791980074 0.21355666666666664 -0.740456
1793465953 0.21204499999999996 -0.7374339999999999
1794951832 0.21396433333333334 -0.7352403333333334
1796437711 0.21023433333333333 -0.7335066666666666
1797923590 0.20643333333333333 -0.7289223333333333
1799409469 0.20683166666666666 -0.7264156666666667
1800895348 0.20622200000000002 -0.7271416666666667
1802381227 0.207322 -0.7284233333333333
1803867106 0.20643999999999998 -0.7298366666666668
1805352985 0.204076 -0.7344419999999999
1806838864 0.209485 -0.7357393333333334
1808324743 0.20999833333333337 -0.738835
1809810622 0.206457 -0.7387543333333332
1811296501 0.20650166666666667 -0.7385143333333334
1812782380 0.20749700000000001 -0.7399733333333334
1814268259 0.206767 -0.7365096666666666
1815754138 0.20539733333333335 -0.7391933333333333
1817240017 0.20489833333333332 -0.735894
1818725896 0.204626 -0.736443
1820211775 0.20501 -0.7339106666666666
1821697654 0.20409166666666667 -0.7307916666666667
1823183533 0.2015186666666667 -0.7275889999999999
1824669412 0.21337099999999998 -0.7270893333333334
1826155291 0.2135756666666667 -0.7251363333333334
1827641170 0.21325799999999998 -0.7216356666666667
1829127049 0.210697 -0.7204153333333334
1830612928 0.20843799999999998 -0.7220523333333334
1832098807 0.205327 -0.7202973333333333
1833584686 0.195478 -0.7234733333333333
1835070565 0.19434333333333334 -0.727256
1836556444 0.19658666666666666 -0.7298383333333334
1838042323 0.19525766666666666 -0.7312913333333334
1839528202 0.19460866666666665 -0.7333053333333334
1841014081 0.19448866666666667 -0.7334196666666667
1842499960 0.195172 -0.7372489999999999
1843985839 0.19309166666666666 -0.7381643333333333
1845471718 0.19350566666666666 -0.737832
1846957597 0.19495666666666667 -0.7349989999999998
1848443476 0.183226 -0.7360680000000001
1849929355 0.189777 -0.7361493333333334
1851415234 0.1936076666666667 -0.7352546666666667
1852901113 0.19273666666666667 -0.7365046666666667
1854386992 0.18953333333333333 -0.731899
1855872871 0.18929733333333332 -0.7283803333333333
1857358750 0.184159 -0.7252176666666666
1858844629 0.182972 -0.7243166666666667
1860330508 0.18354833333333334 -0.7219933333333334
1861816387 0.18480133333333335 -0.7245673333333333
1863302266 0.18329700000000002 -0.72952
1864788145 0.18856366666666666 -0.7302473333333334
1866274024 0.18585933333333335 -0.7334376666666667
1867759903 0.18534799999999998 -0.733965
1869245782 0.18400666666666665 -0.7365316666666667
1870731661 0.184165 -0.7380043333333334
1872217540 0.18293766666666667 -0.7391896666666667
1873703419 0.18491166666666667 -0.7394796666666666
1875189298 0.184225 -0.7389049999999999
1876675177 0.18956033333333333 -0.7401773333333334
1878161056 0.18467566666666668 -0.7393676666666668
1879646935 0.18552866666666668 -0.7367363333333334
1881132814 0.18097833333333335 -0.7369123333333333
1882618693 0.1797816666666667 -0.7404923333333334
1884104572 0.18421266666666666 -0.7327179999999999
1885590451 0.18072600000000003 -0.72973
1887076330 0.17877500000000002 -0.7279776666666665
1888562209 0.17727400000000001 -0.7267326666666666
1890048088 0.1773193333333333 -0.7213183333333334
1891533967 0.17523433333333335 -0.7241456666666667
1893019846 0.17786933333333335 -0.7283180000000001
1894505725 0.17571133333333333 -0.7291563333333334
1895991604 0.1727196666666667 -0.7286603333333334
1897477483 0.17898633333333333 -0.7325813333333334
1898963362 0.17857533333333334 -0.733469
1900449241 0.177423 -0.7352353333333332
1901935120 0.17725933333333332 -0.7340026666666667
1903420999 0.18081433333333333 -0.7338036666666667
1904906878 0.17542899999999997 -0.7346253333333334
1906392757 0.175944 -0.7323673333333334
1907878636 0.17523733333333333 -0.7329906666666667
1909364515 0.17399366666666669 -0.7309126666666668
1910850394 0.17349933333333334 -0.728848
1912336273 0.17540699999999998 -0.7265426666666666
1913822152 0.1774376666666667 -0.7247496666666665
1915308031 0.17491766666666667 -0.7221513333333333
1916793910 0.17164933333333332 -0.7204506666666667
1918279789 0.17067066666666666 -0.7159926666666667
1919765668 0.167971 -0.7141080000000001
1921251547 0.16930266666666668 -0.7143280000000001
1922737426 0.165725 -0.7186046666666667
1924223305 0.16576833333333332 -0.7197426666666668
1925709184 0.16784133333333331 -0.7235963333333334
1927195063 0.16678533333333334 -0.725587
1928680942 0.16543333333333335 -0.727242
1930166821 0.16471866666666665 -0.7314723333333334
1931652700 0.16624533333333333 -0.7289953333333333
1933138579 0.16217933333333334 -0.7309783333333333
1934624458 0.164933 -0.7297609999999999
1936110337 0.16305133333333333 -0.7303016666666666
1937596216 0.16224033333333332 -0.7305156666666667
1939082095 0.16606933333333335 -0.7302906666666665
1940567974 0.165125 -0.7291736666666667
1942053853 0.16316733333333333 -0.7289986666666666
1943539732 0.16115466666666667 -0.7240456666666666
1945025611 0.16137333333333334 -0.7245590000000001
1946511490 0.15979733333333335 -0.722609
1947997369 0.1573496666666667 -0.7217326666666667
1949483248 0.152801 -0.7185929999999999
1950969127 0.15657966666666667 -0.7188149999999999
1952455006 0.15369666666666668 -0.7227293333333332
1953940885 0.15617266666666668 -0.722984
1955426764 0.156391 -0.7253106666666667
1956912643 0.15583733333333336 -0.7277429999999999
1958398522 0.157701 -0.7303306666666667
1959884401 0.15816533333333335 -0.7284619999999999
1961370280 0.15258966666666668 -0.7303423333333333
1962856159 0.15509633333333336 -0.7302616666666667
1964342038 0.15473466666666666 -0.7313596666666667
1965827917 0.15416633333333332 -0.7303750000000001
1967313796 0.15684466666666666 -0.7282916666666667
1968799675 0.154977 -0.7284063333333334
1970285554 0.15480833333333333 -0.727147
1971771433 0.14872633333333335 -0.7290446666666667
1973257312 0.149937 -0.723146
1974743191 0.15047566666666667 -0.7226733333333334
1976229070 0.17129633333333336 -0.733205
1977714949 0.1473783333333333 -0.7160193333333335
1979200828 0.14631800000000003 -0.7141513333333332
1980686707 0.146831 -0.7131386666666666
1982172586 0.14408866666666667 -0.7150603333333333
1983658465 0.15414333333333333 -0.7178026666666666
1985144344 0.14335399999999998 -0.720787
1986630223 0.147971 -0.7227836666666666
1988116102 0.14780133333333334 -0.7238993333333333
1989601981 0.14178533333333332 -0.7229673333333334
1991087860 0.145752 -0.7253056666666667
1992573739 0.1448816666666667 -0.7266529999999999
1994059618 0.143228 -0.7271786666666668
1995545497 0.14401899999999998 -0.725326
1997031376 0.14157333333333333 -0.7271516666666668
1998517255 0.14362033333333332 -0.7246733333333334
2000003134 0.14359033333333335 -0.723342
2001489013 0.143202 -0.721045
2002974892 0.13880533333333334 -0.7226776666666667
2004460771 0.1394736666666667 -0.7177190000000001
2005946650 0.14122166666666666 -0.7163393333333333
2007432529 0.13708233333333333 -0.7139723333333334
2008918408 0.13427266666666668 -0.7113746666666666
2010404287 0.13188033333333335 -0.7102003333333333
2011890166 0.13567566666666667 -0.712195
2013376045 0.135158 -0.7153686666666667
2014861924 0.13496366666666668 -0.7177603333333332
2016347803 0.13338866666666666 -0.720009
2017833682 0.13145433333333334 -0.7222189999999999
2019319561 0.13658499999999998 -0.7224593333333332
2020805440 0.13353066666666666 -0.7239843333333335
2022291319 0.13356166666666666 -0.7243356666666667
2023777198 0.13380166666666665 -0.7261243333333333
2025263077 0.13428433333333334 -0.7251219999999999
2026748956 0.1323426666666667 -0.7272553333333334
2028234835 0.1332576666666667 -0.7257153333333334
2029720714 0.14316966666666667 -0.7190356666666666
2031206593 0.133821 -0.722787
2032692472 0.13420366666666664 -0.7205346666666667
2034178351 0.13018733333333332 -0.7201763333333333
2035664230 0.12963466666666668 -0.717908
2037150109 0.13077766666666668 -0.7148623333333332
2038635988 0.12838533333333332 -0.7138369999999999
2040121867 0.12913133333333335 -0.7117586666666665
2041607746 0.12584166666666666 -0.7138603333333333
2043093625 0.126208 -0.7142546666666667
2044579504 0.12862966666666667 -0.7158646666666667
2046065383 0.123919 -0.7193513333333333
2047551262 0.12705966666666665 -0.7202446666666665
2049037141 0.122104 -0.7227900000000002
2050523020 0.12678333333333333 -0.7214510000000001
2052008899 0.13029433333333332 -0.7192633333333333
2053494778 0.12364333333333333 -0.7217796666666666
2054980657 0.12640966666666667 -0.7186763333333334
2056466536 0.12399766666666667 -0.719653
2057952415 0.12888866666666668 -0.7189139999999999
2059438294 0.12345233333333333 -0.7185943333333334
2060924173 0.12427633333333334 -0.716822
2062410052 0.11827466666666668 -0.7151896666666667
2063895931 0.12402533333333332 -0.7110850000000001
2065381810 0.11737033333333334 -0.7105433333333333
2066867689 0.11919833333333334 -0.7068946666666666
2068353568 0.11443133333333333 -0.7060293333333334
2069839447 0.11567733333333334 -0.7004723333333334
2071325326 0.11491033333333334 -0.703663
2072811205 0.11731866666666667 -0.7073823333333333
2074297084 0.11382866666666668 -0.7099523333333334
2075782963 0.117124 -0.7139316666666667
2077268842 0.114892 -0.7147249999999999
2078754721 0.118102 -0.7156466666666667
2080240600 0.11518966666666668 -0.7192986666666666
2081726479 0.11879366666666667 -0.7199133333333333
2083212358 0.11620833333333334 -0.7193170000000001
2084698237 0.11961233333333332 -0.720091
2086184116 0.11797633333333334 -0.7205903333333333
2087669995 0.11765233333333332 -0.7198936666666667
2089155874 0.11640766666666667 -0.71916
2090641753 0.119855 -0.7178093333333333
2092127632 0.11648266666666666 -0.7156903333333333
2093613511 0.12042533333333333 -0.7148713333333333
2095099390 0.114941 -0.7133229999999999
2096585269 0.118221 -0.7105940000000001
2098071148 0.113272 -0.7093663333333332
2099557027 0.11661866666666665 -0.7045180000000001
2101042906 0.11412266666666666 -0.7065723333333334
2102528785 0.11279566666666667 -0.708851
2104014664 0.11418833333333334 -0.710767
2105500543 0.11070066666666667 -0.7130443333333334
2106986422 0.113629 -0.7156613333333334
2108472301 0.11317166666666667 -0.7177593333333334
2109958180 0.111808 -0.717765
2111444059 0.11315133333333334 -0.7168733333333334
2112929938 0.11234533333333334 -0.7195839999999999
2114415817 0.11354533333333333 -0.7181123333333334
2115901696 0.11325966666666666 -0.719952
2117387575 0.11325066666666667 -0.72179
2118873454 0.10312833333333334 -0.7149673333333334
2120359333 0.11436933333333332 -0.7177783333333333
2121845212 0.11214166666666665 -0.7180123333333333
2123331091 0.11042166666666665 -0.714735
2124816970 0.11027166666666666 -0.713453
2126302849 0.11222166666666666 -0.709682
2127788728 0.10894 -0.708241
2129274607 0.10970166666666666 -0.705111
2130760486 0.10847233333333332 -0.685258
2132246365 0.10234133333333334 -0.707478
2133732244 0.10277200000000002 -0.710766
2135218123 0.10712700000000001 -0.7120523333333333
2136704002 0.10644133333333333 -0.713498
2138189881 0.10018133333333333 -0.7148926666666666
2139675760 0.10696666666666667 -0.7157786666666667
2141161639 0.09941499999999999 -0.7169500000000001
2142647518 0.10104633333333335 -0.7170053333333334
2144133397 0.10678966666666667 -0.7179273333333334
2145619276 0.102491 -0.718946
2147105155 0.10106366666666666 -0.7195536666666666
2148591034 0.10408966666666668 -0.7186703333333334
2150076913 0.09430766666666668 -0.7148006666666666
2151562792 0.10172266666666667 -0.7150500000000001
2153048671 0.09505133333333333 -0.7115846666666666
2154534550 0.09540766666666667 -0.7123713333333334
2156020429 0.093142 -0.7083496666666668
2157506308 0.09252833333333332 -0.706743
2158992187 0.09931033333333333 -0.7057553333333333
2160478066 0.09107766666666667 -0.7042476666666667
2161963945 0.093656 -0.707812
2163449824 0.09289666666666667 -0.7083173333333334
2164935703 0.09193966666666666 -0.7116066666666666
2166421582 0.09169433333333332 -0.7138696666666666
2167907461 0.09462966666666668 -0.7158526666666667
2169393340 0.09418833333333333 -0.7159416666666667
2170879219 0.092593 -0.7179433333333334
2172365098 0.09111999999999999 -0.720586
2173850977 0.09077333333333333 -0.7196236666666667
2175336856 0.095366 -0.7190863333333333
2176822735 0.095528 -0.7186816666666668
2178308614 0.09657933333333334 -0.7189263333333334
2179794493 0.09360733333333333 -0.7170803333333332
2181280372 0.09941633333333333 -0.7154613333333333
2182766251 0.094602 -0.712697
2184252130 0.09512766666666667 -0.7100033333333333
2185738009 0.09364666666666666 -0.710556
2187223888 0.09427 -0.7077916666666667
2188709767 0.09786566666666667 -0.7046246666666667
2190195646 0.09269766666666666 -0.7004906666666667
2191681525 0.09366766666666666 -0.7041826666666666
2193167404 0.09132633333333334 -0.7046923333333334
2194653283 0.09549766666666666 -0.7078236666666667
2196139162 0.09544599999999999 -0.709032
2197625041 0.097841 -0.7122273333333333
2199110920 0.09524133333333333 -0.7122463333333333
2200596799 0.095543 -0.7114779999999999
2202082678 0.09667233333333335 -0.7135549999999999
2203568557 0.09662066666666667 -0.712484
2205054436 0.09480866666666665 -0.7133876666666668
2206540315 0.09826333333333333 -0.7130573333333333
2208026194 0.08823066666666668 -0.7010286666666667
2209512073 0.10167533333333334 -0.7089246666666668
2210997952 0.09840900000000001 -0.7092656666666667
2212483831 0.10080066666666666 -0.7081563333333333
2213969710 0.09737866666666667 -0.7024613333333333
2215455589 0.09785833333333334 -0.7015646666666666
2216941468 0.09824766666666666 -0.6971986666666666
2218427347 0.095206 -0.695426
2219913226 0.09718700000000001 -0.6917493333333334
2221399105 0.09988999999999999 -0.6952280000000001
2222884984 0.09588666666666668 -0.697276
2224370863 0.09342566666666667 -0.698789
2225856742 0.09370333333333332 -0.7000820000000001
2227342621 0.09390433333333333 -0.702916
2228828500 0.09463366666666666 -0.7046963333333333
2230314379 0.09304633333333334 -0.7056093333333333
2231800258 0.09394333333333332 -0.7063853333333334
2233286137 0.09356133333333333 -0.708094
2234772016 0.09248466666666666 -0.7070780000000001
2236257895 0.09332033333333334 -0.706374
2237743774 0.09369699999999999 -0.7077256666666667
2239229653 0.09368466666666668 -0.7079666666666666
2240715532 0.09454633333333333 -0.7069343333333333
2242201411 0.095343 -0.7059263333333332
2243687290 0.08662533333333333 -0.702356
2245173169 0.09029833333333333 -0.7015836666666667
2246659048 0.09440300000000001 -0.699773
2248144927 0.09589866666666667 -0.6975029999999999
2249630806 0.08833733333333332 -0.6959766666666667
2251116685 0.08860900000000001 -0.6960723333333333
2252602564 0.08860566666666665 -0.69766
2254088443 0.08645066666666668 -0.6990266666666667
2255574322 0.086518 -0.702836
2257060201 0.08771933333333333 -0.7023563333333334
2258546080 0.092341 -0.704271
2260031959 0.08779533333333334 -0.7033066666666666
2261517838 0.08569233333333333 -0.70454
2263003717 0.08541366666666668 -0.7059206666666666
2264489596 0.08290833333333332 -0.7034413333333335
2265975475 0.08259733333333333 -0.7044023333333334
2267461354 0.08125333333333333 -0.7044606666666667
2268947233 0.08034733333333333 -0.7012496666666667
2270433112 0.08209899999999999 -0.7024400000000001
2271918991 0.07011733333333332 -0.6927133333333334
2273404870 0.07987933333333333 -0.6985606666666667
2274890749 0.081279 -0.6959846666666666
2276376628 0.07991566666666666 -0.6954353333333333
2277862507 0.08395866666666667 -0.694319
2279348386 0.08160933333333333 -0.6894646666666665
2280834265 0.07701833333333334 -0.6925263333333334
2282320144 0.07567033333333334 -0.6926293333333332
2283806023 0.07390633333333334 -0.6931080000000001
2285291902 0.07546199999999999 -0.6977146666666666
2286777781 0.07461333333333332 -0.6991870000000001
2288263660 0.07522666666666668 -0.697296
2289749539 0.07665433333333334 -0.7020346666666667
2291235418 0.07981633333333334 -0.6980653333333334
2292721297 0.08023366666666666 -0.698535
2294207176 0.078413 -0.7016800000000001
2295693055 0.07861466666666667 -0.6985293333333334
2297178934 0.08079299999999999 -0.6992633333333332
2298664813 0.07693966666666667 -0.701619
2300150692 0.07917233333333333 -0.694581
2301636571 0.07417666666666667 -0.6955619999999999
2303122450 0.07781266666666667 -0.6954223333333333
2304608329 0.075542 -0.6925193333333333
2306094208 0.07879199999999999 -0.6921569999999999
2307580087 0.07465433333333334 -0.6878310000000001
2309065966 0.06869766666666667 -0.6862403333333335
2310551845 0.07133933333333332 -0.686468
2312037724 0.07219733333333334 -0.6891213333333334
2313523603 0.076023 -0.6911606666666668
2315009482 0.07490533333333334 -0.6928166666666667
2316495361 0.073077 -0.6968779999999999
2317981240 0.07016233333333334 -0.6986683333333333
2319467119 0.073141 -0.7008776666666666
2320952998 0.07282466666666666 -0.7010519999999999
2322438877 0.07835266666666667 -0.7028789999999999
2323924756 0.06642766666666666 -0.7022353333333333
2325410635 0.07420766666666667 -0.70161
2326896514 0.07424033333333334 -0.7019323333333333
2328382393 0.07400866666666667 -0.7031643333333334
2329868272 0.077469 -0.7013576666666667
2331354151 0.070308 -0.7028169999999999
2332840030 0.075033 -0.7011586666666667
2334325909 0.07091166666666666 -0.7013516666666667
2335811788 0.07072266666666667 -0.6995686666666666
2337297667 0.07164033333333332 -0.6972680000000001
2338783546 0.06494233333333334 -0.695831
2340269425 0.06946133333333333 -0.6924166666666668
2341755304 0.069514 -0.6947243333333333
2343241183 0.06900533333333334 -0.6977593333333333
2344727062 0.06436833333333335 -0.6996733333333333
2346212941 0.065449 -0.7013333333333334
2347698820 0.067631 -0.702534
2349184699 0.06707500000000001 -0.703807
2350670578 0.06617733333333332 -0.7056763333333333
2352156457 0.06395066666666667 -0.7017643333333333
2353642336 0.063902 -0.7061376666666667
2355128215 0.06517133333333333 -0.7071543333333334
2356614094 0.060219999999999996 -0.7064543333333333
2358099973 0.064596 -0.7040863333333333
2359585852 0.062188333333333345 -0.701961
2361071731 0.06699566666666668 -0.700452
2362557610 0.05543766666666666 -0.697866
2364043489 0.05680533333333334 -0.6976176666666668
2365529368 0.05944033333333334 -0.6939213333333333
2367015247 0.05507466666666667 -0.6929653333333333
2368501126 0.05886266666666667 -0.6881513333333333
2369987005 0.050513 -0.6894723333333334
2371472884 0.047465 -0.6929803333333333
2372958763 0.049516666666666674 -0.6945290000000001
2374444642 0.05489733333333333 -0.696112
2375930521 0.054363999999999996 -0.6976353333333334
2377416400 0.05825633333333333 -0.6956963333333334
2378902279 0.053902000000000005 -0.6983103333333333
2380388158 0.05596966666666667 -0.7015726666666667
2381874037 0.05377166666666666 -0.7017683333333333
2383359916 0.059415666666666665 -0.6999283333333333
2384845795 0.059519999999999997 -0.7005566666666666
2386331674 0.060343 -0.6991786666666666
2387817553 0.055848666666666665 -0.698578
2389303432 0.05341133333333333 -0.699374
2390789311 0.06071933333333334 -0.6954016666666667
2392275190 0.05944666666666667 -0.6929723333333334
2393761069 0.057875333333333334 -0.6919276666666666
2395246948 0.055173 -0.690419
2396732827 0.05841733333333333 -0.6847943333333334
2398218706 0.058276666666666664 -0.684094
2399704585 0.052923 -0.6813216666666667
2401190464 0.05519833333333333 -0.683485
2402676343 0.051701 -0.6860856666666667
2404162222 0.04857 -0.6912723333333334
2405648101 0.052847000000000005 -0.6884943333333333
2407133980 0.04847766666666667 -0.697432
2408619859 0.05124566666666667 -0.6922216666666667
2410105738 0.04755566666666666 -0.6954016666666666
2411591617 0.05173966666666666 -0.6949016666666666
2413077496 0.050418333333333336 -0.6950556666666667
2414563375 0.051143333333333325 -0.697123
2416049254 0.04668 -0.698292
2417535133 0.04752566666666667 -0.6978943333333333
2419021012 0.04836733333333334 -0.697625
2420506891 0.044249666666666666 -0.6982126666666667
2421992770 0.044556000000000005 -0.694982
2423478649 0.043795 -0.6967949999999999
2424964528 0.046568 -0.6911386666666667
2426450407 0.04233566666666666 -0.6907466666666666
2427936286 0.019553666666666667 -0.6816823333333334
2429422165 0.039059666666666666 -0.6852779999999999
2430908044 0.03692 -0.685904
2432393923 0.03587933333333333 -0.690868
2433879802 0.04037866666666667 -0.6948340000000001
2435365681 0.04608366666666667 -0.693282
2436851560 0.044433333333333325 -0.6972593333333332
2438337439 0.04436066666666666 -0.6960913333333334
2439823318 0.04470333333333334 -0.6998130000000001
2441309197 0.04583333333333334 -0.696081
2442795076 0.04283833333333333 -0.698376
2444280955 0.04620733333333334 -0.6970576666666667
2445766834 0.044233 -0.696551
2447252713 0.046103666666666675 -0.6942846666666668
2448738592 0.048177000000000005 -0.6947233333333332
2450224471 0.045755 -0.6934453333333334
2451710350 0.04504066666666667 -0.692657
2453196229 0.044750333333333336 -0.6884933333333333
2454682108 0.041192 -0.687872
2456167987 0.045260333333333326 -0.6841826666666666
2457653866 0.044819 -0.6819316666666667
2459139745 0.03286633333333333 -0.6733423333333333
2460625624 0.036442999999999996 -0.6755590000000001
2462111503 0.033041666666666664 -0.6749746666666666
2463597382 0.03307566666666666 -0.6816663333333333
2465083261 0.036242333333333335 -0.6828323333333333
2466569140 0.033084333333333334 -0.6841213333333332
2468055019 0.034673666666666665 -0.6876596666666667
2469540898 0.032177000000000004 -0.6885560000000001
2471026777 0.03577033333333333 -0.6879666666666666
2472512656 0.032453333333333334 -0.688968
2473998535 0.026981333333333333 -0.6885076666666667
2475484414 0.03261366666666667 -0.687624
2476970293 0.027475333333333334 -0.6861166666666666
2478456172 0.03221333333333334 -0.6862646666666667
2479942051 0.032991 -0.6853210000000001
2481427930 0.028813333333333333 -0.6802873333333332
2482913809 0.02908733333333333 -0.6833123333333334
2484399688 0.029502666666666663 -0.679707
2485885567 0.026129666666666673 -0.6787046666666666
2487371446 0.028940000000000004 -0.6750526666666666
2488857325 0.024892333333333332 -0.6730523333333333
2490343204 0.026183 -0.6731789999999999
2491829083 0.028742 -0.6727556666666668
2493314962 0.025955666666666665 -0.6782513333333333
2494800841 0.026491 -0.6786456666666666
2496286720 0.029778666666666665 -0.684235
2497772599 0.026563000000000003 -0.6847586666666667
2499258478 0.027249333333333334 -0.6849896666666666
2500744357 0.026963 -0.6865589999999999
2502230236 0.029259999999999998 -0.687122
2503716115 0.03243 -0.6898736666666666
2505201994 0.027621666666666666 -0.6889633333333333
2506687873 0.028331666666666668 -0.6883513333333333
2508173752 0.031350333333333334 -0.686986
2509659631 0.033728 -0.6895996666666666
2511145510 0.03172666666666666 -0.686276
2512631389 0.03446133333333334 -0.684222
2514117268 0.033700666666666663 -0.682918
2515603147 0.03227333333333333 -0.6803849999999999
2517089026 0.034952333333333335 -0.6791969999999999
2518574905 0.03193666666666667 -0.6761406666666666
2520060784 0.03511266666666667 -0.6721050000000001
2521546663 0.037079 -0.674997
2523032542 0.03235866666666667 -0.6778599999999999
2524518421 0.03322033333333333 -0.6813656666666666
2526004300 0.032060333333333337 -0.6814026666666667
2527490179 0.032133 -0.683353
2528976058 0.033167 -0.6846169999999999
2530461937 0.029495000000000004 -0.6856633333333333
2531947816 0.02993066666666667 -0.68454
2533433695 0.026354666666666665 -0.6922670000000001
2534919574 0.030123333333333335 -0.6869553333333333
2536405453 0.028061 -0.6869333333333333
2537891332 0.026803999999999998 -0.687729
2539377211 0.027352666666666664 -0.684895
2540863090 0.025078 -0.6861586666666667
2542348969 0.028636999999999996 -0.6829900000000001
2543834848 0.025095666666666665 -0.6837269999999999
2545320727 0.023087333333333335 -0.6802326666666666
2546806606 0.025816000000000002 -0.6811666666666666
2548292485 0.022199333333333335 -0.677257
2549778364 0.02317633333333333 -0.6753383333333334
2551264243 0.021832 -0.6794856666666668
2552750122 0.018947000000000002 -0.6807713333333334
2554236001 0.019761 -0.6815303333333333
2555721880 0.022090333333333333 -0.68039
2557207759 0.018049 -0.6846726666666667
2558693638 0.018302333333333334 -0.6899510000000001
2560179517 0.016002666666666665 -0.6881543333333333
2561665396 0.02083966666666667 -0.6906599999999999
2563151275 0.020324666666666668 -0.689476
2564637154 0.017919666666666667 -0.6866493333333334
2566123033 0.014955666666666666 -0.6899423333333333
2567608912 0.018128000000000002 -0.692084
2569094791 0.026368666666666665 -0.6966733333333334
2570580670 0.014732666666666666 -0.687252
2572066549 0.008106666666666667 -0.691964
2573552428 0.015757666666666666 -0.6853113333333333
2575038307 0.014920666666666665 -0.6896746666666668
2576524186 0.015650333333333336 -0.686063
2578010065 0.01401 -0.6814323333333334
2579495944 0.012902666666666668 -0.6822866666666667
2580981823 0.013913666666666666 -0.6818776666666667
2582467702 0.013465666666666667 -0.681206
2583953581 0.015488333333333333 -0.6806896666666667
2585439460 0.010393333333333333 -0.6836323333333333
2586925339 0.016203 -0.6842016666666667
2588411218 0.012006999999999999 -0.682568
2589897097 0.013763666666666665 -0.6826786666666665
2591382976 0.015919666666666665 -0.6811820000000001
2592868855 0.014815333333333333 -0.6811246666666667
2594354734 0.017409333333333332 -0.681937
2595840613 0.01694733333333333 -0.676448
2597326492 0.009606666666666668 -0.6830763333333333
2598812371 0.016755666666666665 -0.676342
2600298250 0.014911 -0.671881
2601784129 0.016375999999999998 -0.6731043333333333
2603270008 0.016344 -0.6690096666666667
2604755887 0.013341333333333335 -0.6649613333333333
2606241766 0.013060333333333334 -0.6637733333333333
2607727645 0.012468666666666668 -0.658106
2609213524 0.009941666666666666 -0.655235
2610699403 0.015881999999999997 -0.6553866666666667
2612185282 0.010020333333333332 -0.658217
2613671161 0.009044333333333333 -0.6585423333333333
2615157040 0.010808333333333331 -0.661721
2616642919 0.009940666666666667 -0.6636583333333334
2618128798 0.011803333333333332 -0.6658146666666667
2619614677 0.008706 -0.6653220000000001
2621100556 0.013703333333333333 -0.6666313333333335
2622586435 0.00848 -0.6631656666666667
2624072314 0.0019016666666666667 -0.6600063333333334
2625558193 0.011203333333333334 -0.6662446666666666
2627044072 0.010870333333333334 -0.6650326666666667
2628529951 0.006958666666666666 -0.6630096666666667
2630015830 0.013592 -0.664813
2631501709 0.012569000000000002 -0.6620106666666667
2632987588 0.009725333333333334 -0.6600746666666667
2634473467 0.012508666666666668 -0.6596673333333334
2635959346 0.004010333333333334 -0.6563903333333334
2637445225 0.008999666666666666 -0.6574896666666666
2638931104 0.006775000000000001 -0.6542819999999999
2640416983 0.010442666666666668 -0.6544433333333334
2641902862 0.001346 -0.6551620000000001
2643388741 0.0016796666666666668 -0.6597873333333334
2644874620 0.008749999999999999 -0.6622979999999999
2646360499 0.003931333333333333 -0.6663053333333333
2647846378 0.0077930000000000004 -0.668526
2649332257 0.004726666666666666 -0.668535
2650818136 0.004311 -0.6692506666666667
2652304015 0.0014359999999999998 -0.670951
2653789894 0.005155 -0.6729236666666667
2655275773 0.003119 -0.6740646666666668
2656761652 0.005313999999999999 -0.6747683333333333
2658247531 0.005964999999999999 -0.6757636666666667
2659733410 0.006412 -0.6733796666666666
2661219289 0.0001619999999999999 -0.67306
2662705168 0.0022423333333333336 -0.675192
2664191047 0.0037250000000000004 -0.671013
2665676926 0.0026023333333333332 -0.6717733333333333
2667162805 -0.0019136666666666666 -0.670765
2668648684 0.0029070000000000003 -0.670724
2670134563 0.006501333333333334 -0.6704293333333333
2671620442 0.003283 -0.6709063333333334
2673106321 0.006437666666666667 -0.6745303333333333
2674592200 -0.0015520000000000002 -0.676536
2676078079 0.0042899999999999995 -0.6780696666666666
2677563958 0.0008673333333333333 -0.676654
2679049837 0.006821333333333335 -0.6781663333333334
2680535716 0.006308666666666666 -0.6780156666666666
2682021595 0.006247 -0.6789303333333333
2683507474 0.010318333333333332 -0.6790893333333333
2684993353 0.0073739999999999995 -0.6781563333333334
2686479232 0.0014193333333333334 -0.675955
2687965111 0.004553666666666667 -0.6851126666666666
2689450990 0.008547333333333334 -0.673514
2690936869 0.014344 -0.6735543333333333
2692422748 0.010242333333333332 -0.671194
2693908627 0.009563333333333333 -0.6703236666666667
2695394506 -0.004756666666666666 -0.6649726666666668
2696880385 0.009235 -0.6638263333333333
2698366264 -2.7333333333333203e-05 -0.659868
2699852143 0.009287666666666668 -0.6578236666666667
2701338022 0.00243 -0.6609293333333334
2702823901 0.008573333333333334 -0.6619149999999999
2704309780 0.007314000000000001 -0.6639940000000001
2705795659 0.008506 -0.6637486666666667
2707281538 0.014043 -0.6634196666666667
2708767417 0.014027999999999999 -0.6654113333333334
2710253296 0.008993666666666665 -0.6693596666666667
2711739175 0.013555999999999999 -0.6661066666666667
2713225054 0.015374333333333332 -0.6675210000000001
2714710933 0.022291000000000002 -0.6665273333333334
2716196812 0.017941666666666665 -0.665987
2717682691 0.012064666666666668 -0.6660523333333334
2719168570 0.013064 -0.6647150000000001
2720654449 0.017981333333333335 -0.6639626666666667
2722140328 0.010424999999999999 -0.659685
2723626207 0.029688666666666665 -0.6636713333333333
2725112086 0.031158666666666668 -0.6593276666666666
2726597965 0.03292766666666667 -0.6557833333333333
2728083844 0.029154333333333338 -0.653139
2729569723 0.027363666666666665 -0.6466673333333334
2731055602 0.024206000000000002 -0.6500286666666667
2732541481 0.027622666666666667 -0.6539643333333333
2734027360 0.010228000000000001 -0.6607596666666667
2735513239 0.020806333333333333 -0.6604770000000001
2736999118 0.023471000000000002 -0.6621116666666667
2738484997 0.025248333333333334 -0.6624193333333332
2739970876 0.024352 -0.666004
2741456755 0.016512333333333334 -0.6689103333333333
2742942634 0.016407 -0.6720653333333333
2744428513 0.012245 -0.6731116666666667
2745914392 0.0039003333333333333 -0.6748953333333333
2747400271 0.008660333333333334 -0.6747303333333333
2748886150 0.0015646666666666665 -0.6756160000000001
2750372029 -0.003179 -0.6714946666666667
2751857908 -0.009859333333333333 -0.6716176666666667
2753343787 -0.005921333333333334 -0.6714106666666666
2754829666 -0.0057603333333333335 -0.6716036666666666
2756315545 -0.008760666666666667 -0.6734593333333333
2757801424 -0.009865 -0.6734650000000001
2759287303 -0.004247 -0.664968
2760773182 -0.005354666666666666 -0.6662986666666667
2762259061 -0.008542000000000001 -0.673165
2763744940 -0.009011 -0.6775323333333333
2765230819 -0.009188 -0.6756913333333333
2766716698 -0.005475999999999999 -0.6780143333333334
2768202577 -0.010445000000000001 -0.6788736666666667
2769688456 -0.005055333333333333 -0.6770706666666667
2771174335 -0.003575 -0.6788046666666667
2772660214 -0.006250666666666667 -0.6792986666666666
2774146093 -0.011452000000000002 -0.6818316666666666
2775631972 0.0019723333333333333 -0.6799940000000001
2777117851 0.012035666666666667 -0.672532
2778603730 -0.0034739999999999997 -0.6779833333333333
2780089609 -0.0021153333333333336 -0.6739799999999999
2781575488 -0.0028783333333333334 -0.6743199999999999
2783061367 -0.0015626666666666668 -0.6706286666666667
2784547246 -0.0022849999999999997 -0.669885
2786033125 0.0031756666666666665 -0.6658793333333334
2787519004 0.0001836666666666667 -0.6637963333333333
2789004883 -0.0016476666666666669 -0.6603703333333333
2790490762 -0.0016736666666666664 -0.658872
2791976641 0.000647 -0.6595186666666667
2793462520 -0.006082999999999999 -0.6618403333333334
2794948399 -0.003908 -0.662249
2796434278 -0.0045516666666666665 -0.6685469999999999
2797920157 -0.0038109999999999997 -0.665262
2799406036 -0.0041789999999999996 -0.6663286666666667
2800891915 -0.004015 -0.6686683333333333
2802377794 -0.007305333333333333 -0.668028
2803863673 0.00048466666666666667 -0.6680783333333333
2805349552 -0.012823666666666669 -0.6710453333333333
2806835431 2.300000000000045e-05 -0.6662913333333332
2808321310 -0.009300333333333334 -0.669501
2809807189 -0.014593 -0.664887
2811293068 -0.017872666666666665 -0.667733
2812778947 -0.007747 -0.66487
2814264826 -0.011250999999999999 -0.6640743333333333
2815750705 -0.010098666666666666 -0.6623733333333334
2817236584 -0.018367666666666668 -0.6639506666666667
2818722463 -0.01623933333333333 -0.6567949999999999
2820208342 -0.02131266666666667 -0.6554669999999999
2821694221 -0.012352666666666666 -0.6607599999999999
2823180100 -0.015723666666666667 -0.6641053333333332
2824665979 -0.01619033333333333 -0.6693613333333334
2826151858 -0.013529333333333332 -0.6669563333333333
2827637737 -0.006041666666666667 -0.6671116666666667
2829123616 -0.015188666666666665 -0.6665893333333334
2830609495 -0.004755 -0.6667346666666667
2832095374 -0.014970666666666667 -0.6693753333333333
2833581253 -0.008017666666666666 -0.6675863333333334
2835067132 -0.015186666666666668 -0.6642413333333334
2836553011 -0.012097666666666666 -0.6662043333333333
2838038890 -0.014229666666666667 -0.6641413333333334
2839524769 -0.015393666666666667 -0.6581716666666667
2841010648 -0.014792333333333333 -0.6550953333333334
2842496527 -0.012589999999999999 -0.6554276666666667
2843982406 -0.019201333333333334 -0.6526153333333333
2845468285 -0.011541666666666667 -0.648448
2846954164 -0.015950333333333334 -0.646375
2848440043 -0.013822000000000001 -0.6429523333333332
2849925922 -0.013673 -0.6389309999999999
2851411801 -0.014395666666666666 -0.642156
2852897680 -0.014991333333333334 -0.6442276666666666
2854383559 -0.016508333333333333 -0.6433589999999999
2855869438 -0.012327666666666667 -0.6499993333333334
2857355317 -0.010109666666666666 -0.6464046666666666
2858841196 -0.016325 -0.6521543333333333
2860327075 -0.011436333333333333 -0.652717
2861812954 -0.012804666666666666 -0.6535380000000001
2863298833 -0.012047666666666667 -0.6549860000000001
2864784712 -0.010058666666666665 -0.651388
2866270591 -0.009234333333333334 -0.651153
2867756470 -0.011363 -0.6526803333333334
2869242349 -0.008522333333333333 -0.6517733333333333
2870728228 -0.019789333333333336 -0.6528766666666667
2872214107 -0.012491666666666667 -0.6481396666666667
2873699986 -0.011158666666666666 -0.6441879999999999
2875185865 -0.008034666666666667 -0.6447090000000001
2876671744 -0.0087 -0.6443553333333333
2878157623 -0.006913 -0.6423343333333333
2879643502 -0.006871666666666666 -0.6363916666666668
2881129381 -0.005653666666666665 -0.6365806666666667
2882615260 -0.010353333333333332 -0.6413639999999999
2884101139 -0.008164 -0.645136
2885587018 -0.009935333333333332 -0.6450286666666666
2887072897 -0.012469666666666665 -0.6478653333333334
2888558776 -0.018357666666666664 -0.6504666666666666
2890044655 -0.014460666666666669 -0.6479763333333333
2891530534 -0.012920333333333334 -0.6505736666666666
2893016413 -0.015722333333333335 -0.6510243333333334
2894502292 -0.014920999999999999 -0.6504396666666666
2895988171 -0.013116333333333334 -0.6513706666666667
2897474050 -0.011171666666666665 -0.6530360000000001
2898959929 -0.014263999999999999 -0.6516096666666666
2900445808 -0.010767666666666667 -0.6497186666666667
2901931687 -0.015069333333333332 -0.6483253333333333
2903417566 -0.012110666666666667 -0.6489756666666667
2904903445 -0.013841333333333332 -0.6462696666666666
2906389324 -0.009497666666666666 -0.6432786666666667
2907875203 -0.012587000000000001 -0.6434996666666667
2909361082 -0.015218666666666667 -0.6407556666666666
2910846961 -0.013248000000000001 -0.6412676666666667
2912332840 -0.016445333333333333 -0.6426976666666667
2913818719 -0.01803233333333333 -0.6430396666666666
2915304598 -0.017126 -0.6479273333333334
2916790477 -0.018443666666666667 -0.6456166666666666
2918276356 -0.018115000000000003 -0.648017
2919762235 -0.018793666666666667 -0.6480513333333333
2921248114 -0.020324666666666668 -0.6495470000000001
2922733993 -0.020871999999999998 -0.6487636666666666
2924219872 -0.023425333333333336 -0.649004
2925705751 -0.025547666666666666 -0.649949
2927191630 -0.019156000000000003 -0.6475726666666667
2928677509 -0.028473 -0.6469553333333334
2930163388 -0.021962333333333334 -0.647674
2931649267 -0.028707999999999997 -0.6427776666666666
2933135146 -0.021936 -0.646308
2934621025 -0.026862999999999998 -0.6439716666666667
2936106904 -0.023309 -0.6403583333333334
2937592783 -0.036542 -0.6398573333333334
2939078662 -0.02882433333333333 -0.6372573333333333
2940564541 -0.033972 -0.637558
2942050420 -0.027471333333333334 -0.638684
2943536299 -0.03214266666666667 -0.6405403333333334
2945022178 -0.027377000000000002 -0.6423676666666668
2946508057 -0.03493466666666666 -0.6421359999999999
2947993936 -0.029798 -0.6449403333333333
2949479815 -0.033609 -0.64451
2950965694 -0.029826000000000002 -0.6446836666666668
2952451573 -0.034226 -0.6458213333333334
2953937452 -0.02685 -0.6488756666666667
2955423331 -0.03276933333333334 -0.6462196666666666
2956909210 -0.024920333333333333 -0.6459609999999999
2958395089 -0.030980333333333332 -0.642907
2959880968 -0.025365666666666665 -0.6449566666666666
2961366847 -0.02835666666666667 -0.6405283333333334
2962852726 -0.023033666666666664 -0.6414373333333333
2964338605 -0.03158966666666667 -0.6385700000000001
2965824484 -0.02469 -0.6384263333333333
2967310363 -0.028629666666666664 -0.6367630000000001
2968796242 -0.029070333333333333 -0.6338086666666666
2970282121 -0.02853733333333333 -0.634085
2971768000 -0.02910033333333333 -0.6317436666666666
2973253879 -0.027179 -0.6321533333333332
2974739758 -0.025068999999999998 -0.6338603333333332
2976225637 -0.029672333333333332 -0.635134
2977711516 -0.026429333333333332 -0.6383713333333333
2979197395 -0.026674666666666666 -0.6377123333333333
2980683274 -0.02699233333333333 -0.6409566666666667
2982169153 -0.027614 -0.6378240000000001
2983655032 -0.02643166666666667 -0.6365196666666666
2985140911 -0.026974666666666664 -0.6382233333333334
2986626790 -0.02678 -0.6380363333333333
2988112669 -0.025058999999999998 -0.634902
2989598548 -0.024685333333333333 -0.6314746666666666
2991084427 -0.025256666666666667 -0.6357533333333333
2992570306 -0.024671666666666665 -0.6328466666666667
2994056185 -0.02168166666666667 -0.6278696666666667
2995542064 -0.023356000000000002 -0.6235376666666667
2997027943 -0.02301866666666667 -0.6267016666666666
2998513822 -0.023936 -0.6197616666666667
2999999701 -0.020253666666666666 -0.617943
