# HZ S RI R 50
10000 0.9790623333333333 -0.14950466666666665
1495879 0.7117803333333333 1.3175353333333335
2981758 0.5776786666666667 0.6883003333333333
4467637 0.5807346666666667 0.32657433333333336
5953516 0.6506810000000001 0.13763133333333333
7439395 0.7433426666666666 0.012349333333333332
8925274 1.0576436666666666 -0.06178266666666667
10411153 1.0976493333333333 0.03614666666666667
11897032 1.0854396666666666 0.16860666666666665
13382911 1.017946 0.2918776666666667
14868790 0.9153293333333333 0.38014400000000004
16354669 0.8028876666666666 0.4274193333333334
17840548 0.6982913333333333 0.4411413333333334
19326427 0.6092183333333333 0.434842
20812306 0.5358139999999999 0.4161633333333333
22298185 0.47670933333333326 0.3925636666666667
23784064 0.42799133333333333 0.3691713333333333
25269943 0.39029200000000003 0.34019466666666665
26755822 0.35854800000000003 0.315229
28241701 0.332806 0.2916733333333334
29727580 0.31248866666666664 0.26803
31213459 0.3215726666666667 0.25479366666666664
32699338 0.33777100000000004 0.24019366666666667
34185217 0.35355966666666666 0.22682633333333335
35671096 0.3687666666666667 0.210708
37156975 0.38388133333333335 0.19203066666666666
38642854 0.39780066666666664 0.17540366666666665
40128733 0.41231066666666666 0.15231466666666668
41614612 0.424636 0.14077433333333333
43100491 0.43836433333333336 0.11845933333333335
44586370 0.4515346666666667 0.10043400000000001
46072249 0.4651716666666667 0.07713766666666666
47558128 0.47981633333333334 0.060152000000000004
49044007 0.49627333333333334 0.042961
50529886 0.5151706666666667 0.028787666666666666
52015765 0.5379383333333333 0.004035
53501644 0.56605 -0.019458666666666666
54987523 0.6035796666666666 -0.044138000000000004
56473402 0.656614 -0.08216533333333333
57959281 0.7447176666666667 -0.09779666666666668
59445160 0.9027656666666667 -0.07690866666666667
60931039 0.9973733333333333 -0.040161999999999996
62416918 1.001845 -0.055849666666666666
63902797 1.0044503333333334 -0.06543399999999999
65388676 1.007089 -0.07415899999999999
66874555 1.0098880000000001 -0.070869
68360434 1.0044383333333333 -0.15592033333333336
69846313 1.0143473333333333 -0.048646333333333326
71332192 1.0161833333333332 -0.04277566666666666
72818071 1.0145316666666666 -0.08766566666666666
74303950 1.0159173333333333 -0.07839333333333333
75789829 1.01746 -0.009833
77275708 1.017956 -0.0012419999999999977
78761587 1.016521 -0.013956666666666668
80247466 1.0086326666666665 -0.130273
81733345 1.0122103333333332 -0.08282066666666667
83219224 1.0077173333333334 -0.09984666666666665
84705103 1.0033246666666666 -0.119332
86190982 1.0051269999999999 0.011416666666666667
87676861 0.997148 -0.11115266666666668
89162740 0.9963366666666666 -0.08590433333333335
90648619 0.993182 -0.10476333333333333
92134498 0.9974283333333333 -0.10238033333333334
93620377 1.0043083333333334 -0.06562766666666667
95106256 1.0037343333333333 -0.098232
96592135 1.0058243333333332 -0.09729633333333333
98078014 1.0083703333333334 -0.086995
99563893 1.01001 -0.08980766666666666
101049772 1.0107389999999998 -0.103593
102535651 1.0109866666666667 -0.09829633333333333
104021530 1.01166 -0.10560966666666667
105507409 1.0109753333333333 -0.10619699999999999
106993288 1.0113093333333334 -0.107144
108479167 1.0097183333333335 -0.10756333333333334
109965046 1.0090173333333332 -0.10888966666666666
111450925 1.0069373333333334 -0.10876833333333334
112936804 1.0044676666666668 -0.10991566666666668
114422683 1.0022273333333331 -0.11070200000000001
115908562 0.999391 -0.111637
117394441 0.9965943333333334 -0.11205633333333333
118880320 0.9914713333333333 -0.11275933333333334
120366199 0.9905353333333333 -0.11447666666666667
121852078 0.9934296666666667 -0.11652766666666665
123337957 0.9972213333333334 -0.11842133333333334
124823836 1.000877 -0.120135
126309715 1.0046386666666667 -0.12239033333333332
127795594 1.0077793333333334 -0.12338566666666667
129281473 1.0103703333333334 -0.12476333333333334
130767352 1.0120983333333333 -0.12633033333333332
132253231 1.0137113333333334 -0.126401
133739110 1.0156226666666666 -0.127906
135224989 0.9996786666666667 -0.145778
136710868 1.0004116666666667 -0.14014066666666666
138196747 1.000027 -0.14099433333333333
139682626 1.0001453333333334 -0.141284
141168505 0.99797 -0.14836666666666667
142654384 0.9998659999999999 -0.12992666666666666
144140263 0.9951086666666668 -0.14289300000000002
145626142 0.9926879999999999 -0.14256733333333335
147112021 0.9898496666666666 -0.14286766666666664
148597900 0.9869203333333333 -0.143778
150083779 0.9846756666666666 -0.1436066666666667
151569658 0.9875979999999999 -0.145344
153055537 0.9904533333333334 -0.147105
154541416 0.9931236666666668 -0.14908333333333335
156027295 0.9952173333333333 -0.15088333333333334
157513174 0.9980549999999999 -0.15264766666666665
158999053 0.9988003333333332 -0.154195
160484932 1.0006843333333333 -0.154734
161970811 1.0018633333333333 -0.15563833333333332
163456690 1.001714 -0.15742199999999998
164942569 1.001494 -0.15845666666666666
166428448 1.0011736666666666 -0.15925899999999998
167914327 1.0003643333333334 -0.16027033333333335
169400206 0.9998103333333335 -0.1615656666666667
170886085 0.9973283333333334 -0.1634266666666667
172371964 0.9962420000000001 -0.16338
173857843 0.993299 -0.16416699999999998
175343722 0.990619 -0.16556099999999999
176829601 0.9870513333333334 -0.16677666666666666
178315480 0.9824783333333333 -0.16760633333333333
179801359 0.9796866666666667 -0.1687523333333333
181287238 0.9817706666666667 -0.170737
182773117 0.9856919999999999 -0.173337
184258996 0.9882756666666667 -0.175079
185744875 0.9908226666666667 -0.17577500000000001
187230754 0.9926966666666667 -0.17790033333333333
188716633 0.9951470000000001 -0.17901933333333334
190202512 0.995556 -0.180798
191688391 0.9971193333333334 -0.18119533333333335
193174270 0.9971333333333332 -0.18263300000000002
194660149 0.9972153333333335 -0.18429066666666669
196146028 0.9965706666666666 -0.18497333333333332
197631907 0.9960463333333335 -0.18655666666666668
199117786 0.9945876666666668 -0.18681466666666668
200603665 0.9930063333333333 -0.18832400000000002
202089544 0.9909686666666667 -0.189643
203575423 0.9882783333333333 -0.19173566666666667
205061302 0.9854256666666666 -0.1925663333333333
206547181 0.9815056666666667 -0.19338266666666667
208033060 0.9789096666666666 -0.19443066666666664
209518939 0.9743719999999999 -0.19669566666666669
211004818 0.9754073333333334 -0.199437
212490697 0.9792233333333332 -0.20067166666666666
213976576 0.9826463333333333 -0.20282199999999997
215462455 0.9851566666666667 -0.20399966666666666
216948334 0.9876480000000001 -0.20561166666666666
218434213 0.9892500000000001 -0.20733166666666666
219920092 0.990583 -0.20752066666666666
221405971 0.9914756666666666 -0.20932533333333334
222891850 0.9922973333333335 -0.21081333333333332
224377729 0.9925133333333335 -0.2129283333333333
225863608 0.9917616666666667 -0.212916
227349487 0.991068 -0.213761
228835366 0.9890773333333334 -0.21451499999999998
230321245 0.9877846666666666 -0.21569266666666667
231807124 0.985144 -0.21717166666666668
233293003 0.9822576666666668 -0.21887233333333334
234778882 0.979886 -0.21914699999999998
236264761 0.9754793333333334 -0.221407
237750640 0.9718406666666666 -0.222714
239236519 0.9671943333333334 -0.22345566666666664
240722398 0.9663213333333333 -0.22620600000000002
242208277 0.9699383333333333 -0.22819633333333333
243694156 0.9740379999999998 -0.230436
245180035 0.9773343333333333 -0.2315946666666667
246665914 0.9793546666666666 -0.23437266666666667
248151793 0.981399 -0.23507199999999998
249637672 0.9835886666666666 -0.23648266666666665
251123551 0.9841686666666666 -0.238293
252609430 0.98524 -0.23965099999999998
254095309 0.985165 -0.24009966666666668
255581188 0.9852666666666666 -0.240982
257067067 0.9835649999999999 -0.2423126666666667
258552946 0.9824713333333334 -0.24329766666666663
260038825 0.981253 -0.24425033333333335
261524704 0.978331 -0.24541966666666667
263010583 0.9753513333333332 -0.24547566666666665
264496462 0.9718116666666666 -0.2472103333333333
265982341 0.9680446666666667 -0.24855933333333335
267468220 0.9636873333333332 -0.24962166666666666
268954099 0.9590223333333333 -0.25013966666666665
270439978 0.956556 -0.2519613333333333
271925857 0.9602013333333334 -0.255274
273411736 0.964242 -0.25749466666666665
274897615 0.9677006666666667 -0.25896566666666665
276383494 0.9706866666666668 -0.2616316666666667
277869373 0.972446 -0.2638773333333333
279355252 0.9740926666666666 -0.2652643333333333
280841131 0.9759833333333333 -0.2665936666666666
282327010 0.9767203333333333 -0.2675976666666667
283812889 0.9772956666666667 -0.26885999999999993
285298768 0.9765026666666667 -0.2695263333333333
286784647 0.9760763333333333 -0.2713116666666666
288270526 0.9751823333333333 -0.271694
289756405 0.9721436666666667 -0.2727663333333333
291242284 0.9703016666666667 -0.273049
292728163 0.9671616666666667 -0.2744506666666667
294214042 0.9643123333333333 -0.2747313333333333
295699921 0.9597950000000001 -0.27560199999999996
297185800 0.9552533333333333 -0.276316
298671679 0.9511063333333333 -0.2767956666666667
300157558 0.9467186666666666 -0.27671466666666666
301643437 0.950989 -0.279572
303129316 0.9547753333333334 -0.28225666666666666
304615195 0.9574406666666667 -0.28518366666666667
306101074 0.960718 -0.28730300000000003
307586953 0.9634163333333334 -0.2898003333333333
309072832 0.9648026666666666 -0.2906123333333333
310558711 0.9668473333333334 -0.29242799999999997
312044590 0.9676506666666667 -0.294119
313530469 0.967941 -0.29514166666666664
315016348 0.9681886666666667 -0.296371
316502227 0.9675993333333334 -0.29624133333333336
317988106 0.9656506666666668 -0.29817933333333335
319473985 0.9639096666666668 -0.29803700000000005
320959864 0.9617433333333333 -0.2987126666666667
322445743 0.960089 -0.298556
323931622 0.955956 -0.299626
325417501 0.95297 -0.29887400000000003
326903380 0.9472543333333334 -0.2993946666666667
328389259 0.9432193333333333 -0.3002926666666667
329875138 0.9379803333333334 -0.29957866666666666
331361017 0.9409316666666667 -0.3034073333333333
332846896 0.9434503333333333 -0.30667700000000003
334332775 0.9468103333333332 -0.30997
335818654 0.9485183333333334 -0.3128303333333333
337304533 0.951059 -0.31463033333333335
338790412 0.9528876666666667 -0.31659733333333334
340276291 0.9531623333333332 -0.31869433333333336
341762170 0.9551503333333334 -0.3197953333333333
343248049 0.9549833333333333 -0.3215266666666667
344733928 0.9540820000000001 -0.32247533333333334
346219807 0.9538823333333334 -0.323493
347705686 0.9521196666666668 -0.3248853333333333
349191565 0.9508906666666667 -0.325626
350677444 0.9473486666666666 -0.325906
352163323 0.9450500000000001 -0.32530666666666663
353649202 0.9410949999999999 -0.3250096666666667
355135081 0.938145 -0.32632066666666665
356620960 0.9343499999999999 -0.3271886666666666
358106839 0.9281596666666667 -0.32725733333333334
359592718 0.9227253333333335 -0.3264763333333333
361078597 0.9245956666666667 -0.3280863333333333
362564476 0.9273326666666666 -0.33249333333333336
364050355 0.9297599999999999 -0.3349596666666667
365536234 0.9333956666666667 -0.3388733333333333
367022113 0.9326703333333333 -0.3463226666666667
368507992 0.936775 -0.343353
369993871 0.9394543333333333 -0.3396403333333333
371479750 0.9388506666666667 -0.3466833333333333
372965629 0.9400499999999999 -0.34848233333333334
374451508 0.9394049999999999 -0.34816533333333327
375937387 0.9391363333333334 -0.34991866666666666
377423266 0.938014 -0.35100099999999995
378909145 0.9367933333333333 -0.35022400000000004
380395024 0.9342066666666667 -0.35144633333333336
381880903 0.9318386666666667 -0.35215466666666667
383366782 0.9301576666666667 -0.350466
384852661 0.9259733333333333 -0.350919
386338540 0.9217516666666666 -0.35191333333333336
387824419 0.9179796666666666 -0.351284
389310298 0.9131093333333333 -0.35074099999999997
390796177 0.912926 -0.3524153333333333
392282056 0.9155036666666666 -0.35579099999999997
393767935 0.9173329999999998 -0.3588799999999999
395253814 0.919578 -0.3624686666666667
396739693 0.9224023333333333 -0.364075
398225572 0.923658 -0.3654896666666667
399711451 0.9256283333333334 -0.367391
401197330 0.9257013333333334 -0.36909433333333336
402683209 0.9256643333333333 -0.37201633333333334
404169088 0.9262396666666667 -0.371257
405654967 0.9256736666666666 -0.3727256666666667
407140846 0.9251743333333334 -0.3733053333333333
408626725 0.9234406666666667 -0.37380199999999997
410112604 0.9218596666666666 -0.373925
411598483 0.9202326666666667 -0.374047
413084362 0.9178263333333333 -0.3742973333333333
414570241 0.9131133333333334 -0.373785
416056120 0.9131556666666666 -0.368312
417541999 0.9057056666666666 -0.37311866666666665
419027878 0.9042053333333332 -0.3675346666666666
420513757 0.8992436666666667 -0.373653
421999636 0.9045683333333333 -0.3730496666666667
423485515 0.9039563333333334 -0.38112799999999997
424971394 0.909421 -0.37827600000000006
426457273 0.9067453333333333 -0.3861193333333333
427943152 0.9113720000000001 -0.3828396666666667
429429031 0.9100863333333334 -0.39027166666666663
430914910 0.914047 -0.38646766666666665
432400789 0.91122 -0.39333599999999996
433886668 0.9148833333333334 -0.3891096666666667
435372547 0.9113676666666667 -0.3954156666666666
436858426 0.9124723333333332 -0.3906253333333333
438344305 0.909062 -0.39644666666666667
439830184 0.9106846666666666 -0.391815
441316063 0.9049516666666667 -0.3981153333333334
442801942 0.9058446666666667 -0.3925166666666667
444287821 0.8985353333333332 -0.3986366666666667
445773700 0.8990966666666665 -0.391416
447259579 0.8921343333333333 -0.3970536666666667
448745458 0.8907036666666667 -0.39139833333333335
450231337 0.884798 -0.39512333333333327
451717216 0.8882813333333334 -0.39829200000000003
453203095 0.8911760000000001 -0.40194
454688974 0.8928833333333334 -0.4038463333333333
456174853 0.894435 -0.4060916666666667
457660732 0.8961633333333333 -0.40949066666666667
459146611 0.8960973333333334 -0.4104033333333333
460632490 0.8975433333333332 -0.41161833333333336
462118369 0.8987090000000001 -0.413622
463604248 0.898084 -0.41468
465090127 0.897694 -0.41542733333333337
466576006 0.8959673333333334 -0.41547266666666666
468061885 0.8951636666666666 -0.4158636666666667
469547764 0.8682110000000001 -0.428469
471033643 0.8918229999999999 -0.4161983333333333
472519522 0.888826 -0.4160353333333333
474005401 0.8861439999999999 -0.415678
475491280 0.8826513333333333 -0.4158393333333334
476977159 0.879036 -0.4155933333333333
478463038 0.87417 -0.41589633333333326
479948917 0.871012 -0.414521
481434796 0.8728863333333333 -0.41769999999999996
482920675 0.8753246666666666 -0.41993966666666666
484406554 0.877581 -0.42381
485892433 0.879468 -0.4258823333333333
487378312 0.882028 -0.42752266666666666
488864191 0.8820823333333333 -0.429248
490350070 0.8835283333333335 -0.43029433333333333
491835949 0.8842853333333333 -0.4320306666666667
493321828 0.8837296666666666 -0.43391
494807707 0.8837593333333333 -0.4335963333333333
496293586 0.8821303333333335 -0.4363336666666666
497779465 0.8841333333333333 -0.4296506666666667
499265344 0.880043 -0.43623300000000004
500751223 0.8787216666666667 -0.435829
502237102 0.8800126666666667 -0.4313573333333333
503722981 0.873748 -0.4345863333333333
505208860 0.8705780000000001 -0.43578900000000004
506694739 0.8667039999999999 -0.4348893333333333
508180618 0.861487 -0.43485066666666666
509666497 0.8568619999999999 -0.43455400000000005
511152376 0.858826 -0.4366026666666667
512638255 0.8608966666666666 -0.4389906666666667
514124134 0.8643696666666667 -0.4427273333333333
515610013 0.8660803333333332 -0.44477966666666663
517095892 0.867015 -0.44659899999999997
518581771 0.868179 -0.44855500000000004
520067650 0.8685233333333332 -0.451096
521553529 0.869758 -0.451555
523039408 0.873757 -0.4485323333333333
524525287 0.8704363333333335 -0.45283300000000004
526011166 0.8698633333333333 -0.45509099999999997
527497045 0.8682926666666667 -0.45546900000000007
528982924 0.8654413333333334 -0.455583
530468803 0.8649826666666667 -0.455335
531954682 0.8616373333333334 -0.45509200000000005
533440561 0.8596036666666667 -0.45507633333333336
534926440 0.855807 -0.4551703333333333
536412319 0.8522753333333334 -0.4548703333333333
537898198 0.8471076666666667 -0.45372433333333334
539384077 0.8420200000000001 -0.4536273333333334
540869956 0.842591 -0.453834
542355835 0.8446973333333333 -0.4566873333333333
543841714 0.8474833333333334 -0.45994
545327593 0.8488890000000001 -0.46082333333333336
546813472 0.8519813333333334 -0.4627033333333333
548299351 0.8525816666666666 -0.46357033333333336
549785230 0.8541086666666667 -0.4625186666666667
551271109 0.8537503333333333 -0.46341666666666664
552756988 0.8525413333333334 -0.46524600000000005
554242867 0.8532616666666666 -0.46487000000000006
555728746 0.8522853333333332 -0.46380166666666667
557214625 0.8498423333333333 -0.46288599999999996
558700504 0.849668 -0.462235
560186383 0.8459743333333333 -0.4621043333333333
561672262 0.841475 -0.4619676666666666
563158141 0.8409233333333334 -0.4593906666666667
564644020 0.83625 -0.4567853333333334
566129899 0.8322003333333333 -0.457211
567615778 0.8268616666666667 -0.45574699999999996
569101657 0.8215903333333333 -0.454204
570587536 0.8187456666666666 -0.45617
572073415 0.8219249999999999 -0.45969599999999994
573559294 0.8236306666666667 -0.4642733333333333
575045173 0.825603 -0.467187
576531052 0.8264543333333334 -0.47212566666666667
578016931 0.8286206666666667 -0.4732056666666667
579502810 0.829368 -0.47804566666666665
580988689 0.8298946666666667 -0.4795586666666667
582474568 0.8291096666666666 -0.4825486666666667
583960447 0.8306776666666668 -0.4825623333333333
585446326 0.8294116666666667 -0.485728
586932205 0.8289003333333334 -0.48563
588418084 0.8289173333333334 -0.483713
589903963 0.8253606666666666 -0.48993333333333333
591389842 0.8246173333333333 -0.4856506666666667
592875721 0.8203196666666668 -0.4923083333333333
594361600 0.8171286666666666 -0.492046
595847479 0.8132950000000001 -0.49185166666666663
597333358 0.8097596666666668 -0.49169466666666667
598819237 0.8058156666666667 -0.49224666666666667
600305116 0.8031726666666666 -0.4922313333333333
601790995 0.8069583333333333 -0.49451599999999996
603276874 0.8082003333333333 -0.4995503333333333
604762753 0.8111036666666668 -0.5020246666666667
606248632 0.81336 -0.5053173333333333
607734511 0.8146489999999998 -0.506585
609220390 0.8157326666666668 -0.5091806666666667
610706269 0.817043 -0.5107
612192148 0.8172543333333334 -0.5122596666666667
613678027 0.81764 -0.5133823333333334
615163906 0.8173149999999999 -0.5134526666666667
616649785 0.8163353333333333 -0.5151316666666667
618135664 0.8160703333333333 -0.5143996666666666
619621543 0.8152086666666666 -0.5148226666666667
621107422 0.8133456666666667 -0.5140023333333333
622593301 0.8095686666666667 -0.5143490000000001
624079180 0.8069729999999998 -0.5122993333333333
625565059 0.8040653333333333 -0.5110936666666667
627050938 0.8004386666666666 -0.5104376666666667
628536817 0.7963606666666667 -0.5098696666666667
630022696 0.7910356666666667 -0.5074823333333334
631508575 0.7926696666666667 -0.5114200000000001
632994454 0.7958823333333332 -0.515736
634480333 0.7988903333333334 -0.5185266666666667
635966212 0.7998076666666666 -0.5218026666666667
637452091 0.8012306666666666 -0.5243183333333333
638937970 0.8026300000000001 -0.5244273333333332
640423849 0.8039086666666666 -0.5267683333333334
641909728 0.8029566666666668 -0.529239
643395607 0.8040786666666667 -0.529079
644881486 0.8044303333333334 -0.5307759999999999
646367365 0.8020846666666666 -0.5308493333333334
647853244 0.8029509999999999 -0.5297556666666666
649339123 0.8012193333333334 -0.5308213333333334
650825002 0.798371 -0.5304026666666667
652310881 0.796285 -0.5297136666666667
653796760 0.7936653333333332 -0.5285413333333334
655282639 0.7905669999999999 -0.5274043333333333
656768518 0.787478 -0.5275193333333333
658254397 0.7823523333333333 -0.5245516666666666
659740276 0.7786063333333333 -0.5225663333333332
661226155 0.7789743333333333 -0.5256053333333334
662712034 0.7827406666666666 -0.527574
664197913 0.7838789999999999 -0.5309783333333332
665683792 0.7858816666666666 -0.5332903333333333
667169671 0.7869176666666666 -0.5368086666666666
668655550 0.789962 -0.5367666666666666
670141429 0.7558303333333334 -0.5424856666666668
671627308 0.7908903333333334 -0.541178
673113187 0.7912546666666667 -0.540734
674599066 0.7906173333333334 -0.5410596666666666
676084945 0.7903910000000001 -0.5398296666666665
677570824 0.7911453333333333 -0.540792
679056703 0.7881466666666667 -0.5398256666666666
680542582 0.7861826666666666 -0.5395683333333334
682028461 0.7851586666666668 -0.5378526666666666
683514340 0.7822840000000001 -0.5393513333333333
685000219 0.777304 -0.5348776666666667
686486098 0.777681 -0.5342290000000001
687971977 0.7711250000000001 -0.5326553333333334
689457856 0.7675536666666666 -0.5297473333333333
690943735 0.7674650000000001 -0.5312446666666667
692429614 0.7683566666666667 -0.53584
693915493 0.7693656666666667 -0.538011
695401372 0.7699333333333334 -0.5407556666666667
696887251 0.7708130000000001 -0.5464936666666667
698373130 0.769521 -0.5467316666666666
699859009 0.7708303333333334 -0.5483093333333334
701344888 0.7702786666666667 -0.550882
702830767 0.7697376666666668 -0.5513386666666666
704316646 0.770416 -0.552936
705802525 0.7697973333333333 -0.5530393333333334
707288404 0.7673580000000001 -0.5547113333333333
708774283 0.7646156666666667 -0.5529953333333334
710260162 0.7631733333333334 -0.55486
711746041 0.7616446666666666 -0.5560356666666667
713231920 0.759381 -0.5546973333333334
714717799 0.7552343333333335 -0.5538983333333333
716203678 0.7528826666666667 -0.5540393333333332
717689557 0.74866 -0.5539290000000001
719175436 0.7449873333333333 -0.5526399999999999
720661315 0.743507 -0.5537850000000001
722147194 0.7458303333333335 -0.555821
723633073 0.7454553333333332 -0.5602153333333333
725118952 0.7479263333333334 -0.5628473333333334
726604831 0.7489313333333333 -0.565448
728090710 0.7497346666666665 -0.5660503333333332
729576589 0.7505566666666666 -0.5683263333333333
731062468 0.750201 -0.5703693333333334
732548347 0.7510053333333334 -0.5714723333333334
734034226 0.7499593333333334 -0.5719493333333333
735520105 0.7493633333333333 -0.5733563333333334
737005984 0.7503146666666667 -0.572877
738491863 0.747754 -0.5744193333333333
739977742 0.7467693333333333 -0.574431
741463621 0.7461890000000001 -0.573432
742949500 0.7425743333333333 -0.5711476666666666
744435379 0.739883 -0.5730566666666667
745921258 0.7385386666666666 -0.5689466666666667
747407137 0.73368 -0.5696976666666667
748893016 0.7289776666666666 -0.5677733333333334
750378895 0.729546 -0.5666586666666666
751864774 0.7308119999999999 -0.5688563333333333
753350653 0.7327509999999999 -0.5718423333333332
754836532 0.7334406666666666 -0.575656
756322411 0.7358183333333334 -0.5763476666666666
757808290 0.7352356666666666 -0.5784429999999999
759294169 0.7349969999999999 -0.5818973333333334
760780048 0.7360633333333334 -0.5822886666666666
762265927 0.7346186666666666 -0.582699
763751806 0.7369593333333334 -0.584045
765237685 0.7348756666666666 -0.5826766666666666
766723564 0.7328223333333334 -0.5849003333333332
768209443 0.7321306666666666 -0.584622
769695322 0.729806 -0.5857186666666667
771181201 0.7262966666666667 -0.5849303333333333
772667080 0.7263736666666666 -0.5823146666666666
774152959 0.7217803333333334 -0.5836469999999999
775638838 0.7203283333333332 -0.582402
777124717 0.7165496666666668 -0.5806216666666666
778610596 0.747719 -0.5772246666666666
780096475 0.7080883333333334 -0.5777836666666666
781582354 0.7102566666666666 -0.5815596666666667
783068233 0.7123253333333334 -0.5844650000000001
784554112 0.7136836666666667 -0.5880163333333334
786039991 0.716007 -0.589864
787525870 0.71684 -0.5924816666666667
789011749 0.7160813333333333 -0.5946943333333333
790497628 0.7200336666666667 -0.5934823333333333
791983507 0.7202173333333333 -0.5953546666666667
793469386 0.718749 -0.5975156666666667
794955265 0.7195586666666666 -0.5966866666666667
796441144 0.71846 -0.5966319999999999
797927023 0.7181953333333334 -0.5967939999999999
799412902 0.7160886666666667 -0.5967666666666667
800898781 0.7152456666666667 -0.5952449999999999
802384660 0.7224973333333334 -0.5888226666666666
803870539 0.7093996666666667 -0.5940553333333334
805356418 0.7073053333333333 -0.5918023333333333
806842297 0.7040876666666667 -0.590112
808328176 0.6994706666666667 -0.5890316666666666
809814055 0.6966716666666666 -0.5862789999999999
811299934 0.6966043333333333 -0.59058
812785813 0.6984973333333334 -0.592855
814271692 0.7013156666666666 -0.5960706666666666
815757571 0.7001186666666666 -0.6001126666666666
817243450 0.7020710000000001 -0.602363
818729329 0.7017633333333334 -0.6050993333333333
820215208 0.7030569999999999 -0.6063403333333334
821701087 0.7035826666666667 -0.608048
823186966 0.7020996666666667 -0.6101443333333333
824672845 0.7024226666666668 -0.6089556666666667
826158724 0.7011136666666666 -0.61024
827644603 0.6993336666666666 -0.6122693333333333
829130482 0.698476 -0.611291
830616361 0.6966466666666666 -0.6104633333333334
832102240 0.69387 -0.6112086666666666
833588119 0.691588 -0.6094636666666666
835073998 0.6864386666666666 -0.6089410000000001
836559877 0.6844416666666667 -0.607319
838045756 0.6814429999999999 -0.6055503333333333
839531635 0.6764886666666667 -0.6046
841017514 0.677673 -0.6061296666666666
842503393 0.6769266666666667 -0.6117159999999999
843989272 0.6781906666666666 -0.615658
845475151 0.6785323333333334 -0.6185183333333333
846961030 0.6822363333333333 -0.6186366666666667
848446909 0.6840783333333333 -0.6207236666666667
849932788 0.6836030000000001 -0.6234956666666667
851418667 0.6835346666666666 -0.624579
852904546 0.6847146666666667 -0.6251760000000001
854390425 0.6828843333333333 -0.6255700000000001
855876304 0.684164 -0.6264416666666667
857362183 0.6826473333333333 -0.6261523333333333
858848062 0.6806976666666666 -0.624915
860333941 0.6787280000000001 -0.6263566666666667
861819820 0.6770800000000001 -0.6237436666666666
863305699 0.6751803333333334 -0.6226483333333334
864791578 0.6717126666666667 -0.6217816666666667
866277457 0.6691866666666666 -0.6195753333333335
867763336 0.6630286666666666 -0.6192376666666667
869249215 0.6610346666666667 -0.6159826666666667
870735094 0.660295 -0.616451
872220973 0.6612356666666667 -0.620343
873706852 0.6622153333333333 -0.6235163333333333
875192731 0.6637740000000001 -0.6262466666666667
876678610 0.6635613333333333 -0.6293113333333333
878164489 0.6653479999999999 -0.6318796666666666
879650368 0.6658850000000001 -0.634566
881136247 0.6646690000000001 -0.6352436666666667
882622126 0.6665026666666666 -0.6365926666666667
884108005 0.6664819999999999 -0.6362583333333333
885593884 0.6653806666666667 -0.636368
887079763 0.6650433333333333 -0.6360389999999999
888565642 0.663869 -0.6363659999999999
890051521 0.662118 -0.6359703333333333
891537400 0.6597536666666667 -0.6347493333333333
893023279 0.6577676666666666 -0.6325609999999999
894509158 0.656124 -0.630381
895995037 0.6527693333333334 -0.6290813333333333
897480916 0.6505803333333334 -0.6276716666666666
898966795 0.645035 -0.6257073333333333
900452674 0.6439156666666667 -0.6243976666666667
901938553 0.6442093333333333 -0.6266633333333335
903424432 0.6470589999999999 -0.6308403333333333
904910311 0.6478203333333333 -0.6337446666666667
906396190 0.6485603333333333 -0.6364293333333333
907882069 0.6477736666666667 -0.6372826666666667
909367948 0.6502416666666667 -0.6393559999999999
910853827 0.6500253333333333 -0.6417876666666666
912339706 0.6502403333333332 -0.6423329999999999
913825585 0.6487636666666666 -0.6447980000000001
915311464 0.6490103333333334 -0.6427813333333333
916797343 0.6473636666666667 -0.6445583333333333
918283222 0.6449146666666666 -0.6450443333333332
919769101 0.644904 -0.6440833333333333
921254980 0.6632213333333333 -0.6351913333333333
922740859 0.6380966666666666 -0.6411573333333332
924226738 0.639767 -0.6377923333333334
925712617 0.6376226666666667 -0.6379416666666667
927198496 0.633021 -0.635698
928684375 0.6306213333333334 -0.6331913333333333
930170254 0.6270326666666666 -0.6325936666666667
931656133 0.6376106666666667 -0.6284396666666666
933142012 0.6281173333333333 -0.6386999999999999
934627891 0.6300689999999999 -0.6420853333333333
936113770 0.6313093333333334 -0.644622
937599649 0.6310626666666667 -0.6467323333333334
939085528 0.6323943333333333 -0.648494
940571407 0.6335116666666667 -0.6492986666666667
942057286 0.633873 -0.6513303333333333
943543165 0.632354 -0.652494
945029044 0.6329103333333334 -0.652871
946514923 0.6328123333333334 -0.6529010000000001
948000802 0.6320733333333334 -0.6526879999999999
949486681 0.6317686666666666 -0.652085
950972560 0.6315836666666667 -0.6499486666666666
952458439 0.6289536666666667 -0.6491140000000001
953944318 0.6264596666666667 -0.6473713333333333
955430197 0.6262103333333333 -0.6458216666666666
956916076 0.6240423333333333 -0.6433743333333334
958401955 0.6209543333333333 -0.6418046666666667
959887834 0.6181143333333333 -0.637084
961373713 0.619837 -0.641941
962859592 0.6192023333333333 -0.645073
964345471 0.619355 -0.6476563333333334
965831350 0.6205846666666667 -0.6508039999999999
967317229 0.6222043333333332 -0.6510060000000001
968803108 0.621247 -0.6538983333333334
970288987 0.6193293333333333 -0.6564926666666667
971774866 0.6198996666666666 -0.6564333333333333
973260745 0.6219946666666666 -0.6571753333333333
974746624 0.6188723333333334 -0.6583903333333333
976232503 0.6191123333333334 -0.657542
977718382 0.6170576666666667 -0.6597946666666666
979204261 0.6177816666666667 -0.6595496666666667
980690140 0.614705 -0.6585293333333334
982176019 0.614684 -0.6562866666666666
983661898 0.6127316666666666 -0.6560053333333333
985147777 0.6093706666666666 -0.6554473333333333
986633656 0.6061616666666666 -0.6536069999999999
988119535 0.6057336666666667 -0.6513469999999999
989605414 0.6017486666666666 -0.6502223333333333
991091293 0.601345 -0.651481
992577172 0.6003323333333334 -0.6550593333333333
994063051 0.6020656666666667 -0.6567626666666666
995548930 0.6032706666666666 -0.6582073333333334
997034809 0.6022806666666667 -0.661412
998520688 0.6034686666666667 -0.6624183333333333
1000006567 0.6037469999999999 -0.6636313333333334
1001492446 0.6023296666666667 -0.6639443333333334
1002978325 0.6041256666666667 -0.6647383333333333
1004464204 0.601441 -0.6669833333333334
1005950083 0.6028033333333334 -0.6649643333333333
1007435962 0.6022103333333333 -0.664651
1008921841 0.5985860000000001 -0.66609
1010407720 0.5985933333333334 -0.6639013333333333
1011893599 0.597239 -0.662884
1013379478 0.5950273333333334 -0.6618666666666667
1014865357 0.5922139999999999 -0.661147
1016351236 0.5894613333333333 -0.659376
1017837115 0.5885316666666668 -0.6570056666666667
1019322994 0.5846713333333334 -0.6555363333333334
1020808873 0.5841796666666667 -0.6550863333333333
1022294752 0.5840046666666666 -0.659177
1023780631 0.5867133333333333 -0.6608473333333333
1025266510 0.586551 -0.6637136666666666
1026752389 0.5867746666666666 -0.6659896666666666
1028238268 0.5862103333333334 -0.6672926666666666
1029724147 0.587282 -0.669293
1031210026 0.5860516666666667 -0.669858
1032695905 0.586705 -0.6711176666666666
1034181784 0.5872489999999999 -0.6704
1035667663 0.5851923333333333 -0.6706219999999999
1037153542 0.583621 -0.6717789999999999
1038639421 0.5838513333333334 -0.6698243333333332
1040125300 0.5826033333333334 -0.6702843333333334
1041611179 0.580074 -0.669736
1043097058 0.576993 -0.6699936666666666
1044582937 0.5757816666666667 -0.6679843333333334
1046068816 0.5727586666666666 -0.6673613333333334
1047554695 0.5701459999999999 -0.665053
1049040574 0.567954 -0.6631509999999999
1050526453 0.5683433333333333 -0.661432
1052012332 0.570573 -0.664019
1053498211 0.56909 -0.668104
1054984090 0.5705816666666667 -0.6708906666666666
1056469969 0.5718783333333333 -0.6721026666666666
1057955848 0.5723806666666668 -0.675091
1059441727 0.572762 -0.6760773333333333
1060927606 0.5728106666666667 -0.6766386666666667
1062413485 0.572924 -0.6783263333333333
1063899364 0.5751523333333334 -0.6774176666666666
1065385243 0.5725840000000001 -0.6787656666666667
1066871122 0.5743026666666666 -0.678103
1068357001 0.5702156666666668 -0.6796673333333333
1069842880 0.568283 -0.6790236666666667
1071328759 0.564733 -0.67754
1072814638 0.5652663333333333 -0.6759826666666667
1074300517 0.5632453333333335 -0.676161
1075786396 0.560813 -0.675119
1077272275 0.5631176666666667 -0.66904
1078758154 0.5542723333333334 -0.6707906666666666
1080244033 0.5520423333333333 -0.6709443333333334
1081729912 0.5552003333333333 -0.6722009999999999
1083215791 0.5541253333333334 -0.6765443333333333
1084701670 0.5556583333333333 -0.6799906666666667
1086187549 0.558987 -0.6806503333333334
1087673428 0.558249 -0.6820386666666667
1089159307 0.5626766666666667 -0.6799513333333334
1090645186 0.5586543333333333 -0.683612
1092131065 0.558357 -0.6876479999999999
1093616944 0.5600433333333333 -0.6859123333333333
1095102823 0.5573826666666667 -0.6864236666666667
1096588702 0.5596563333333333 -0.6854790000000001
1098074581 0.5551756666666666 -0.686007
1099560460 0.5559819999999999 -0.6849223333333333
1101046339 0.5516333333333333 -0.6852733333333334
1102532218 0.5507113333333333 -0.6831873333333333
1104018097 0.5491483333333335 -0.681523
1105503976 0.5480956666666666 -0.6794699999999999
1106989855 0.543345 -0.678424
1108475734 0.5417580000000001 -0.6745433333333333
1109961613 0.5370366666666667 -0.6727400000000001
1111447492 0.5385106666666667 -0.6755976666666667
1112933371 0.5398756666666666 -0.6789376666666667
1114419250 0.5425536666666667 -0.6823203333333333
1115905129 0.5411893333333334 -0.6849660000000001
1117391008 0.5422306666666666 -0.6868616666666667
1118876887 0.542724 -0.6884883333333333
1120362766 0.5429253333333334 -0.6904336666666667
1121848645 0.5428633333333334 -0.6923720000000001
1123334524 0.542689 -0.6934480000000001
1124820403 0.539971 -0.695243
1126306282 0.54217 -0.6931753333333334
1127792161 0.5394796666666667 -0.6928866666666665
1129278040 0.539053 -0.6925063333333333
1130763919 0.5380346666666666 -0.6922076666666667
1132249798 0.5355896666666666 -0.6927263333333333
1133735677 0.5343193333333334 -0.6900693333333333
1135221556 0.5321400000000001 -0.6889143333333333
1136707435 0.527669 -0.6864083333333334
1138193314 0.5235153333333334 -0.684654
1139679193 0.5196923333333333 -0.6824026666666666
1141165072 0.517913 -0.685921
1142650951 0.5215633333333334 -0.6883486666666667
1144136830 0.524892 -0.6909956666666667
1145622709 0.5236456666666666 -0.693469
1147108588 0.5248363333333333 -0.6971443333333333
1148594467 0.5257633333333332 -0.6982613333333334
1150080346 0.5236413333333333 -0.6992569999999999
1151566225 0.5234909999999999 -0.6997620000000001
1153052104 0.5266776666666667 -0.6991833333333334
1154537983 0.5232746666666667 -0.7016896666666667
1156023862 0.5234776666666666 -0.7004113333333333
1157509741 0.5208240000000001 -0.7001209999999999
1158995620 0.5218236666666666 -0.6999473333333334
1160481499 0.5183476666666667 -0.7010566666666667
1161967378 0.5183483333333333 -0.697673
1163453257 0.5159286666666668 -0.6955843333333332
1164939136 0.5108216666666666 -0.6949593333333333
1166425015 0.5102153333333334 -0.692036
1167910894 0.5075853333333332 -0.6892866666666667
1169396773 0.5044463333333333 -0.6854193333333334
1170882652 0.502769 -0.6881393333333333
1172368531 0.5036696666666667 -0.6907656666666666
1173854410 0.5022096666666667 -0.6944153333333333
1175340289 0.5052976666666668 -0.6953416666666666
1176826168 0.5038699999999999 -0.6984813333333334
1178312047 0.503197 -0.702311
1179797926 0.5045736666666667 -0.7022446666666666
1181283805 0.5036980000000001 -0.7024823333333333
1182769684 0.5034723333333333 -0.7042676666666666
1184255563 0.5021883333333333 -0.7055716666666667
1185741442 0.5007843333333333 -0.7048106666666666
1187227321 0.5000336666666666 -0.7034316666666668
1188713200 0.49768299999999993 -0.7033126666666666
1190199079 0.49638333333333334 -0.7018533333333333
1191684958 0.49421266666666663 -0.7016523333333332
1193170837 0.492709 -0.6988976666666668
1194656716 0.49016200000000004 -0.6971253333333333
1196142595 0.488361 -0.695007
1197628474 0.48450466666666664 -0.692162
1199114353 0.48293800000000003 -0.6878463333333333
1200600232 0.48260366666666665 -0.6881303333333332
1202086111 0.4808783333333333 -0.692815
1203571990 0.4801356666666667 -0.697707
1205057869 0.484493 -0.6983626666666667
1206543748 0.4826276666666667 -0.7018809999999999
1208029627 0.4850216666666667 -0.702837
1209515506 0.484875 -0.7055153333333334
1211001385 0.4839286666666667 -0.707977
1212487264 0.48461400000000004 -0.7075906666666666
1213973143 0.4824903333333333 -0.7101850000000001
1215459022 0.4843123333333333 -0.7085116666666668
1216944901 0.48134533333333335 -0.710753
1218430780 0.4826696666666666 -0.7085626666666666
1219916659 0.48292833333333335 -0.70707
1221402538 0.48023466666666664 -0.706451
1222888417 0.4792336666666666 -0.7029546666666667
1224374296 0.47748966666666665 -0.7026020000000001
1225860175 0.476219 -0.699045
1227346054 0.4738913333333333 -0.6967963333333334
1228831933 0.4725816666666667 -0.6934323333333333
1230317812 0.472982 -0.6902663333333333
1231803691 0.470331 -0.6987229999999999
1233289570 0.46863666666666665 -0.6989643333333334
1234775449 0.4662406666666667 -0.7023736666666668
1236261328 0.4697853333333333 -0.7035116666666666
1237747207 0.46532700000000005 -0.7093733333333333
1239233086 0.4718736666666667 -0.7050193333333334
1240718965 0.46692833333333333 -0.7101833333333333
1242204844 0.47209399999999996 -0.7084823333333333
1243690723 0.46983233333333335 -0.710318
1245176602 0.4723923333333333 -0.7063253333333334
1246662481 0.4671356666666666 -0.7099966666666667
1248148360 0.4708506666666667 -0.7055233333333334
1249634239 0.46743700000000005 -0.7044723333333334
1251120118 0.4692983333333333 -0.701369
1252605997 0.46691433333333326 -0.700066
1254091876 0.4651416666666666 -0.6978973333333333
1255577755 0.4608936666666666 -0.6960069999999999
1257063634 0.4620166666666667 -0.6916023333333333
1258549513 0.458613 -0.6908993333333333
1260035392 0.457987 -0.6869376666666667
1261521271 0.45579166666666665 -0.6897669999999999
1263007150 0.455478 -0.693421
1264493029 0.457234 -0.6949039999999999
1265978908 0.455265 -0.6993933333333334
1267464787 0.4556073333333333 -0.700235
1268950666 0.45353133333333334 -0.7031216666666666
1270436545 0.45402933333333334 -0.7027846666666667
1271922424 0.45486133333333334 -0.70348
1273408303 0.452749 -0.7043929999999999
1274894182 0.4512176666666667 -0.7057273333333334
1276380061 0.4511293333333333 -0.7045883333333335
1277865940 0.4515933333333333 -0.7041753333333333
1279351819 0.44858966666666666 -0.7046173333333332
1280837698 0.44575000000000004 -0.7052893333333333
1282323577 0.44639500000000004 -0.7030336666666667
1283809456 0.44518300000000005 -0.7003423333333334
1285295335 0.44209233333333336 -0.7012996666666665
1286781214 0.4418566666666666 -0.694636
1288267093 0.43758766666666665 -0.6967376666666666
1289752972 0.43527166666666667 -0.6920836666666667
1291238851 0.4351563333333333 -0.6975233333333334
1292724730 0.434826 -0.6992563333333334
1294210609 0.43642133333333333 -0.7028973333333334
1295696488 0.43463399999999996 -0.704358
1297182367 0.4382653333333333 -0.7034606666666666
1298668246 0.437772 -0.707734
1300154125 0.4353416666666667 -0.7076466666666666
1301640004 0.43947 -0.7087
1303125883 0.44159299999999996 -0.708471
1304611762 0.43995300000000004 -0.7094203333333334
1306097641 0.43775600000000003 -0.70966
1307583520 0.4388886666666667 -0.707985
1309069399 0.4392306666666667 -0.7090336666666667
1310555278 0.4380796666666667 -0.7080593333333333
1312041157 0.43778233333333333 -0.7065086666666667
1313527036 0.43623666666666666 -0.702604
1315012915 0.434224 -0.701434
1316498794 0.4361806666666667 -0.6986486666666667
1317984673 0.43250799999999995 -0.697869
1319470552 0.4337226666666667 -0.6934636666666667
1320956431 0.4333613333333333 -0.6970623333333332
1322442310 0.43361066666666664 -0.6991326666666667
1323928189 0.4331973333333334 -0.7015756666666667
1325414068 0.43359533333333333 -0.7044606666666667
1326899947 0.433637 -0.7066956666666667
1328385826 0.435527 -0.708919
1329871705 0.4354776666666667 -0.7096776666666668
1331357584 0.43393733333333334 -0.7108433333333334
1332843463 0.4323726666666667 -0.7118986666666668
1334329342 0.43413133333333337 -0.7125613333333334
1335815221 0.4325886666666667 -0.7132123333333333
1337301100 0.43174599999999996 -0.7137926666666666
1338786979 0.4327366666666667 -0.7131583333333333
1340272858 0.43128666666666665 -0.7120253333333334
1341758737 0.4281246666666667 -0.712942
1343244616 0.43087366666666665 -0.710986
1344730495 0.42943033333333336 -0.709315
1346216374 0.42794533333333334 -0.7084343333333333
1347702253 0.426734 -0.7070523333333334
1349188132 0.4239616666666666 -0.70443
1350674011 0.42717066666666664 -0.7029906666666665
1352159890 0.41916200000000003 -0.7090040000000001
1353645769 0.42793400000000004 -0.7094603333333334
1355131648 0.4171586666666667 -0.7123853333333333
1356617527 0.4252386666666667 -0.7113386666666667
1358103406 0.4154903333333333 -0.7156146666666666
1359589285 0.42413199999999995 -0.7135766666666666
1361075164 0.4141533333333333 -0.717197
1362561043 0.4239096666666667 -0.7130486666666666
1364046922 0.41368933333333335 -0.7169706666666666
1365532801 0.4211876666666667 -0.7132096666666667
1367018680 0.40879499999999996 -0.71813
1368504559 0.419237 -0.7121676666666668
1369990438 0.407792 -0.715197
1371476317 0.41800333333333334 -0.7099633333333334
1372962196 0.4057226666666667 -0.711618
1374448075 0.40262033333333336 -0.7112353333333333
1375933954 0.39967033333333335 -0.7065923333333334
1377419833 0.3971473333333333 -0.7072443333333333
1378905712 0.4261093333333334 -0.7346103333333334
1380391591 0.3905673333333333 -0.7059916666666667
1381877470 0.39224366666666666 -0.7077796666666666
1383363349 0.39483033333333334 -0.7109576666666667
1384849228 0.39664099999999997 -0.7121483333333334
1386335107 0.398444 -0.7146879999999999
1387820986 0.4004503333333333 -0.7158843333333333
1389306865 0.39776233333333333 -0.718267
1390792744 0.40020933333333336 -0.7199960000000001
1392278623 0.39930200000000005 -0.7211366666666666
1393764502 0.3996546666666667 -0.719789
1395250381 0.4030503333333333 -0.7184126666666667
1396736260 0.4008163333333334 -0.7195766666666668
1398222139 0.402703 -0.718951
1399708018 0.40185433333333337 -0.7181333333333333
1401193897 0.39853066666666664 -0.717412
1402679776 0.40111066666666667 -0.7148686666666667
1404165655 0.39942866666666665 -0.713701
1405651534 0.39759166666666673 -0.7117956666666667
1407137413 0.3944353333333333 -0.709705
1408623292 0.39363033333333336 -0.7071013333333332
1410109171 0.39066033333333333 -0.7040663333333333
1411595050 0.39138433333333333 -0.7099436666666668
1413080929 0.395129 -0.7128010000000001
1414566808 0.395739 -0.7164686666666666
1416052687 0.39561433333333335 -0.7169500000000001
1417538566 0.39696033333333336 -0.7191793333333333
1419024445 0.40141333333333334 -0.7211409999999999
1420510324 0.4002673333333333 -0.722552
1421996203 0.40328400000000003 -0.722408
1423482082 0.4029433333333334 -0.7238616666666667
1424967961 0.40003099999999997 -0.7247090000000002
1426453840 0.4031466666666667 -0.7244229999999999
1427939719 0.401511 -0.723885
1429425598 0.40174233333333337 -0.7222996666666667
1430911477 0.4003726666666667 -0.7230699999999999
1432397356 0.3959456666666667 -0.7219126666666668
1433883235 0.3991356666666667 -0.7194059999999999
1435369114 0.3956386666666667 -0.7170960000000001
1436854993 0.39700633333333335 -0.7148853333333333
1438340872 0.3923993333333333 -0.7129646666666667
1439826751 0.3920936666666666 -0.7098459999999999
1441312630 0.3887513333333333 -0.7139193333333332
1442798509 0.39020600000000005 -0.7156993333333334
1444284388 0.3908716666666667 -0.7175926666666667
1445770267 0.39300766666666664 -0.7206406666666667
1447256146 0.3937576666666667 -0.7206060000000001
1448742025 0.39239833333333335 -0.722172
1450227904 0.392678 -0.7237830000000001
1451713783 0.3921273333333333 -0.7231966666666666
1453199662 0.392571 -0.7248503333333334
1454685541 0.3901133333333333 -0.7244926666666668
1456171420 0.390249 -0.7238656666666667
1457657299 0.38783433333333334 -0.7232759999999999
1459143178 0.386789 -0.7217403333333333
1460629057 0.38638100000000003 -0.7205550000000001
1462114936 0.3844176666666666 -0.718187
1463600815 0.3828116666666667 -0.7162416666666666
1465086694 0.3801113333333333 -0.7147830000000001
1466572573 0.37652233333333335 -0.713364
1468058452 0.37435166666666664 -0.7100063333333333
1469544331 0.37147199999999997 -0.7067786666666667
1471030210 0.3680126666666666 -0.7093423333333334
1472516089 0.3692626666666667 -0.7121703333333333
1474001968 0.37198899999999996 -0.7147746666666667
1475487847 0.37250066666666665 -0.7182246666666666
1476973726 0.371178 -0.721117
1478459605 0.37382699999999996 -0.7218673333333333
1479945484 0.37304766666666667 -0.7240536666666667
1481431363 0.37224666666666667 -0.7238646666666666
1482917242 0.3738776666666667 -0.725463
1484403121 0.37496033333333334 -0.7248596666666667
1485889000 0.3755286666666667 -0.7242303333333333
1487374879 0.37471933333333335 -0.7225596666666667
1488860758 0.3748593333333334 -0.723525
1490346637 0.3740063333333333 -0.722587
1491832516 0.373152 -0.720722
1493318395 0.36911933333333335 -0.720185
1494804274 0.3695833333333334 -0.7174026666666666
1496290153 0.369233 -0.7134123333333333
1497776032 0.364145 -0.7117003333333333
1499261911 0.36184333333333335 -0.7084366666666666
1500747790 0.361267 -0.7083506666666667
1502233669 0.36407233333333333 -0.7108383333333333
1503719548 0.3631236666666667 -0.7163036666666667
1505205427 0.3614093333333333 -0.7190306666666667
1506691306 0.3615276666666667 -0.720775
1508177185 0.36257999999999996 -0.7212986666666668
1509663064 0.361045 -0.7228083333333334
1511148943 0.36048366666666665 -0.725513
1512634822 0.35887699999999995 -0.725045
1514120701 0.3605853333333333 -0.726093
1515606580 0.360036 -0.7249993333333333
1517092459 0.357691 -0.725113
1518578338 0.357904 -0.723809
1520064217 0.355494 -0.7290206666666667
1521550096 0.3553756666666667 -0.722099
1523035975 0.353464 -0.7195126666666667
1524521854 0.350145 -0.7182153333333333
1526007733 0.3484696666666667 -0.7165616666666667
1527493612 0.3336966666666667 -0.7143153333333333
1528979491 0.34654766666666664 -0.7105549999999999
1530465370 0.33974166666666666 -0.7097706666666667
1531951249 0.33873833333333336 -0.7114776666666667
1533437128 0.33897233333333326 -0.7165739999999999
1534923007 0.34247233333333327 -0.7175190000000001
1536408886 0.34366566666666665 -0.7193606666666668
1537894765 0.3433356666666667 -0.7208749999999999
1539380644 0.3415676666666667 -0.724253
1540866523 0.344029 -0.7237206666666668
1542352402 0.3442503333333333 -0.7230386666666666
1543838281 0.3413813333333333 -0.723728
1545324160 0.34066 -0.7247726666666666
1546810039 0.3426666666666667 -0.7224889999999999
1548295918 0.3424873333333333 -0.7222146666666666
1549781797 0.340244 -0.7211826666666666
1551267676 0.3428043333333333 -0.7204799999999999
1552753555 0.3381433333333333 -0.7173046666666666
1554239434 0.3395266666666667 -0.7139013333333333
1555725313 0.33863000000000004 -0.709874
1557211192 0.33418333333333333 -0.7082890000000001
1558697071 0.33227133333333336 -0.7057423333333332
1560182950 0.32986966666666667 -0.702015
1561668829 0.32799266666666665 -0.7062923333333334
1563154708 0.328227 -0.7095906666666666
1564640587 0.32771733333333336 -0.712849
1566126466 0.3279126666666667 -0.7156046666666667
1567612345 0.3296286666666666 -0.7157853333333333
1569098224 0.32802766666666666 -0.7196033333333333
1570584103 0.32778599999999997 -0.721045
1572069982 0.32772833333333334 -0.7207476666666667
1573555861 0.33008233333333337 -0.7238796666666666
1575041740 0.32760866666666666 -0.7228223333333332
1576527619 0.32883066666666666 -0.7232063333333333
1578013498 0.32788266666666666 -0.7225480000000001
1579499377 0.32631266666666664 -0.7208986666666667
1580985256 0.3182566666666667 -0.7220903333333334
1582471135 0.31916133333333335 -0.7199450000000001
1583957014 0.32131466666666664 -0.718105
1585442893 0.327593 -0.7121296666666667
1586928772 0.3204723333333333 -0.711519
1588414651 0.3247386666666667 -0.706584
1589900530 0.3182116666666667 -0.705923
1591386409 0.32139866666666667 -0.70796
1592872288 0.31140966666666664 -0.7135090000000001
1594358167 0.321478 -0.712812
1595844046 0.3136313333333334 -0.718391
1597329925 0.32017100000000004 -0.7182890000000001
1598815804 0.3132163333333333 -0.7218716666666666
1600301683 0.3221286666666667 -0.7199580000000001
1601787562 0.31437 -0.7234223333333333
1603273441 0.31922066666666665 -0.7230593333333334
1604759320 0.31142033333333335 -0.7256283333333334
1606245199 0.321545 -0.7207583333333334
1607731078 0.31368866666666667 -0.723135
1609216957 0.3201833333333333 -0.7200996666666667
1610702836 0.31147833333333336 -0.721959
1612188715 0.3188876666666667 -0.7167729999999999
1613674594 0.3107703333333333 -0.7162003333333332
1615160473 0.31681333333333334 -0.7133343333333334
1616646352 0.3080003333333334 -0.7133886666666666
1618132231 0.31327299999999997 -0.708614
1619618110 0.303962 -0.7080943333333334
1621103989 0.31290366666666664 -0.7058793333333333
1622589868 0.30436966666666665 -0.7115376666666666
1624075747 0.3106706666666667 -0.7121993333333334
1625561626 0.30132366666666666 -0.7175306666666666
1627047505 0.311459 -0.7155183333333333
1628533384 0.3025076666666667 -0.7197666666666667
1630019263 0.309519 -0.7187009999999999
1631505142 0.30222299999999996 -0.723005
1632991021 0.31120533333333333 -0.7199226666666667
1634476900 0.31090900000000005 -0.719182
1635962779 0.303637 -0.7219883333333333
1637448658 0.3015326666666666 -0.7230576666666667
1638934537 0.30341166666666664 -0.7210686666666666
1640420416 0.3010753333333333 -0.7206936666666667
1641906295 0.300356 -0.7197166666666667
1643392174 0.30171499999999996 -0.7177976666666667
1644878053 0.298591 -0.7156303333333334
1646363932 0.29623133333333335 -0.7144866666666667
1647849811 0.293533 -0.7124583333333332
1649335690 0.2910086666666667 -0.7112373333333334
1650821569 0.29294900000000007 -0.7101130000000001
1652307448 0.2925626666666667 -0.7134079999999999
1653793327 0.29227833333333336 -0.7145813333333333
1655279206 0.2934696666666667 -0.7169466666666667
1656765085 0.2937306666666667 -0.7186476666666667
1658250964 0.2930123333333334 -0.7183026666666666
1659736843 0.29284233333333337 -0.7202146666666667
1661222722 0.29231633333333334 -0.7207926666666666
1662708601 0.29466466666666663 -0.722522
1664194480 0.29234133333333334 -0.720195
1665680359 0.291727 -0.7211153333333332
1667166238 0.291989 -0.7215020000000001
1668652117 0.30083333333333334 -0.75718
1670137996 0.289527 -0.7180163333333334
1671623875 0.28386333333333336 -0.7204006666666666
1673109754 0.2932303333333333 -0.7133390000000001
1674595633 0.2864926666666667 -0.7132360000000001
1676081512 0.2847 -0.7122306666666667
1677567391 0.28350333333333333 -0.7074486666666667
1679053270 0.2814406666666667 -0.7050986666666667
1680539149 0.2811943333333333 -0.7064196666666668
1682025028 0.2789806666666667 -0.708107
1683510907 0.2829776666666666 -0.7109846666666666
1684996786 0.282806 -0.7118006666666666
1686482665 0.28280700000000003 -0.71577
1687968544 0.2856376666666667 -0.716729
1689454423 0.28554266666666667 -0.7183513333333332
1690940302 0.287691 -0.718912
1692426181 0.28499066666666667 -0.7203163333333333
1693912060 0.28838 -0.7230690000000001
1695397939 0.2876636666666667 -0.7204989999999999
1696883818 0.2888093333333333 -0.7209506666666666
1698369697 0.28633033333333335 -0.7198443333333334
1699855576 0.28614266666666666 -0.7186516666666667
1701341455 0.285036 -0.7166220000000001
1702827334 0.2897983333333333 -0.7153729999999999
1704313213 0.28688800000000003 -0.7134043333333334
1705799092 0.28284966666666667 -0.7113936666666666
1707284971 0.2853023333333333 -0.708078
1708770850 0.2810876666666667 -0.706619
1710256729 0.28073166666666666 -0.704627
1711742608 0.281329 -0.7070136666666667
1713228487 0.2812946666666667 -0.7096896666666668
1714714366 0.28389366666666666 -0.7104393333333334
1716200245 0.282461 -0.7141810000000001
1717686124 0.279621 -0.7146223333333334
1719172003 0.28509999999999996 -0.7168813333333333
1720657882 0.28116366666666665 -0.7161396666666667
1722143761 0.28502 -0.7159213333333332
1723629640 0.28196099999999996 -0.7164630000000001
1725115519 0.28276233333333334 -0.7163856666666667
1726601398 0.2799183333333333 -0.7173446666666666
1728087277 0.281863 -0.7163673333333334
1729573156 0.27956 -0.7143806666666667
1731059035 0.2790033333333333 -0.7132176666666666
1732544914 0.27643266666666666 -0.7132683333333333
1734030793 0.277119 -0.7116376666666667
1735516672 0.277896 -0.707401
1737002551 0.272116 -0.7051986666666666
1738488430 0.27138766666666664 -0.7013496666666666
1739974309 0.2675663333333333 -0.700844
1741460188 0.26957133333333333 -0.7040006666666666
1742946067 0.27089633333333335 -0.7046923333333334
1744431946 0.26960566666666663 -0.709496
1745917825 0.270314 -0.7113703333333333
1747403704 0.2716416666666667 -0.71326
1748889583 0.27060633333333334 -0.7155383333333333
1750375462 0.2703363333333333 -0.7171296666666667
1751861341 0.27008433333333337 -0.716742
1753347220 0.2709013333333333 -0.7176763333333334
1754833099 0.2705263333333333 -0.7181216666666667
1756318978 0.273152 -0.715108
1757804857 0.2717063333333333 -0.7176796666666667
1759290736 0.26850900000000005 -0.716759
1760776615 0.27031066666666664 -0.7167853333333333
1762262494 0.269515 -0.7157626666666667
1763748373 0.2708413333333333 -0.7113763333333333
1765234252 0.26529933333333333 -0.7118193333333332
1766720131 0.26574533333333333 -0.7083780000000001
1768206010 0.2621423333333333 -0.7064046666666667
1769691889 0.26247766666666666 -0.702519
1771177768 0.26450833333333335 -0.7022780000000001
1772663647 0.26411633333333334 -0.7084283333333333
1774149526 0.26502800000000004 -0.7104413333333334
1775635405 0.26407733333333333 -0.7141903333333333
1777121284 0.265598 -0.7144996666666668
1778607163 0.265498 -0.7177553333333334
1780093042 0.266592 -0.7198753333333334
1781578921 0.26546833333333336 -0.7204256666666667
1783064800 0.26543333333333335 -0.719437
1784550679 0.26597699999999996 -0.7191433333333334
1786036558 0.2683703333333333 -0.719183
1787522437 0.26707933333333334 -0.7185956666666667
1789008316 0.2679173333333333 -0.7179966666666667
1790494195 0.2670553333333333 -0.7161956666666667
1791980074 0.26554833333333333 -0.7158410000000001
1793465953 0.26222866666666667 -0.7144503333333333
1794951832 0.26408633333333337 -0.7135353333333333
1796437711 0.26316733333333336 -0.7084483333333335
1797923590 0.26120533333333334 -0.7060826666666666
1799409469 0.25983633333333334 -0.7034386666666667
1800895348 0.260562 -0.7027093333333334
1802381227 0.26033233333333333 -0.7052616666666666
1803867106 0.262343 -0.7080463333333333
1805352985 0.26362833333333335 -0.7098446666666667
1806838864 0.26539599999999997 -0.7128633333333334
1808324743 0.262225 -0.7131743333333334
1809810622 0.26218 -0.7145640000000001
1811296501 0.26432866666666666 -0.7155253333333333
1812782380 0.26317233333333334 -0.714557
1814268259 0.2639036666666667 -0.715502
1815754138 0.26464966666666667 -0.712165
1817240017 0.26280166666666666 -0.7132513333333333
1818725896 0.26342766666666667 -0.710643
1820211775 0.25836 -0.7117829999999999
1821697654 0.2603063333333333 -0.7080956666666666
1823183533 0.25866933333333336 -0.7080853333333333
1824669412 0.25511233333333333 -0.7049630000000001
1826155291 0.2557463333333333 -0.7016123333333333
1827641170 0.250678 -0.7009666666666666
1829127049 0.2533276666666667 -0.6950363333333334
1830612928 0.24692400000000003 -0.6981213333333333
1832098807 0.251063 -0.6984883333333333
1833584686 0.24924333333333334 -0.7033303333333333
1835070565 0.24845266666666666 -0.7053463333333333
1836556444 0.24923133333333333 -0.7072256666666666
1838042323 0.25109033333333336 -0.707558
1839528202 0.24980066666666667 -0.7089223333333333
1841014081 0.252152 -0.711402
1842499960 0.24822833333333336 -0.7117516666666667
1843985839 0.2528243333333334 -0.7137576666666666
1845471718 0.25018366666666664 -0.711681
1846957597 0.24968866666666667 -0.713621
1848443476 0.24724233333333334 -0.7128436666666667
1849929355 0.24683466666666667 -0.7118763333333334
1851415234 0.248426 -0.7109200000000001
1852901113 0.24455866666666667 -0.709194
1854386992 0.24615866666666666 -0.709234
1855872871 0.24925899999999998 -0.7055523333333333
1857358750 0.24589799999999998 -0.7013276666666668
1858844629 0.23992999999999998 -0.7026193333333333
1860330508 0.24618766666666667 -0.6984186666666666
1861816387 0.24050966666666665 -0.7021099999999999
1863302266 0.246626 -0.705501
1864788145 0.23840033333333333 -0.7079783333333335
1866274024 0.2474896666666667 -0.708596
1867759903 0.24067433333333332 -0.7112793333333333
1869245782 0.24742733333333333 -0.713207
1870731661 0.23963966666666667 -0.7164753333333334
1872217540 0.24835700000000002 -0.7144316666666667
1873703419 0.241407 -0.7161580000000001
1875189298 0.24583333333333335 -0.7163283333333332
1876675177 0.239277 -0.7169163333333333
1878161056 0.24434366666666665 -0.7155116666666667
1879646935 0.238044 -0.715929
1881132814 0.24233866666666662 -0.71272
1882618693 0.23992666666666665 -0.7118626666666666
1884104572 0.23862066666666668 -0.7101436666666667
1885590451 0.24238133333333334 -0.7057859999999999
1887076330 0.238254 -0.7064563333333332
1888562209 0.23742466666666664 -0.7029356666666667
1890048088 0.23591666666666666 -0.6997866666666667
1891533967 0.23854766666666669 -0.7008446666666668
1893019846 0.23525133333333334 -0.705943
1894505725 0.233739 -0.706607
1895991604 0.23385533333333333 -0.706352
1897477483 0.23442366666666667 -0.7109133333333334
1898963362 0.23670666666666665 -0.7114759999999999
1900449241 0.238815 -0.7124886666666667
1901935120 0.23602033333333336 -0.7114280000000001
1903420999 0.233665 -0.7129226666666667
1904906878 0.234837 -0.7112316666666666
1906392757 0.23530833333333334 -0.7092123333333333
1907878636 0.23545033333333334 -0.7111616666666668
1909364515 0.23394666666666666 -0.7084969999999999
1910850394 0.2318103333333333 -0.7068720000000001
1912336273 0.23313966666666666 -0.7043180000000001
1913822152 0.23008966666666666 -0.7027869999999999
1915308031 0.228569 -0.7000743333333334
1916793910 0.22935833333333333 -0.6991313333333333
1918279789 0.225846 -0.694785
1919765668 0.22845466666666667 -0.6924423333333333
1921251547 0.22203533333333333 -0.6933746666666667
1922737426 0.22009366666666666 -0.6990686666666667
1924223305 0.22429866666666667 -0.6984226666666666
1925709184 0.22362 -0.7008436666666666
1927195063 0.22804366666666667 -0.7055256666666666
1928680942 0.222633 -0.70547
1930166821 0.223647 -0.7067233333333333
1931652700 0.22336266666666668 -0.7086633333333333
1933138579 0.223581 -0.7082876666666666
1934624458 0.224019 -0.7090203333333333
1936110337 0.22016133333333332 -0.7089403333333332
1937596216 0.22116100000000002 -0.7099896666666666
1939082095 0.219564 -0.7101343333333333
1940567974 0.221746 -0.706743
1942053853 0.22049933333333335 -0.7074263333333333
1943539732 0.21608533333333332 -0.7048643333333334
1945025611 0.21746333333333334 -0.7044830000000001
1946511490 0.21838633333333335 -0.7016303333333332
1947997369 0.21264733333333333 -0.7006446666666667
1949483248 0.21108466666666667 -0.697658
1950969127 0.2165176666666667 -0.6968826666666667
1952455006 0.210825 -0.703955
1953940885 0.21161033333333334 -0.7036306666666666
1955426764 0.2120753333333333 -0.7056800000000001
1956912643 0.21431999999999998 -0.7067883333333334
1958398522 0.21638000000000002 -0.7080353333333332
1959884401 0.2116813333333333 -0.709826
1961370280 0.217137 -0.7072426666666667
1962856159 0.2144946666666667 -0.709174
1964342038 0.21317833333333336 -0.7107083333333333
1965827917 0.2114653333333333 -0.7095976666666667
1967313796 0.21301033333333333 -0.7094413333333334
1968799675 0.2379703333333333 -0.7154716666666667
1970285554 0.212831 -0.7061413333333334
1971771433 0.20755466666666667 -0.7065516666666666
1973257312 0.20654766666666666 -0.7044736666666666
1974743191 0.209495 -0.6997649999999999
1976229070 0.209951 -0.6976420000000001
1977714949 0.20253933333333332 -0.6971703333333333
1979200828 0.20718400000000003 -0.6927506666666666
1980686707 0.20374966666666663 -0.6925823333333333
1982172586 0.20158833333333334 -0.6981426666666667
1983658465 0.20475966666666667 -0.6974156666666667
1985144344 0.206466 -0.7006996666666666
1986630223 0.20097466666666666 -0.7031360000000001
1988116102 0.20066733333333334 -0.7064243333333334
1989601981 0.21013366666666666 -0.7079703333333334
1991087860 0.205079 -0.7043746666666667
1992573739 0.199045 -0.7072506666666668
1994059618 0.20385466666666666 -0.7064456666666667
1995545497 0.204116 -0.7051943333333334
1997031376 0.20187633333333332 -0.7060286666666666
1998517255 0.19887733333333332 -0.7055033333333333
2000003134 0.20234966666666665 -0.704227
2001489013 0.200793 -0.7023903333333333
2002974892 0.19878633333333331 -0.7012673333333334
2004460771 0.19979733333333335 -0.6994440000000001
2005946650 0.19880966666666666 -0.6970963333333334
2007432529 0.19722733333333334 -0.6936620000000001
2008918408 0.19507600000000003 -0.6907703333333334
2010404287 0.19168466666666664 -0.6903959999999999
2011890166 0.1918426666666667 -0.6930483333333334
2013376045 0.194211 -0.6953243333333333
2014861924 0.19419566666666668 -0.698695
2016347803 0.19532533333333335 -0.7004783333333333
2017833682 0.19346966666666665 -0.7019273333333332
2019319561 0.19408366666666668 -0.7035459999999999
2020805440 0.18402333333333332 -0.708141
2022291319 0.195313 -0.7046596666666667
2023777198 0.18909833333333334 -0.7079083333333333
2025263077 0.193878 -0.7065453333333332
2026748956 0.19238999999999998 -0.7065366666666667
2028234835 0.19578466666666663 -0.7043186666666666
2029720714 0.19263733333333333 -0.7059546666666666
2031206593 0.19035033333333332 -0.7041646666666667
2032692472 0.19237533333333334 -0.7021703333333335
2034178351 0.19202633333333333 -0.7007073333333332
2035664230 0.19151700000000002 -0.6984933333333334
2037150109 0.19037333333333337 -0.6966346666666667
2038635988 0.18788433333333332 -0.6958603333333334
2040121867 0.18707166666666666 -0.6922906666666666
2041607746 0.18574233333333334 -0.6956993333333333
2043093625 0.18482633333333331 -0.6956816666666666
2044579504 0.18499400000000002 -0.6989163333333334
2046065383 0.18629233333333337 -0.7007833333333333
2047551262 0.185704 -0.70206
2049037141 0.186096 -0.7001033333333333
2050523020 0.18543733333333332 -0.700596
2052008899 0.18467566666666668 -0.701812
2053494778 0.18325933333333333 -0.7022043333333334
2054980657 0.1821303333333333 -0.7038866666666667
2056466536 0.18266033333333334 -0.7022700000000001
2057952415 0.181159 -0.7012766666666667
2059438294 0.18263166666666666 -0.6986656666666667
2060924173 0.17951166666666665 -0.7000353333333335
2062410052 0.18048 -0.6964436666666667
2063895931 0.176477 -0.6950069999999999
2065381810 0.17741700000000002 -0.6934650000000001
2066867689 0.1758603333333333 -0.6895266666666667
2068353568 0.17252366666666666 -0.6877273333333335
2069839447 0.16964 -0.684653
2071325326 0.17100533333333331 -0.6873463333333333
2072811205 0.171772 -0.6912396666666667
2074297084 0.17190000000000003 -0.6939510000000001
2075782963 0.17088466666666666 -0.6968260000000001
2077268842 0.170669 -0.697206
2078754721 0.17320100000000002 -0.6997260000000001
2080240600 0.1747283333333333 -0.7000460000000001
2081726479 0.17540933333333333 -0.701332
2083212358 0.17381333333333335 -0.7021096666666667
2084698237 0.17541766666666667 -0.7023449999999999
2086184116 0.17497833333333332 -0.7007326666666667
2087669995 0.17525566666666667 -0.701361
2089155874 0.17565933333333336 -0.7009693333333334
2090641753 0.176227 -0.6999416666666667
2092127632 0.17461933333333332 -0.7009989999999999
2093613511 0.17486400000000002 -0.6963736666666667
2095099390 0.1734266666666667 -0.695769
2096585269 0.17284200000000002 -0.6919123333333334
2098071148 0.170102 -0.6907770000000001
2099557027 0.17088033333333333 -0.6879006666666667
2101042906 0.17000233333333334 -0.687919
2102528785 0.17381500000000003 -0.6914553333333333
2104014664 0.17089333333333334 -0.6945856666666667
2105500543 0.176563 -0.6947926666666667
2106986422 0.174532 -0.6987356666666668
2108472301 0.17226166666666667 -0.7003539999999999
2109958180 0.17341566666666666 -0.6998253333333334
2111444059 0.17378966666666665 -0.701943
2112929938 0.17485000000000003 -0.702762
2114415817 0.17336566666666667 -0.7022309999999999
2115901696 0.17249100000000003 -0.7038393333333334
2117387575 0.17522266666666667 -0.7025039999999999
2118873454 0.17210033333333333 -0.701113
2120359333 0.171417 -0.7017176666666667
2121845212 0.171284 -0.7004273333333333
2123331091 0.17091466666666666 -0.6974696666666667
2124816970 0.168238 -0.6961383333333333
2126302849 0.16839466666666666 -0.6942783333333332
2127788728 0.15915933333333332 -0.6895946666666667
2129274607 0.16575700000000002 -0.6889216666666665
2130760486 0.166199 -0.6861993333333333
2132246365 0.16207733333333332 -0.6919753333333333
2133732244 0.163388 -0.6931303333333334
2135218123 0.16263666666666665 -0.6959569999999999
2136704002 0.163014 -0.6974036666666666
2138189881 0.164685 -0.6978420000000001
2139675760 0.15957500000000002 -0.6996383333333333
2141161639 0.16263433333333333 -0.7026046666666668
2142647518 0.16267966666666667 -0.7022696666666667
2144133397 0.16731566666666667 -0.70246
2145619276 0.162085 -0.7013643333333333
2147105155 0.16186066666666665 -0.7011646666666667
2148591034 0.16099333333333332 -0.7011976666666667
2150076913 0.16046333333333332 -0.7010563333333334
2151562792 0.1573166666666667 -0.6988576666666667
2153048671 0.158884 -0.697082
2154534550 0.15635533333333332 -0.6953806666666668
2156020429 0.154006 -0.6936493333333335
2157506308 0.15447733333333336 -0.6911003333333333
2158992187 0.153455 -0.6888880000000001
2160478066 0.15065133333333333 -0.6900619999999998
2161963945 0.15203633333333333 -0.691478
2163449824 0.15516833333333335 -0.6909373333333333
2164935703 0.15079766666666666 -0.6976286666666667
2166421582 0.14957566666666666 -0.697313
2167907461 0.154286 -0.6996480000000002
2169393340 0.15324233333333334 -0.702071
2170879219 0.153114 -0.7011663333333334
2172365098 0.152852 -0.7003360000000001
2173850977 0.154838 -0.7019526666666667
2175336856 0.155421 -0.7000860000000001
2176822735 0.15488033333333331 -0.7023086666666666
2178308614 0.15399266666666667 -0.69929
2179794493 0.152273 -0.6996803333333333
2181280372 0.161946 -0.6989679999999999
2182766251 0.156479 -0.696668
2184252130 0.15629 -0.6932116666666666
2185738009 0.15498766666666666 -0.6925503333333333
2187223888 0.15355966666666668 -0.6912116666666667
2188709767 0.153289 -0.6874326666666667
2190195646 0.14887066666666665 -0.6848313333333333
2191681525 0.15077566666666667 -0.6882106666666666
2193167404 0.154749 -0.6890486666666668
2194653283 0.15445799999999998 -0.6917476666666666
2196139162 0.1536583333333333 -0.6931823333333332
2197625041 0.15578133333333335 -0.6949163333333334
2199110920 0.15624400000000002 -0.6958796666666668
2200596799 0.15771333333333334 -0.6957786666666667
2202082678 0.15197666666666668 -0.6958293333333333
2203568557 0.15587066666666669 -0.6967186666666666
2205054436 0.155497 -0.6969599999999999
2206540315 0.15970399999999998 -0.6966063333333333
2208026194 0.13754966666666665 -0.6894373333333332
2209512073 0.16130333333333333 -0.6950243333333334
2210997952 0.15695266666666666 -0.6918943333333333
2212483831 0.16063233333333332 -0.6894383333333334
2213969710 0.15580433333333332 -0.6861183333333334
2215455589 0.16090866666666667 -0.683283
2216941468 0.15588766666666667 -0.6815753333333333
2218427347 0.15872866666666666 -0.6791696666666667
2219913226 0.153353 -0.673704
2221399105 0.15792066666666668 -0.6757079999999999
2222884984 0.14793233333333333 -0.6818346666666667
2224370863 0.154757 -0.6824913333333334
2225856742 0.14954533333333334 -0.6868276666666667
2227342621 0.15889366666666666 -0.6864513333333333
2228828500 0.14537566666666665 -0.6868783333333335
2230314379 0.15661633333333333 -0.688837
2231800258 0.14855333333333332 -0.6896193333333333
2233286137 0.15713066666666667 -0.6910726666666668
2234772016 0.14896466666666666 -0.6928276666666666
2236257895 0.15535233333333334 -0.6895049999999999
2237743774 0.14714366666666667 -0.6899846666666667
2239229653 0.15753166666666665 -0.691288
2240715532 0.14291166666666666 -0.6901706666666666
2242201411 0.154998 -0.689326
2243687290 0.14584633333333333 -0.6885196666666666
2245173169 0.15149833333333332 -0.686168
2246659048 0.14632199999999998 -0.6839970000000001
2248144927 0.15095866666666666 -0.68278
2249630806 0.140618 -0.6787026666666667
2251116685 0.14878533333333333 -0.68223
2252602564 0.14690666666666666 -0.681299
2254088443 0.14439466666666667 -0.6833883333333333
2255574322 0.14725566666666665 -0.6853623333333334
2257060201 0.14512233333333333 -0.6858616666666667
2258546080 0.14396333333333333 -0.6878956666666666
2260031959 0.14550633333333332 -0.6894446666666667
2261517838 0.14612866666666666 -0.6884343333333334
2263003717 0.14527299999999999 -0.6895233333333334
2264489596 0.144656 -0.6882683333333334
2265975475 0.14049133333333333 -0.6878743333333334
2267461354 0.14241933333333331 -0.6872286666666666
2268947233 0.12246033333333332 -0.6635306666666666
2270433112 0.13693533333333333 -0.6857013333333333
2271918991 0.1378326666666667 -0.684581
2273404870 0.13821066666666668 -0.6817043333333334
2274890749 0.13386866666666666 -0.6815546666666666
2276376628 0.13722333333333334 -0.6787743333333333
2277862507 0.13614233333333334 -0.677463
2279348386 0.13638366666666665 -0.6749523333333333
2280834265 0.13752366666666668 -0.6764036666666667
2282320144 0.13069133333333335 -0.6764196666666668
2283806023 0.13773666666666665 -0.6807893333333332
2285291902 0.13835433333333333 -0.681202
2286777781 0.138202 -0.6846436666666667
2288263660 0.13316466666666668 -0.68337
2289749539 0.13280766666666666 -0.6840673333333332
2291235418 0.136414 -0.6823980000000001
2292721297 0.13676000000000002 -0.6819553333333332
2294207176 0.13568966666666668 -0.6832563333333334
2295693055 0.12954966666666667 -0.6815446666666668
2297178934 0.13507733333333335 -0.6830380000000001
2298664813 0.13261066666666665 -0.6827556666666666
2300150692 0.135575 -0.6807326666666667
2301636571 0.13240366666666667 -0.6802373333333334
2303122450 0.13512933333333332 -0.6795466666666666
2304608329 0.13535299999999997 -0.6796273333333334
2306094208 0.133456 -0.674041
2307580087 0.12638133333333332 -0.6686413333333334
2309065966 0.1290853333333333 -0.6726726666666667
2310551845 0.13029833333333332 -0.6730566666666666
2312037724 0.13212900000000002 -0.6741113333333333
2313523603 0.13510466666666665 -0.6775889999999999
2315009482 0.13100766666666666 -0.6791396666666666
2316495361 0.130997 -0.6794739999999999
2317981240 0.13667633333333332 -0.682222
2319467119 0.128277 -0.6866720000000001
2320952998 0.1395876666666667 -0.6837283333333334
2322438877 0.13999999999999999 -0.6870096666666666
2323924756 0.13617066666666666 -0.6862876666666667
2325410635 0.13547933333333337 -0.6896336666666666
2326896514 0.13089866666666666 -0.6872523333333334
2328382393 0.13063466666666665 -0.688781
2329868272 0.13572666666666666 -0.6873173333333334
2331354151 0.1367293333333333 -0.687017
2332840030 0.13185333333333335 -0.6863773333333333
2334325909 0.12869233333333333 -0.6886653333333334
2335811788 0.13285333333333335 -0.6824406666666668
2337297667 0.130783 -0.682516
2338783546 0.12737033333333334 -0.6794826666666666
2340269425 0.12397000000000001 -0.6785733333333334
2341755304 0.12709 -0.6777323333333333
2343241183 0.125551 -0.6823953333333334
2344727062 0.12858166666666668 -0.685559
2346212941 0.12205999999999999 -0.6864193333333333
2347698820 0.128474 -0.6884783333333333
2349184699 0.13011400000000004 -0.6869716666666666
2350670578 0.12756066666666668 -0.6875836666666667
2352156457 0.12362133333333332 -0.6892066666666667
2353642336 0.12547433333333333 -0.686875
2355128215 0.12376133333333333 -0.689867
2356614094 0.12592933333333334 -0.6891163333333333
2358099973 0.11997866666666668 -0.688298
2359585852 0.12207033333333334 -0.6867359999999999
2361071731 0.119994 -0.6848306666666666
2362557610 0.12212266666666667 -0.6828499999999998
2364043489 0.11340466666666667 -0.6839516666666666
2365529368 0.11700766666666666 -0.6788736666666667
2367015247 0.11197866666666667 -0.6822606666666666
2368501126 0.11115766666666667 -0.678474
2369987005 0.11183900000000001 -0.6767566666666666
2371472884 0.113522 -0.6750086666666667
2372958763 0.11240933333333332 -0.6813199999999999
2374444642 0.11502133333333335 -0.6823056666666667
2375930521 0.115039 -0.6829366666666666
2377416400 0.115462 -0.6833110000000001
2378902279 0.11739233333333333 -0.6831293333333334
2380388158 0.11857733333333333 -0.6869406666666666
2381874037 0.11734066666666669 -0.6867296666666668
2383359916 0.117587 -0.6890233333333334
2384845795 0.11672333333333335 -0.6873186666666667
2386331674 0.11412933333333335 -0.6855783333333333
2387817553 0.11442333333333332 -0.6853536666666665
2389303432 0.11671 -0.6854263333333334
2390789311 0.11752800000000001 -0.683488
2392275190 0.11953866666666667 -0.6750729999999999
2393761069 0.11414933333333332 -0.6793936666666666
2395246948 0.11458733333333333 -0.6768253333333334
2396732827 0.116394 -0.6701376666666666
2398218706 0.11327333333333334 -0.6681793333333333
2399704585 0.11075166666666665 -0.6713996666666667
2401190464 0.1141 -0.6701053333333333
2402676343 0.10930133333333335 -0.6743576666666667
2404162222 0.11230766666666665 -0.6747806666666666
2405648101 0.108987 -0.678582
2407133980 0.108887 -0.678401
2408619859 0.11315666666666667 -0.677328
2410105738 0.11186533333333333 -0.6817966666666666
2411591617 0.110317 -0.6828083333333334
2413077496 0.10687333333333333 -0.681956
2414563375 0.10638666666666667 -0.6825896666666668
2416049254 0.11229966666666667 -0.684018
2417535133 0.103976 -0.6844276666666667
2419021012 0.10618633333333334 -0.6855703333333333
2420506891 0.10330333333333334 -0.68424
2421992770 0.11421266666666667 -0.6822956666666666
2423478649 0.11204933333333333 -0.680943
2424964528 0.11231066666666667 -0.6819396666666667
2426450407 0.11067199999999999 -0.6794253333333332
2427936286 0.104586 -0.677237
2429422165 0.10623466666666666 -0.6758353333333332
2430908044 0.10588833333333332 -0.6762229999999999
2432393923 0.10634066666666665 -0.6768946666666666
2433879802 0.10930633333333334 -0.6799506666666666
2435365681 0.10660900000000001 -0.6813393333333333
2436851560 0.10818866666666666 -0.6828346666666666
2438337439 0.106128 -0.6833016666666666
2439823318 0.10660666666666667 -0.6841843333333334
2441309197 0.10778866666666666 -0.683411
2442795076 0.10584166666666667 -0.6869903333333333
2444280955 0.11011233333333333 -0.6845979999999999
2445766834 0.102307 -0.6821290000000001
2447252713 0.098087 -0.6815593333333334
2448738592 0.101535 -0.6800823333333333
2450224471 0.09828566666666667 -0.6795826666666667
2451710350 0.09709299999999998 -0.6790506666666666
2453196229 0.09761966666666666 -0.6742549999999999
2454682108 0.098522 -0.67165
2456167987 0.095072 -0.6687799999999999
2457653866 0.09263133333333333 -0.667815
2459139745 0.09605566666666666 -0.6660843333333334
2460625624 0.09085633333333333 -0.663948
2462111503 0.08867933333333333 -0.6671420000000001
2463597382 0.09248699999999999 -0.6650516666666667
2465083261 0.093631 -0.6705586666666666
2466569140 0.09184566666666666 -0.6713226666666667
2468055019 0.09114033333333334 -0.6720773333333333
2469540898 0.09012433333333332 -0.6759689999999999
2471026777 0.09074966666666667 -0.6767573333333333
2472512656 0.09381366666666667 -0.6770516666666667
2473998535 0.091194 -0.6771576666666667
2475484414 0.08864233333333334 -0.6741143333333333
2476970293 0.09112100000000001 -0.6744873333333333
2478456172 0.09110033333333334 -0.6727629999999999
2479942051 0.08806399999999999 -0.6738043333333333
2481427930 0.10261233333333335 -0.6774673333333333
2482913809 0.08650433333333334 -0.6695766666666666
2484399688 0.08453166666666667 -0.6684603333333333
2485885567 0.08589133333333333 -0.6678706666666668
2487371446 0.08670266666666666 -0.662386
2488857325 0.08522300000000001 -0.6604523333333333
2490343204 0.08573966666666666 -0.6586613333333333
2491829083 0.08387966666666667 -0.6626883333333333
2493314962 0.08434066666666666 -0.6662436666666666
2494800841 0.08608766666666667 -0.6676293333333333
2496286720 0.08653666666666666 -0.6698449999999999
2497772599 0.08722333333333333 -0.670731
2499258478 0.08691533333333334 -0.6713233333333334
2500744357 0.08689166666666666 -0.6740923333333333
2502230236 0.08726266666666667 -0.6753086666666667
2503716115 0.08903766666666667 -0.6737626666666667
2505201994 0.087054 -0.6757400000000001
2506687873 0.09182033333333334 -0.6764246666666667
2508173752 0.09131833333333333 -0.674038
2509659631 0.09280166666666667 -0.6749883333333333
2511145510 0.09264966666666667 -0.6724076666666666
2512631389 0.091084 -0.6722813333333333
2514117268 0.09210766666666666 -0.6695106666666666
2515603147 0.09433266666666666 -0.6673016666666666
2517089026 0.09207466666666668 -0.6647196666666667
2518574905 0.091256 -0.663811
2520060784 0.09362066666666667 -0.6611229999999999
2521546663 0.093427 -0.6623519999999999
2523032542 0.09199433333333333 -0.6644866666666668
2524518421 0.08862433333333335 -0.6658666666666667
2526004300 0.09237433333333334 -0.6693243333333334
2527490179 0.08926633333333334 -0.6713986666666667
2528976058 0.08793600000000001 -0.6719473333333333
2530461937 0.08880033333333333 -0.674516
2531947816 0.089333 -0.6756379999999998
2533433695 0.08921433333333333 -0.6787796666666667
2534919574 0.086785 -0.6740123333333333
2536405453 0.08761433333333334 -0.6725513333333333
2537891332 0.08662433333333334 -0.674369
2539377211 0.08779733333333334 -0.6720290000000001
2540863090 0.08503299999999998 -0.6738413333333333
2542348969 0.08443933333333332 -0.6722136666666666
2543834848 0.085397 -0.669422
2545320727 0.083488 -0.6663396666666667
2546806606 0.07991266666666667 -0.6687470000000001
2548292485 0.07987166666666666 -0.6623866666666668
2549778364 0.081472 -0.6642353333333334
2551264243 0.08306333333333334 -0.6641546666666667
2552750122 0.07847466666666668 -0.666564
2554236001 0.07616333333333335 -0.6679816666666666
2555721880 0.08011333333333333 -0.6667986666666667
2557207759 0.08221566666666667 -0.673739
2558693638 0.07947433333333333 -0.6712886666666668
2560179517 0.07954733333333333 -0.6750983333333332
2561665396 0.080009 -0.6777476666666665
2563151275 0.08043966666666667 -0.6751496666666666
2564637154 0.07628933333333333 -0.6753073333333331
2566123033 0.076295 -0.6795003333333334
2567608912 0.07902933333333333 -0.6784349999999999
2569094791 0.076423 -0.677477
2570580670 0.07360833333333335 -0.6771443333333332
2572066549 0.074542 -0.6782613333333334
2573552428 0.07537333333333333 -0.6747043333333332
2575038307 0.07217566666666667 -0.671833
2576524186 0.07634733333333334 -0.6729663333333334
2578010065 0.07285166666666666 -0.6669206666666666
2579495944 0.07027133333333334 -0.669156
2580981823 0.075887 -0.6669603333333334
2582467702 0.07001033333333333 -0.6657356666666666
2583953581 0.073936 -0.6718213333333334
2585439460 0.074521 -0.6727256666666667
2586925339 0.07297866666666668 -0.6661469999999999
2588411218 0.07581766666666667 -0.6709766666666667
2589897097 0.07283366666666667 -0.671423
2591382976 0.074683 -0.6698043333333333
2592868855 0.07453866666666667 -0.6698056666666666
2594354734 0.07212700000000001 -0.6656190000000001
2595840613 0.072726 -0.6695113333333333
2597326492 0.077828 -0.6650786666666666
2598812371 0.07092766666666667 -0.664056
2600298250 0.07176833333333334 -0.6602333333333333
2601784129 0.07735733333333333 -0.6599886666666667
2603270008 0.072472 -0.6550199999999999
2604755887 0.073943 -0.6535336666666667
2606241766 0.07023333333333333 -0.6503613333333333
2607727645 0.06826633333333333 -0.6462226666666667
2609213524 0.07126233333333333 -0.6432603333333333
2610699403 0.06768566666666667 -0.645289
2612185282 0.07336666666666666 -0.645365
2613671161 0.064537 -0.643815
2615157040 0.06956033333333334 -0.6488283333333333
2616642919 0.06593833333333333 -0.653282
2618128798 0.06590966666666667 -0.6531923333333333
2619614677 0.06810833333333334 -0.65142
2621100556 0.067948 -0.6541413333333334
2622586435 0.066631 -0.6563086666666667
2624072314 0.061654999999999995 -0.6463466666666666
2625558193 0.06745133333333332 -0.655065
2627044072 0.06883033333333333 -0.6521356666666666
2628529951 0.06530266666666666 -0.6540443333333333
2630015830 0.06756833333333333 -0.65228
2631501709 0.065526 -0.6487276666666667
2632987588 0.06728366666666667 -0.6494006666666666
2634473467 0.07071333333333334 -0.6486353333333333
2635959346 0.064373 -0.6442903333333333
2637445225 0.06299866666666666 -0.642172
2638931104 0.06393066666666668 -0.6403373333333334
2640416983 0.06127366666666667 -0.6429853333333333
2641902862 0.06014133333333333 -0.640456
2643388741 0.061313000000000006 -0.6480946666666667
2644874620 0.06271133333333334 -0.651907
2646360499 0.06590366666666665 -0.6513606666666667
2647846378 0.060287 -0.6518353333333332
2649332257 0.063877 -0.6563723333333333
2650818136 0.06096933333333333 -0.6575516666666666
2652304015 0.06154833333333334 -0.6600266666666667
2653789894 0.06334666666666666 -0.6598666666666667
2655275773 0.05911366666666667 -0.662168
2656761652 0.06482266666666667 -0.6606846666666667
2658247531 0.057855333333333335 -0.6630666666666666
2659733410 0.06427733333333334 -0.663459
2661219289 0.06221266666666667 -0.662702
2662705168 0.06212333333333333 -0.662176
2664191047 0.06198633333333333 -0.6602009999999999
2665676926 0.06536866666666667 -0.660631
2667162805 0.06345366666666667 -0.6594030000000001
2668648684 0.05667266666666667 -0.659383
2670134563 0.058904333333333336 -0.65397
2671620442 0.059880333333333334 -0.6572556666666668
2673106321 0.054683 -0.659753
2674592200 0.06046233333333334 -0.6618756666666666
2676078079 0.06593466666666666 -0.6644536666666666
2677563958 0.06708166666666666 -0.6690693333333333
2679049837 0.06461133333333334 -0.6637373333333333
2680535716 0.07119299999999999 -0.6682196666666668
2682021595 0.06485166666666667 -0.66479
2683507474 0.062228000000000006 -0.6648213333333334
2684993353 0.06492933333333334 -0.662904
2686479232 0.06931033333333335 -0.6666553333333334
2687965111 0.06590533333333333 -0.669426
2689450990 0.072188 -0.6605956666666666
2690936869 0.06860666666666666 -0.6596883333333333
2692422748 0.07191633333333335 -0.6620746666666667
2693908627 0.07347500000000001 -0.656239
2695394506 0.06713600000000002 -0.653339
2696880385 0.065486 -0.6499536666666667
2698366264 0.062731 -0.6505203333333334
2699852143 0.064924 -0.6439443333333333
2701338022 0.05927466666666667 -0.6438793333333334
2702823901 0.06298433333333332 -0.650763
2704309780 0.06825266666666667 -0.6512713333333333
2705795659 0.07191433333333334 -0.653245
2707281538 0.068905 -0.653481
2708767417 0.071929 -0.6556366666666666
2710253296 0.06753466666666667 -0.6545323333333334
2711739175 0.07248166666666667 -0.6548223333333333
2713225054 0.07491666666666667 -0.6566983333333334
2714710933 0.07710966666666667 -0.6546123333333334
2716196812 0.073427 -0.6542933333333333
2717682691 0.07848766666666666 -0.650117
2719168570 0.073689 -0.6506203333333334
2720654449 0.08935633333333333 -0.6794160000000001
2722140328 0.082052 -0.684034
2723626207 0.07433266666666667 -0.646464
2725112086 0.07224466666666667 -0.641794
2726597965 0.071504 -0.6418656666666667
2728083844 0.06952866666666667 -0.6355023333333333
2729569723 0.07493866666666667 -0.6339896666666667
2731055602 0.07060966666666667 -0.635477
2732541481 0.06460033333333333 -0.638869
2734027360 0.06347833333333334 -0.6408680000000001
2735513239 0.06884066666666666 -0.6451413333333335
2736999118 0.05774866666666667 -0.6477083333333333
2738484997 0.057582333333333326 -0.6508116666666667
2739970876 0.05147166666666667 -0.65361
2741456755 0.059405000000000006 -0.6546226666666667
2742942634 0.058404333333333336 -0.6540363333333333
2744428513 0.056182 -0.6604413333333333
2745914392 0.05945866666666666 -0.6578746666666666
2747400271 0.058829 -0.6576286666666666
2748886150 0.05812766666666667 -0.6567436666666666
2750372029 0.050465 -0.6602086666666667
2751857908 0.051991666666666665 -0.6596993333333333
2753343787 0.052281666666666664 -0.6603436666666667
2754829666 0.05355833333333334 -0.659475
2756315545 0.056217333333333334 -0.6576953333333333
2757801424 0.04704 -0.6567836666666665
2759287303 0.048856000000000004 -0.6553696666666666
2760773182 0.048059 -0.6560553333333333
2762259061 0.05301466666666666 -0.660504
2763744940 0.04896233333333333 -0.663674
2765230819 0.050944666666666666 -0.6632193333333334
2766716698 0.053637 -0.6651313333333334
2768202577 0.05268966666666666 -0.6647383333333333
2769688456 0.05548533333333333 -0.6672950000000001
2771174335 0.04870533333333333 -0.666757
2772660214 0.05620666666666666 -0.6692836666666667
2774146093 0.06199433333333334 -0.6671586666666668
2775631972 0.05823766666666667 -0.6655006666666666
2777117851 0.05940000000000001 -0.6635186666666667
2778603730 0.05398133333333333 -0.6651906666666667
2780089609 0.05521266666666667 -0.6653536666666667
2781575488 0.05645033333333333 -0.661899
2783061367 0.057375666666666665 -0.6598503333333334
2784547246 0.056661666666666666 -0.662451
2786033125 0.059955 -0.6551693333333334
2787519004 0.056784 -0.6536343333333333
2789004883 0.052437333333333336 -0.6520643333333332
2790490762 0.05557666666666666 -0.6451716666666666
2791976641 0.06014333333333333 -0.6451346666666667
2793462520 0.052786999999999994 -0.6491176666666667
2794948399 0.05792466666666666 -0.6464673333333333
2796434278 0.057977 -0.6518943333333332
2797920157 0.048353 -0.656416
2799406036 0.051813 -0.6580096666666666
2800891915 0.04951233333333333 -0.6569423333333333
2802377794 0.051157666666666664 -0.6586496666666667
2803863673 0.050318 -0.6565803333333333
2805349552 0.05022466666666667 -0.6600476666666667
2806835431 0.05091166666666667 -0.6549703333333333
2808321310 0.052421666666666665 -0.6527166666666667
2809807189 0.04660966666666667 -0.6614083333333333
2811293068 0.048711000000000004 -0.65267
2812778947 0.04809666666666667 -0.6547393333333333
2814264826 0.045695000000000006 -0.6440126666666667
2815750705 0.046009999999999995 -0.6485396666666666
2817236584 0.04419233333333333 -0.650804
2818722463 0.04740933333333334 -0.6491526666666667
2820208342 0.040375 -0.6430333333333333
2821694221 0.045458 -0.6457813333333333
2823180100 0.045920666666666665 -0.653786
2824665979 0.04148166666666667 -0.6541236666666667
2826151858 0.046440666666666665 -0.6544026666666666
2827637737 0.042801 -0.6555430000000001
2829123616 0.04434866666666667 -0.6544343333333335
2830609495 0.04496566666666666 -0.6623493333333333
2832095374 0.046561333333333337 -0.6593103333333333
2833581253 0.04517633333333334 -0.6564713333333333
2835067132 0.046368 -0.6493743333333333
2836553011 0.04742366666666666 -0.6584036666666667
2838038890 0.046054333333333336 -0.6517416666666667
2839524769 0.04988 -0.6548470000000001
2841010648 0.048480999999999996 -0.6470813333333334
2842496527 0.04737666666666666 -0.6422906666666667
2843982406 0.04700066666666666 -0.6443616666666666
2845468285 0.04727733333333334 -0.639781
2846954164 0.04421933333333333 -0.6390556666666667
2848440043 0.044765 -0.6319866666666667
2849925922 0.04257866666666666 -0.6278713333333333
2851411801 0.04006 -0.6284566666666667
2852897680 0.03940933333333333 -0.63118
2854383559 0.04018466666666667 -0.6360163333333334
2855869438 0.04399 -0.6406323333333334
2857355317 0.041392000000000005 -0.640202
2858841196 0.04307233333333333 -0.6423586666666666
2860327075 0.044347000000000004 -0.6413836666666667
2861812954 0.04556733333333333 -0.641744
2863298833 0.042444333333333334 -0.6410653333333333
2864784712 0.044086999999999994 -0.641116
2866270591 0.04548166666666667 -0.6412416666666667
2867756470 0.049460666666666674 -0.642199
2869242349 0.04473 -0.6384850000000001
2870728228 0.023405333333333334 -0.6294970000000001
2872214107 0.04727166666666666 -0.639341
2873699986 0.049772000000000004 -0.637049
2875185865 0.047679666666666676 -0.630036
2876671744 0.04908233333333334 -0.6341646666666666
2878157623 0.047222999999999994 -0.6304456666666667
2879643502 0.04709933333333333 -0.6281293333333333
2881129381 0.05092133333333334 -0.63063
2882615260 0.04994766666666667 -0.6306996666666667
2884101139 0.04769933333333334 -0.632324
2885587018 0.042910000000000004 -0.6348539999999999
2887072897 0.04754933333333333 -0.63557
2888558776 0.04548333333333334 -0.639085
2890044655 0.04689533333333334 -0.6382176666666667
2891530534 0.048273 -0.6386533333333334
2893016413 0.044185 -0.6428250000000001
2894502292 0.04638166666666666 -0.639408
2895988171 0.044270333333333335 -0.6414763333333333
2897474050 0.043728333333333334 -0.6410836666666667
2898959929 0.04510733333333333 -0.6390336666666666
2900445808 0.044793 -0.639902
2901931687 0.042222333333333334 -0.636931
2903417566 0.042887666666666664 -0.6369376666666667
2904903445 0.045802 -0.6352726666666667
2906389324 0.044426999999999994 -0.6341293333333332
2907875203 0.04340366666666667 -0.6325983333333333
2909361082 0.044389333333333336 -0.630634
2910846961 0.04228833333333334 -0.630185
2912332840 0.042922666666666665 -0.632074
2913818719 0.04161733333333333 -0.6335873333333334
2915304598 0.03902166666666666 -0.636506
2916790477 0.04028166666666667 -0.6364286666666668
2918276356 0.038753666666666665 -0.6382983333333333
2919762235 0.03881933333333334 -0.638736
2921248114 0.037588333333333335 -0.638645
2922733993 0.037206666666666666 -0.640088
2924219872 0.03206066666666666 -0.641237
2925705751 0.035335 -0.639262
2927191630 0.035796999999999995 -0.639764
2928677509 0.03486533333333333 -0.6318516666666666
2930163388 0.034272333333333335 -0.6377506666666667
2931649267 0.033182333333333335 -0.6361436666666666
2933135146 0.030480999999999998 -0.6355416666666667
2934621025 0.028988 -0.6336953333333333
2936106904 0.030381333333333333 -0.6313056666666667
2937592783 0.024778333333333333 -0.6305183333333333
2939078662 0.027413999999999997 -0.6269403333333333
2940564541 0.027355 -0.627091
2942050420 0.02397566666666667 -0.6298330000000001
2943536299 0.021175 -0.6332036666666666
2945022178 0.02399166666666667 -0.6328269999999999
2946508057 0.024841666666666668 -0.6344016666666666
2947993936 0.025340333333333336 -0.636408
2949479815 0.025099 -0.6374813333333332
2950965694 0.024387000000000002 -0.6383896666666667
2952451573 0.025740000000000002 -0.6384016666666666
2953937452 0.028836 -0.6364943333333334
2955423331 0.026546333333333335 -0.6367283333333332
2956909210 0.025421666666666665 -0.637671
2958395089 0.029626666666666666 -0.6366563333333334
2959880968 0.02896 -0.6318923333333334
2961366847 0.030256 -0.634443
2962852726 0.028439000000000002 -0.6315456666666667
2964338605 0.02711733333333333 -0.631256
2965824484 0.028321 -0.626954
2967310363 0.027389333333333335 -0.623941
2968796242 0.027144 -0.6263496666666667
2970282121 0.028347 -0.6229006666666667
2971768000 0.027583 -0.6232136666666667
2973253879 0.027356333333333333 -0.6256833333333333
2974739758 0.026874 -0.6253146666666667
2976225637 0.028804666666666662 -0.6245123333333333
2977711516 0.028102666666666665 -0.626228
2979197395 0.030208 -0.6288073333333334
2980683274 0.029103333333333332 -0.6284899999999999
2982169153 0.028922000000000003 -0.6296003333333333
2983655032 0.028984 -0.6287083333333333
2985140911 0.030817333333333335 -0.6275583333333333
2986626790 0.032027 -0.6251909999999999
2988112669 0.031466666666666664 -0.6268106666666666
2989598548 0.034743 -0.623962
2991084427 0.03284533333333334 -0.6275846666666667
2992570306 0.034013 -0.6230603333333333
2994056185 0.036381000000000004 -0.6198916666666666
2995542064 0.034784 -0.6162283333333334
2997027943 0.03295133333333333 -0.614002
2998513822 0.03392733333333333 -0.6117546666666667
2999999701 0.031621666666666666 -0.6067793333333333
