# HZ S RI R 50
10000 0.9834010000000001 -0.2135933333333333
1495879 0.8526533333333334 1.0562366666666667
2981758 0.5774323333333333 0.6883986666666666
4467637 0.5805413333333332 0.32680733333333334
5953516 0.6505793333333334 0.137723
7439395 0.7430316666666666 0.012432666666666667
8925274 1.0573353333333333 -0.06219366666666667
10411153 1.0975043333333332 0.03679733333333333
11897032 1.0861216666666669 0.168376
13382911 1.0193459999999999 0.2923
14868790 0.9170256666666666 0.38124633333333335
16354669 0.8036453333333333 0.4284766666666666
17840548 0.699625 0.44369733333333333
19326427 0.609492 0.4374203333333333
20812306 0.535666 0.4184913333333333
22298185 0.476563 0.3948593333333334
23784064 0.42872133333333334 0.3689746666666667
25269943 0.38974 0.3427926666666667
26755822 0.3579456666666667 0.31778833333333334
28241701 0.332125 0.29401166666666667
29727580 0.3002646666666666 0.25996099999999994
31213459 0.320872 0.25695
32699338 0.3374183333333333 0.242633
34185217 0.3529613333333333 0.22945733333333332
35671096 0.36840399999999995 0.21330333333333332
37156975 0.3835693333333334 0.19453566666666666
38642854 0.3977003333333333 0.17776433333333333
40128733 0.411989 0.15505733333333335
41614612 0.42469666666666667 0.14332699999999998
43100491 0.438469 0.121403
44586370 0.4515146666666667 0.10345133333333334
46072249 0.46542666666666666 0.08007133333333333
47558128 0.4801823333333333 0.063602
49044007 0.4963583333333334 0.04653933333333333
50529886 0.5157873333333334 0.032204666666666666
52015765 0.5374840000000001 0.0029813333333333337
53501644 0.56645 -0.014988333333333333
54987523 0.604715 -0.03929966666666667
56473402 0.658045 -0.076915
57959281 0.746455 -0.09081166666666667
59445160 0.9038233333333334 -0.06725366666666666
60931039 0.9985503333333333 -0.03476133333333333
62416918 1.0025386666666665 -0.04433
63902797 1.005266 -0.05374433333333334
65388676 1.007828 -0.06236866666666666
66874555 1.01087 -0.05853333333333333
68360434 1.0056833333333335 -0.14230966666666667
69846313 1.015133 -0.034834
71332192 1.0167796666666666 -0.02891466666666666
72818071 1.0166060000000001 -0.07355766666666666
74303950 1.016996 -0.06433933333333335
75789829 1.0186606666666667 0.0028926666666666666
77275708 1.0174526666666666 -0.005475999999999999
78761587 1.0170260000000002 0.0007086666666666668
80247466 1.0103783333333334 -0.11568566666666667
81733345 1.01291 -0.06840833333333333
83219224 1.0107220000000001 -0.078834
84705103 1.0056543333333334 -0.104066
86190982 1.0050100000000002 0.021205
87676861 0.998687 -0.09524366666666667
89162740 0.9967449999999999 -0.06948866666666666
90648619 0.9953656666666667 -0.08825433333333334
92134498 0.9995256666666666 -0.08527099999999999
93620377 1.004751 -0.053219333333333334
95106256 1.0055153333333333 -0.08040033333333334
96592135 1.0078956666666667 -0.080018
98078014 1.0099736666666665 -0.07432666666666667
99563893 1.012619 -0.07168366666666666
101049772 1.0136893333333334 -0.08446633333333332
102535651 1.0143433333333334 -0.08536866666666666
104021530 1.0135776666666667 -0.08610666666666666
105507409 1.013158 -0.08680433333333333
106993288 1.0135696666666667 -0.08707333333333334
108479167 1.0120230000000001 -0.08774566666666667
109965046 1.0106026666666668 -0.089456
111450925 1.0096893333333334 -0.08989599999999999
112936804 1.0074663333333334 -0.08973633333333332
114422683 1.005342 -0.09017333333333333
115908562 1.0013823333333336 -0.09030066666666665
117394441 0.9976226666666665 -0.09188833333333334
118880320 0.9947276666666666 -0.09137533333333332
120366199 0.9928993333333334 -0.09168933333333333
121852078 0.9960443333333333 -0.093901
123337957 1.0007596666666667 -0.095212
124823836 1.0040296666666666 -0.09813300000000001
126309715 1.0075939999999999 -0.09927199999999999
127795594 1.0102516666666668 -0.10025233333333333
129281473 1.0138783333333332 -0.10154099999999999
130767352 1.0151316666666668 -0.10192133333333335
132253231 1.0175986666666665 -0.10291033333333333
133739110 1.0186593333333331 -0.10356900000000001
135224989 1.0036033333333332 -0.11455733333333333
136710868 1.003807 -0.116004
138196747 1.0040713333333333 -0.11616533333333334
139682626 1.003303 -0.116197
141168505 1.003608 -0.11679600000000001
142654384 1.000808 -0.11667266666666669
144140263 0.99944 -0.117026
145626142 0.997271 -0.11706799999999999
147112021 0.994984 -0.1171
148597900 0.9924223333333333 -0.11699833333333336
150083779 0.9888996666666667 -0.11634466666666667
151569658 0.9919036666666666 -0.118095
153055537 0.9955829999999999 -0.11945399999999999
154541416 0.9983456666666667 -0.12084533333333332
156027295 1.000821 -0.12320266666666668
157513174 1.0024376666666668 -0.12399933333333334
158999053 1.0038029999999998 -0.12495300000000002
160484932 1.0055143333333334 -0.12523133333333333
161970811 1.006408 -0.12607100000000002
163456690 1.0068906666666668 -0.12732600000000002
164942569 1.0063473333333333 -0.12849933333333333
166428448 1.006562 -0.12894866666666666
167914327 1.0056726666666667 -0.13028166666666666
169400206 1.0042433333333334 -0.130047
170886085 1.0032343333333333 -0.13128700000000001
172371964 1.0021046666666666 -0.132123
173857843 1.000409 -0.126353
175343722 0.9960673333333334 -0.127665
176829601 0.9940983333333334 -0.12816566666666665
178315480 0.9916093333333333 -0.12889466666666669
179801359 0.987718 -0.13009633333333334
181287238 0.99002 -0.13251766666666664
182773117 0.9927563333333334 -0.14033766666666667
184258996 0.9964026666666667 -0.13478533333333334
185744875 0.998726 -0.13588733333333333
187230754 1.0011296666666667 -0.13757799999999998
188716633 1.002671 -0.13863666666666666
190202512 1.0046003333333333 -0.13964033333333334
191688391 1.005199 -0.14101266666666668
193174270 1.0058390000000001 -0.141495
194660149 1.0040246666666668 -0.1487183333333333
196146028 1.0039786666666668 -0.14925533333333332
197631907 1.003254 -0.15055166666666667
199117786 1.0022003333333334 -0.151635
200603665 1.0007163333333333 -0.15232533333333334
202089544 0.9987750000000001 -0.15343600000000002
203575423 0.9959773333333333 -0.154564
205061302 0.9926433333333332 -0.15590633333333334
206547181 0.9894013333333334 -0.15690166666666663
208033060 0.9862196666666666 -0.15829566666666667
209518939 0.9829529999999999 -0.15953833333333334
211004818 0.9830439999999999 -0.16121266666666667
212490697 0.9872373333333334 -0.16311566666666666
213976576 0.9904586666666667 -0.16497566666666666
215462455 0.993216 -0.16560066666666665
216948334 0.9956266666666668 -0.16694900000000001
218434213 0.998259 -0.168184
219920092 0.9992033333333333 -0.16891166666666665
221405971 1.0017186666666666 -0.1693996666666667
222891850 1.0011046666666665 -0.17067766666666664
224377729 1.0015433333333335 -0.17220766666666665
225863608 1.0013003333333332 -0.17264133333333334
227349487 1.0000493333333333 -0.17237999999999998
228835366 0.9985773333333334 -0.174689
230321245 0.9980923333333332 -0.17472333333333334
231807124 0.9950123333333334 -0.17517066666666667
233293003 0.9927876666666667 -0.177223
234778882 0.9894856666666666 -0.178364
236264761 0.9854820000000001 -0.17929633333333336
237750640 0.9818803333333334 -0.1805483333333333
239236519 0.9768753333333334 -0.18217766666666665
240722398 0.9767303333333333 -0.184837
242208277 0.980479 -0.18584766666666666
243694156 0.98481 -0.188114
245180035 0.9881933333333333 -0.188828
246665914 0.9904463333333333 -0.19029566666666664
248151793 0.9934816666666668 -0.19194966666666666
249637672 0.9945399999999999 -0.19244966666666666
251123551 0.9962363333333334 -0.19360299999999997
252609430 0.996575 -0.19398566666666664
254095309 0.9971716666666666 -0.194478
255581188 0.9966473333333333 -0.196491
257067067 0.9962559999999999 -0.19648233333333334
258552946 0.9949986666666667 -0.19745033333333337
260038825 0.9931026666666667 -0.1986496666666667
261524704 0.9908666666666667 -0.19918533333333333
263010583 0.987745 -0.19976499999999997
264496462 0.9847303333333333 -0.20101733333333335
265982341 0.9805523333333334 -0.20174233333333333
267468220 0.976471 -0.20289333333333334
268954099 0.9714013333333332 -0.20372900000000002
270439978 0.9695253333333334 -0.204929
271925857 0.9743753333333333 -0.20765199999999998
273411736 0.9775843333333333 -0.21125633333333335
274897615 0.9817803333333334 -0.212168
276383494 0.9841966666666667 -0.21328833333333333
277869373 0.986401 -0.21489933333333333
279355252 0.9883976666666667 -0.21641866666666668
280841131 0.9899966666666667 -0.21702133333333332
282327010 0.9911816666666667 -0.218406
283812889 0.9915166666666666 -0.21937966666666667
285298768 0.991674 -0.21930866666666668
286784647 0.991073 -0.21990166666666666
288270526 0.9895576666666667 -0.22197666666666668
289756405 0.9870443333333333 -0.22277466666666665
291242284 0.98569 -0.22297533333333333
292728163 0.9825786666666666 -0.22322733333333333
294214042 0.9800536666666666 -0.22332433333333335
295699921 0.9765803333333333 -0.22438433333333332
297185800 0.9714003333333333 -0.22480699999999998
298671679 0.9664993333333335 -0.22704033333333332
300157558 0.9629273333333334 -0.223607
301643437 0.9680713333333334 -0.22668733333333332
303129316 0.9722246666666666 -0.22823799999999997
304615195 0.9750603333333334 -0.23046033333333335
306101074 0.9781323333333334 -0.23448566666666668
307586953 0.9816526666666666 -0.23492499999999997
309072832 0.9839283333333334 -0.23661466666666664
310558711 0.9852500000000001 -0.23733366666666667
312044590 0.9855396666666668 -0.23865499999999998
313530469 0.9864126666666667 -0.23909533333333333
315016348 0.9867653333333334 -0.24004533333333333
316502227 0.9870993333333332 -0.24143699999999998
317988106 0.9850376666666666 -0.240402
319473985 0.98358 -0.2409393333333333
320959864 0.982021 -0.240738
322445743 0.9794143333333333 -0.24175766666666668
323931622 0.9755563333333334 -0.24276166666666665
325417501 0.972541 -0.2417743333333333
326903380 0.9675126666666668 -0.24264866666666665
328389259 0.9628166666666668 -0.24899366666666664
329875138 0.9567589999999999 -0.243712
331361017 0.961126 -0.247023
332846896 0.9636646666666667 -0.248754
334332775 0.9668113333333332 -0.25091233333333335
335818654 0.969129 -0.25461433333333333
337304533 0.9726560000000001 -0.2549856666666666
338790412 0.9737586666666666 -0.25737899999999997
340276291 0.9751489999999999 -0.259632
341762170 0.9768763333333333 -0.2601653333333333
343248049 0.9764953333333334 -0.26180866666666663
344733928 0.977183 -0.262308
346219807 0.9766693333333333 -0.26296500000000006
347705686 0.9751683333333334 -0.26457033333333335
349191565 0.9740406666666667 -0.26456033333333334
350677444 0.971256 -0.2632466666666667
352163323 0.9688663333333333 -0.26428333333333337
353649202 0.9654516666666667 -0.26485933333333334
355135081 0.9605203333333333 -0.263733
356620960 0.9570673333333333 -0.2649966666666667
358106839 0.9522073333333334 -0.264787
359592718 0.946527 -0.2654883333333333
361078597 0.9482703333333333 -0.26827566666666663
362564476 0.9511553333333334 -0.271203
364050355 0.9550393333333332 -0.2736433333333333
365536234 0.9575596666666666 -0.27701400000000004
367022113 0.9608123333333333 -0.27819066666666664
368507992 0.9620516666666666 -0.28191066666666664
369993871 0.9637319999999999 -0.282339
371479750 0.9645223333333334 -0.2830803333333333
372965629 0.9938316666666666 -0.2651476666666667
374451508 0.9657133333333334 -0.286213
375937387 0.9649413333333333 -0.28515633333333334
377423266 0.9646506666666667 -0.28569133333333335
378909145 0.9635476666666666 -0.2869266666666666
380395024 0.9617513333333333 -0.28686033333333333
381880903 0.9595779999999999 -0.286403
383366782 0.9562476666666667 -0.286737
384852661 0.9535456666666667 -0.28613333333333335
386338540 0.9489740000000001 -0.2869926666666666
387824419 0.945351 -0.28597200000000006
389310298 0.940135 -0.28655633333333336
390796177 0.9396933333333332 -0.287487
392282056 0.942776 -0.29069566666666663
393767935 0.9458693333333333 -0.29339766666666667
395253814 0.9484803333333334 -0.29698033333333335
396739693 0.9512516666666667 -0.298032
398225572 0.952607 -0.299333
399711451 0.95355 -0.30205600000000005
401197330 0.9551883333333334 -0.30327266666666663
402683209 0.9557063333333332 -0.30353366666666665
404169088 0.9557856666666668 -0.305682
405654967 0.956265 -0.30517900000000003
407140846 0.9548996666666666 -0.30567799999999995
408626725 0.9537563333333333 -0.306518
410112604 0.9516693333333333 -0.30605433333333326
411598483 0.949901 -0.30587899999999996
413084362 0.9474863333333333 -0.3046856666666667
414570241 0.9439843333333333 -0.30545533333333336
416056120 0.9403173333333333 -0.305279
417541999 0.93684 -0.304434
419027878 0.9320663333333333 -0.30463999999999997
420513757 0.9294479999999999 -0.3061973333333334
421999636 0.9321799999999999 -0.3096353333333333
423485515 0.9358386666666667 -0.31118033333333334
424971394 0.9377840000000001 -0.31470400000000004
426457273 0.9404236666666667 -0.3164373333333333
427943152 0.942255 -0.3176543333333333
429429031 0.9439046666666666 -0.32018100000000005
430914910 0.9445286666666667 -0.3215656666666667
432400789 0.9446836666666667 -0.32278500000000004
433886668 0.9451693333333333 -0.32393066666666664
435372547 0.944785 -0.32432933333333336
436858426 0.9441436666666667 -0.32637066666666664
438344305 0.9440296666666667 -0.32548933333333335
439830184 0.9410553333333332 -0.3269903333333333
441316063 0.9390926666666667 -0.32724366666666665
442801942 0.937731 -0.3261156666666667
444287821 0.9344586666666667 -0.3255136666666667
445773700 0.9315193333333333 -0.32596733333333333
447259579 0.9268803333333334 -0.3262853333333333
448745458 0.9232969999999999 -0.32653
450231337 0.9210406666666667 -0.32064200000000004
451717216 0.924108 -0.3216763333333333
453203095 0.9279116666666667 -0.32545166666666664
454688974 0.929833 -0.328604
456174853 0.932263 -0.331837
457660732 0.9335503333333334 -0.3328893333333333
459146611 0.9356643333333333 -0.3348006666666667
460632490 0.9372046666666667 -0.33334633333333336
462118369 0.9386093333333333 -0.33544666666666667
463604248 0.9373743333333334 -0.3364856666666667
465090127 0.9376586666666666 -0.337169
466576006 0.9358366666666668 -0.33799766666666664
468061885 0.9352946666666666 -0.3377506666666667
469547764 0.9340936666666666 -0.33857699999999996
471033643 0.980929 -0.3318993333333333
472519522 0.9296476666666665 -0.33813266666666664
474005401 0.9265816666666667 -0.33819499999999997
475491280 0.922662 -0.33771733333333337
476977159 0.9199436666666667 -0.338118
478463038 0.9146286666666666 -0.33761900000000006
479948917 0.9343276666666668 -0.31743733333333335
481434796 0.9126430000000001 -0.34008166666666667
482920675 0.915889 -0.3421636666666667
484406554 0.919099 -0.3451043333333333
485892433 0.921415 -0.347215
487378312 0.922818 -0.34951266666666664
488864191 0.925014 -0.3500916666666667
490350070 0.925771 -0.351678
491835949 0.9265653333333334 -0.3522286666666667
493321828 0.9264223333333333 -0.3522973333333333
494807707 0.9278633333333333 -0.35335166666666673
496293586 0.9257153333333333 -0.3535896666666667
497779465 0.9253756666666666 -0.35367666666666664
499265344 0.9237129999999999 -0.355375
500751223 0.9219560000000001 -0.35492133333333337
502237102 0.9201596666666667 -0.3538856666666666
503722981 0.9167133333333334 -0.3539436666666667
505208860 0.9139976666666666 -0.353983
506694739 0.9112853333333334 -0.3543576666666666
508180618 0.906859 -0.35366533333333333
509666497 0.902158 -0.3539223333333334
511152376 0.90389 -0.35492233333333334
512638255 0.905963 -0.357957
514124134 0.9086240000000001 -0.36039899999999997
515610013 0.9118083333333334 -0.36368633333333333
517095892 0.9133963333333334 -0.36476166666666665
518581771 0.9150023333333334 -0.3655616666666666
520067650 0.9147223333333333 -0.36771666666666664
521553529 0.9171026666666667 -0.3683126666666667
523039408 0.919952 -0.36434900000000003
524525287 0.917615 -0.369432
526011166 0.916869 -0.37095066666666665
527497045 0.9157753333333334 -0.370191
528982924 0.9143366666666667 -0.37240999999999996
530468803 0.9116066666666667 -0.37204699999999996
531954682 0.909679 -0.3719443333333334
533440561 0.9077643333333333 -0.3704336666666667
534926440 0.9030846666666666 -0.37186699999999995
536412319 0.9007063333333334 -0.37070966666666666
537898198 0.8966223333333333 -0.3707369999999999
539384077 0.8924963333333333 -0.37039099999999997
540869956 0.8914070000000001 -0.37040366666666663
542355835 0.8945416666666667 -0.3736746666666666
543841714 0.8967893333333334 -0.3742446666666666
545327593 0.8985986666666667 -0.3755840000000001
546813472 0.9017643333333334 -0.37607300000000005
548299351 0.9022519999999999 -0.3774743333333333
549785230 0.9030863333333333 -0.3782316666666667
551271109 0.9031920000000001 -0.379442
552756988 0.9035449999999999 -0.377808
554242867 0.9034206666666668 -0.37772
555728746 0.9013260000000001 -0.3775473333333333
557214625 0.9012083333333333 -0.37686933333333333
558700504 0.8986736666666667 -0.3755023333333333
560186383 0.8973793333333333 -0.37561533333333336
561672262 0.893535 -0.374731
563158141 0.8905033333333332 -0.374136
564644020 0.8860923333333334 -0.37239633333333333
566129899 0.8815056666666666 -0.372184
567615778 0.8779566666666666 -0.3708563333333333
569101657 0.8722346666666666 -0.37098666666666663
570587536 0.8690226666666666 -0.37185166666666664
572073415 0.8725733333333333 -0.3732243333333334
573559294 0.8747253333333335 -0.3804803333333333
575045173 0.8774496666666667 -0.3822633333333334
576531052 0.879746 -0.3861863333333333
578016931 0.8816333333333333 -0.38770699999999997
579502810 0.8832126666666668 -0.3899513333333333
580988689 0.8827493333333334 -0.3933803333333333
582474568 0.8846046666666667 -0.39434233333333335
583960447 0.8844756666666668 -0.39727599999999996
585446326 0.8846383333333333 -0.3993393333333333
586932205 0.883111 -0.4004513333333333
588418084 0.8830236666666668 -0.40131133333333335
589903963 0.8808433333333333 -0.4023503333333333
591389842 0.8798 -0.40182866666666667
592875721 0.8776643333333333 -0.40360233333333334
594361600 0.8753416666666666 -0.40403700000000004
595847479 0.8714113333333332 -0.404143
597333358 0.867611 -0.40391166666666667
598819237 0.8641869999999999 -0.4045186666666667
600305116 0.8640083333333334 -0.40039566666666665
601790995 0.865879 -0.40507766666666667
603276874 0.8700166666666668 -0.4073326666666666
604762753 0.873119 -0.40926733333333337
606248632 0.8754593333333333 -0.41302633333333333
607734511 0.877444 -0.415213
609220390 0.8792883333333333 -0.417068
610706269 0.8805663333333333 -0.41758500000000004
612192148 0.881166 -0.41843499999999995
613678027 0.8820246666666667 -0.42021033333333335
615163906 0.8806946666666667 -0.4216
616649785 0.8803643333333334 -0.4220606666666667
618135664 0.8801916666666667 -0.42084699999999997
619621543 0.8751283333333334 -0.426209
621107422 0.8768056666666668 -0.4212593333333334
622593301 0.870877 -0.42622066666666664
624079180 0.8690013333333333 -0.42346900000000004
625565059 0.8652296666666667 -0.4228370000000001
627050938 0.8190426666666667 -0.41042
628536817 0.8573569999999999 -0.42043733333333333
630022696 0.8529966666666667 -0.4198013333333333
631508575 0.8564136666666666 -0.4224783333333333
632994454 0.8572753333333333 -0.4314543333333334
634480333 0.8610686666666667 -0.42927000000000004
635966212 0.863681 -0.430628
637452091 0.866639 -0.43355499999999997
638937970 0.8662793333333333 -0.43666866666666665
640423849 0.8677199999999999 -0.43783299999999997
641909728 0.8687640000000001 -0.43838166666666667
643395607 0.8689476666666667 -0.43938000000000005
644881486 0.8679306666666666 -0.43967033333333333
646367365 0.8717256666666667 -0.43548500000000007
647853244 0.8745196666666666 -0.4301953333333333
649339123 0.869296 -0.433664
650825002 0.8710643333333333 -0.42939333333333335
652310881 0.8664513333333334 -0.4327783333333333
653796760 0.866046 -0.42846300000000004
655282639 0.8586563333333332 -0.4312203333333333
656768518 0.8590136666666667 -0.425819
658254397 0.8515643333333335 -0.42870199999999997
659740276 0.8506083333333333 -0.4234736666666667
661226155 0.8494980000000001 -0.429886
662712034 0.8539833333333333 -0.4297256666666667
664197913 0.8543636666666666 -0.43687000000000004
665683792 0.859468 -0.43375433333333335
667169671 0.8586446666666667 -0.43728866666666666
668655550 0.8631083333333334 -0.4359206666666667
670141429 0.8599716666666666 -0.4423863333333333
671627308 0.8650829999999999 -0.4373936666666666
673113187 0.862044 -0.44326166666666666
674599066 0.864773 -0.44077866666666665
676084945 0.864312 -0.44329233333333334
677570824 0.8635436666666667 -0.43922
679056703 0.8604886666666666 -0.441948
680542582 0.9049686666666666 -0.4411043333333333
682028461 0.8562853333333332 -0.4409633333333334
683514340 0.8547193333333333 -0.43789799999999995
685000219 0.8498936666666665 -0.4377203333333333
686486098 0.8464343333333333 -0.435838
687971977 0.843678 -0.4335069999999999
689457856 0.8388656666666666 -0.43085233333333334
690943735 0.837793 -0.4337063333333333
692429614 0.841904 -0.43812866666666667
693915493 0.8429176666666667 -0.4397663333333333
695401372 0.8442486666666666 -0.4428623333333333
696887251 0.844671 -0.445851
698373130 0.8459996666666667 -0.44947333333333334
699859009 0.845973 -0.4502616666666667
701344888 0.8452186666666667 -0.45197133333333334
702830767 0.8465856666666666 -0.45436999999999994
704316646 0.846025 -0.455964
705802525 0.844777 -0.4573563333333333
707288404 0.844875 -0.457116
708774283 0.8428176666666666 -0.4575823333333333
710260162 0.8423086666666667 -0.4571556666666667
711746041 0.8384333333333333 -0.4584706666666667
713231920 0.8362103333333333 -0.456942
714717799 0.8327490000000001 -0.4589286666666667
716203678 0.8302489999999999 -0.4556723333333334
717689557 0.8248363333333334 -0.45712533333333333
719175436 0.8220913333333333 -0.45608566666666667
720661315 0.819894 -0.4565963333333333
722147194 0.824058 -0.46011
723633073 0.8253466666666668 -0.4619816666666667
725118952 0.8272569999999999 -0.463849
726604831 0.8279906666666665 -0.4672183333333333
728090710 0.8292843333333334 -0.4687286666666666
729576589 0.8283503333333334 -0.47168566666666667
731062468 0.830818 -0.4715533333333333
732548347 0.831051 -0.47379866666666665
734034226 0.8324703333333333 -0.4736103333333333
735520105 0.8323796666666666 -0.475414
737005984 0.8308693333333333 -0.47544666666666663
738491863 0.8293063333333333 -0.47451800000000005
739977742 0.8285036666666667 -0.4730936666666667
741463621 0.8253233333333333 -0.47558066666666665
742949500 0.8239 -0.4730916666666667
744435379 0.8226749999999999 -0.47184566666666666
745921258 0.8179819999999999 -0.47139
747407137 0.8148026666666667 -0.470699
748893016 0.8123849999999999 -0.47095299999999995
750378895 0.8125619999999999 -0.466447
751864774 0.8139726666666668 -0.46971066666666667
753350653 0.8158156666666666 -0.47141633333333327
754836532 0.8173466666666668 -0.47512533333333334
756322411 0.8188846666666666 -0.4759156666666667
757808290 0.8184670000000001 -0.47958166666666663
759294169 0.8215309999999999 -0.4801123333333333
760780048 0.821476 -0.48072033333333336
762265927 0.8226576666666666 -0.48135700000000003
763751806 0.8208226666666666 -0.4828566666666667
765237685 0.8220350000000001 -0.4832536666666667
766723564 0.8204703333333333 -0.48395933333333335
768209443 0.8176016666666667 -0.48441033333333333
769695322 0.8171903333333334 -0.4837373333333334
771181201 0.81869 -0.48044000000000003
772667080 0.813039 -0.482651
774152959 0.8095213333333332 -0.48339533333333334
775638838 0.806743 -0.48176599999999997
777124717 0.8019053333333334 -0.48120199999999996
778610596 0.8069509999999999 -0.47123966666666667
780096475 0.7964626666666667 -0.479614
781582354 0.7979493333333334 -0.48325100000000004
783068233 0.8008376666666667 -0.4853826666666667
784554112 0.8026716666666666 -0.48850299999999997
786039991 0.8057090000000001 -0.48845900000000003
787525870 0.80356 -0.49673966666666663
789011749 0.8081933333333332 -0.493015
790497628 0.8097333333333333 -0.49332766666666666
791983507 0.8102086666666667 -0.49476499999999995
793469386 0.8118913333333332 -0.49302533333333337
794955265 0.810508 -0.4952283333333334
796441144 0.8097906666666667 -0.49539700000000003
797927023 0.8094793333333333 -0.4939886666666667
799412902 0.8078226666666667 -0.494457
800898781 0.8060216666666666 -0.49449533333333334
802384660 0.8043556666666666 -0.4935853333333333
803870539 0.802858 -0.49231933333333333
805356418 0.7996286666666667 -0.4898383333333334
806842297 0.7955746666666667 -0.489944
808328176 0.7916843333333334 -0.48812933333333336
809814055 0.7868539999999999 -0.48726033333333335
811299934 0.790091 -0.4883233333333334
812785813 0.7909083333333333 -0.493273
814271692 0.793916 -0.4961436666666666
815757571 0.7963926666666667 -0.49612133333333336
817243450 0.7960106666666666 -0.5019433333333333
818729329 0.7976656666666667 -0.501709
820215208 0.797994 -0.503247
821701087 0.7981046666666667 -0.5075603333333333
823186966 0.7979323333333334 -0.5075813333333333
824672845 0.7976519999999999 -0.5085226666666666
826158724 0.7982546666666667 -0.5084336666666667
827644603 0.797003 -0.5080883333333334
829130482 0.795541 -0.50863
830616361 0.7917873333333333 -0.510196
832102240 0.7911809999999999 -0.51017
833588119 0.7867946666666666 -0.5097666666666666
835073998 0.785399 -0.5079856666666667
836559877 0.782201 -0.5070819999999999
838045756 0.7766023333333333 -0.506274
839531635 0.7731896666666667 -0.5059330000000001
841017514 0.773832 -0.5059263333333334
842503393 0.7758316666666666 -0.510221
843989272 0.7774983333333334 -0.5144743333333334
845475151 0.7800560000000001 -0.5159946666666667
846961030 0.780229 -0.5191486666666666
848446909 0.7823336666666666 -0.5209856666666667
849932788 0.7820969999999999 -0.522387
851418667 0.7846426666666666 -0.5226426666666667
852904546 0.7844423333333334 -0.5234136666666668
854390425 0.78459 -0.524494
855876304 0.7844016666666667 -0.5244186666666666
857362183 0.7847209999999999 -0.5238520000000001
858848062 0.782127 -0.5238703333333333
860333941 0.7805650000000001 -0.5248536666666667
861819820 0.7773133333333334 -0.5231383333333334
863305699 0.7757293333333334 -0.5209943333333333
864791578 0.7726829999999999 -0.5207953333333334
866277457 0.7670406666666666 -0.5210676666666666
867763336 0.7664146666666668 -0.5180020000000001
869249215 0.7618603333333334 -0.5148016666666667
870735094 0.7605919999999999 -0.5159583333333333
872220973 0.7614963333333332 -0.521723
873706852 0.7644626666666666 -0.5241683333333333
875192731 0.767595 -0.5253519999999999
876678610 0.7666983333333333 -0.529931
878164489 0.769373 -0.530621
879650368 0.7705726666666667 -0.5328253333333334
881136247 0.7711866666666666 -0.5334493333333333
882622126 0.7700903333333334 -0.5375423333333332
884108005 0.7704436666666666 -0.5362970000000001
885593884 0.771223 -0.5362453333333334
887079763 0.7697790000000001 -0.5360216666666667
888565642 0.7689426666666667 -0.5339643333333334
890051521 0.7674053333333334 -0.534253
891537400 0.7656973333333333 -0.5334923333333333
893023279 0.7630903333333334 -0.5314420000000001
894509158 0.759132 -0.531536
895995037 0.757765 -0.5289510000000001
897480916 0.7536753333333334 -0.5277096666666666
898966795 0.7501326666666667 -0.5257293333333334
900452674 0.7483420000000001 -0.5225723333333333
901938553 0.7523716666666665 -0.525073
903424432 0.7542776666666667 -0.5292443333333333
904910311 0.7565050000000001 -0.5311526666666667
906396190 0.7571816666666665 -0.5337166666666666
907882069 0.757603 -0.5356886666666666
909367948 0.7593866666666668 -0.5393836666666667
910853827 0.7575896666666666 -0.5402783333333333
912339706 0.7598573333333333 -0.5410643333333334
913825585 0.7591610000000001 -0.541346
915311464 0.759579 -0.5425703333333333
916797343 0.7577803333333333 -0.5425956666666667
918283222 0.7557703333333333 -0.5433426666666666
919769101 0.7552546666666666 -0.541862
921254980 0.7535103333333334 -0.538902
922740859 0.7518423333333333 -0.5390366666666667
924226738 0.7479686666666666 -0.5371009999999999
925712617 0.7471336666666666 -0.536962
927198496 0.7426463333333334 -0.5346796666666667
928684375 0.7376656666666667 -0.5346406666666667
930170254 0.749396 -0.521453
931656133 0.751567 -0.5265050000000001
933142012 0.7546006666666667 -0.5267896666666666
934627891 0.7552226666666666 -0.5306596666666666
936113770 0.7560570000000001 -0.5330243333333334
937599649 0.7574036666666667 -0.5361946666666667
939085528 0.7595416666666667 -0.5366833333333333
940571407 0.7587553333333333 -0.539072
942057286 0.7601950000000001 -0.5401816666666667
943543165 0.7620359999999998 -0.5391006666666667
945029044 0.7479766666666667 -0.5501943333333333
946514923 0.7471973333333333 -0.5509506666666667
948000802 0.7473303333333333 -0.551249
949486681 0.7458013333333332 -0.5492713333333333
950972560 0.7461056666666667 -0.5478139999999999
952458439 0.7451283333333333 -0.5448936666666667
953944318 0.7416203333333334 -0.546515
955430197 0.739182 -0.5444723333333333
956916076 0.7383546666666666 -0.5405340000000001
958401955 0.7338109999999999 -0.539502
959887834 0.7296956666666667 -0.5371576666666668
961373713 0.7316753333333333 -0.5409466666666667
962859592 0.7331233333333333 -0.5438999999999999
964345471 0.7355046666666666 -0.546709
965831350 0.7343336666666667 -0.5497470000000001
967317229 0.7353283333333334 -0.5517943333333334
968803108 0.7354756666666665 -0.553396
970288987 0.7376359999999998 -0.5536896666666666
971774866 0.7378439999999999 -0.5545576666666667
973260745 0.7364136666666666 -0.5562956666666667
974746624 0.7375980000000001 -0.5567873333333333
976232503 0.7376333333333333 -0.5567413333333334
977718382 0.7347773333333333 -0.5578613333333333
979204261 0.7339243333333334 -0.5580846666666667
980690140 0.733998 -0.5565943333333333
982176019 0.731827 -0.5552
983661898 0.7301856666666667 -0.5551563333333334
985147777 0.7259756666666667 -0.5543956666666666
986633656 0.72503 -0.5528393333333333
988119535 0.7217713333333333 -0.5520286666666666
989605414 0.7179350000000001 -0.5496556666666667
991091293 0.718557 -0.5521103333333334
992577172 0.7200456666666667 -0.5534913333333333
994063051 0.7209593333333334 -0.5564436666666667
995548930 0.7221853333333333 -0.558612
997034809 0.7231086666666666 -0.5608473333333334
998520688 0.7240030000000001 -0.562003
1000006567 0.7231916666666667 -0.5641486666666667
1001492446 0.723039 -0.5649756666666667
1002978325 0.7234109999999999 -0.564868
1004464204 0.7235316666666667 -0.5651926666666666
1005950083 0.7228616666666666 -0.5657476666666666
1007435962 0.721168 -0.5654016666666667
1008921841 0.7211776666666667 -0.5643403333333333
1010407720 0.7190503333333332 -0.5627233333333334
1011893599 0.7157629999999999 -0.5649543333333332
1013379478 0.7162023333333334 -0.561036
1014865357 0.7123353333333333 -0.5605216666666667
1016351236 0.709459 -0.5595866666666667
1017837115 0.7077753333333333 -0.55685
1019322994 0.702826 -0.556889
1020808873 0.7038763333333332 -0.5558183333333333
1022294752 0.702782 -0.5608026666666667
1023780631 0.7054269999999999 -0.561705
1025266510 0.7067783333333333 -0.5646093333333333
1026752389 0.7080006666666666 -0.566135
1028238268 0.7090293333333334 -0.5674353333333334
1029724147 0.7084036666666668 -0.5698903333333333
1031210026 0.7093416666666666 -0.5699666666666666
1032695905 0.707662 -0.5727463333333334
1034181784 0.708643 -0.5718343333333333
1035667663 0.7095843333333334 -0.5722676666666667
1037153542 0.7088333333333333 -0.5706813333333333
1038639421 0.7070533333333334 -0.5716863333333334
1040125300 0.7046763333333333 -0.5719043333333333
1041611179 0.703307 -0.5715326666666666
1043097058 0.7025683333333334 -0.5683626666666667
1044582937 0.6996603333333334 -0.568583
1046068816 0.6965753333333332 -0.5675366666666667
1047554695 0.6938983333333333 -0.5665290000000001
1049040574 0.6911686666666667 -0.5658563333333334
1050526453 0.6925340000000001 -0.5628523333333333
1052012332 0.6939496666666667 -0.566219
1053498211 0.6965763333333334 -0.5685353333333334
1054984090 0.6985826666666668 -0.569635
1056469969 0.6994953333333332 -0.5721053333333334
1057955848 0.700527 -0.5732443333333334
1059441727 0.7004906666666667 -0.57545
1060927606 0.702127 -0.5765453333333332
1062413485 0.7029610000000001 -0.5765129999999999
1063899364 0.7018113333333332 -0.578879
1065385243 0.7009106666666667 -0.5786456666666666
1066871122 0.7001033333333333 -0.5786673333333333
1068357001 0.6985983333333333 -0.5780413333333333
1069842880 0.7002386666666668 -0.5753426666666667
1071328759 0.697461 -0.5774786666666666
1072814638 0.695212 -0.577477
1074300517 0.6922686666666666 -0.5760906666666666
1075786396 0.6906506666666666 -0.5758433333333334
1077272275 0.688522 -0.572033
1078758154 0.6853183333333334 -0.5726893333333333
1080244033 0.6813976666666667 -0.571428
1081729912 0.6829336666666667 -0.5750426666666667
1083215791 0.6903743333333333 -0.5741483333333334
1084701670 0.6870976666666667 -0.5791676666666666
1086187549 0.6892236666666666 -0.5803060000000001
1087673428 0.6899223333333332 -0.5826353333333333
1089159307 0.6916913333333333 -0.5838716666666667
1090645186 0.6895536666666667 -0.5873243333333333
1092131065 0.6929323333333333 -0.584836
1093616944 0.6920453333333333 -0.5860073333333333
1095102823 0.690208 -0.5854143333333334
1096588702 0.6906573333333333 -0.5864683333333334
1098074581 0.6897193333333332 -0.585079
1099560460 0.6893283333333334 -0.5845036666666666
1101046339 0.6858223333333333 -0.5852976666666666
1102532218 0.68375 -0.5841503333333333
1104018097 0.6817726666666667 -0.5827260000000001
1105503976 0.6797056666666667 -0.5804213333333332
1106989855 0.6763686666666667 -0.5798353333333334
1108475734 0.6720839999999999 -0.5785823333333333
1109961613 0.668587 -0.5767720000000001
1111447492 0.67027 -0.5802273333333333
1112933371 0.6735626666666666 -0.580955
1114419250 0.6732606666666667 -0.5843666666666666
1115905129 0.6764389999999999 -0.5877016666666667
1117391008 0.6782803333333334 -0.5886503333333334
1118876887 0.6771583333333333 -0.5914713333333333
1120362766 0.6784089999999999 -0.5916669999999999
1121848645 0.6784279999999999 -0.5927306666666666
1123334524 0.6769059999999999 -0.5939009999999999
1124820403 0.6782263333333333 -0.594637
1126306282 0.6790556666666667 -0.594005
1127792161 0.6786876666666668 -0.5948466666666666
1129278040 0.6770376666666666 -0.593193
1130763919 0.6729440000000001 -0.5957586666666667
1132249798 0.6708256666666667 -0.5940166666666666
1133735677 0.670759 -0.591946
1135221556 0.6890246666666666 -0.5859426666666666
1136707435 0.663246 -0.5911543333333333
1138193314 0.6615723333333333 -0.5880839999999999
1139679193 0.6564673333333334 -0.5862076666666667
1141165072 0.654518 -0.5893813333333333
1142650951 0.657582 -0.5920156666666667
1144136830 0.6614436666666667 -0.5946236666666667
1145622709 0.6627386666666667 -0.5972073333333334
1147108588 0.6631760000000001 -0.5993966666666667
1148594467 0.6635213333333333 -0.602122
1150080346 0.6654516666666667 -0.6022923333333333
1151566225 0.6652846666666666 -0.6032336666666667
1153052104 0.6657783333333334 -0.6045376666666668
1154537983 0.6648293333333333 -0.6061610000000001
1156023862 0.662582 -0.6068683333333333
1157509741 0.6632096666666666 -0.602973
1158995620 0.6639223333333334 -0.6025686666666666
1160481499 0.6591516666666667 -0.6037303333333334
1161967378 0.6580826666666666 -0.602812
1163453257 0.656018 -0.5998466666666666
1164939136 0.6536266666666667 -0.5983026666666666
1166425015 0.648059 -0.5976253333333333
1167910894 0.6469513333333333 -0.595325
1169396773 0.640211 -0.5936443333333333
1170882652 0.640656 -0.5940653333333333
1172368531 0.6415476666666667 -0.5980123333333334
1173854410 0.643325 -0.600203
1175340289 0.6479073333333334 -0.600646
1176826168 0.6456543333333333 -0.604204
1178312047 0.6493656666666667 -0.603583
1179797926 0.645856 -0.6092633333333334
1181283805 0.6510243333333333 -0.6051323333333333
1182769684 0.6423123333333334 -0.6136486666666666
1184255563 0.6482826666666667 -0.6090743333333334
1185741442 0.6424646666666667 -0.6115940000000001
1187227321 0.647013 -0.608205
1188713200 0.6396396666666666 -0.6105986666666667
1190199079 0.6447036666666667 -0.6069559999999999
1191684958 0.6337596666666667 -0.6119996666666667
1193170837 0.640235 -0.6043343333333333
1194656716 0.6292953333333334 -0.6081156666666666
1196142595 0.6334666666666667 -0.5994136666666666
1197628474 0.6247206666666666 -0.6038563333333333
1199114353 0.626521 -0.5955863333333333
1200600232 0.6193946666666666 -0.6009386666666666
1202086111 0.6245523333333334 -0.6026926666666667
1203571990 0.6282893333333334 -0.6045796666666666
1205057869 0.6287476666666666 -0.6090049999999999
1206543748 0.6302656666666667 -0.6101693333333333
1208029627 0.6308893333333333 -0.6130783333333333
1209515506 0.6295973333333333 -0.6166566666666666
1211001385 0.6310563333333333 -0.6167206666666667
1212487264 0.6302716666666667 -0.6189399999999999
1213973143 0.6336926666666667 -0.61797
1215459022 0.633402 -0.618557
1216944901 0.6312366666666667 -0.6196233333333333
1218430780 0.6322716666666667 -0.6169920000000001
1219916659 0.6308406666666667 -0.6164793333333333
1221402538 0.6296856666666666 -0.614948
1222888417 0.628423 -0.6131216666666667
1224374296 0.625718 -0.611948
1225860175 0.6232943333333333 -0.6095513333333334
1227346054 0.5867746666666666 -0.5996666666666667
1228831933 0.6188079999999999 -0.6042296666666667
1230317812 0.6146263333333334 -0.6029376666666667
1231803691 0.617514 -0.6068166666666667
1233289570 0.6169510000000001 -0.610548
1234775449 0.6195796666666668 -0.6115719999999999
1236261328 0.6201543333333334 -0.6135849999999999
1237747207 0.619834 -0.617641
1239233086 0.6219406666666667 -0.616475
1240718965 0.6209616666666666 -0.6182503333333335
1242204844 0.6230573333333332 -0.6186346666666667
1243690723 0.6212616666666667 -0.6198163333333333
1245176602 0.6227806666666668 -0.618076
1246662481 0.6225453333333334 -0.6180286666666667
1248148360 0.6211253333333333 -0.61609
1249634239 0.6189856666666668 -0.616076
1251120118 0.6195096666666666 -0.613304
1252605997 0.616267 -0.611616
1254091876 0.6124026666666667 -0.6123163333333332
1255577755 0.610869 -0.6075516666666667
1257063634 0.6078486666666667 -0.6045059999999999
1258549513 0.6068753333333333 -0.602216
1260035392 0.601498 -0.599239
1261521271 0.6033676666666666 -0.603027
1263007150 0.6045816666666667 -0.6050793333333333
1264493029 0.6061423333333333 -0.6065366666666666
1265978908 0.6047543333333333 -0.6106513333333333
1267464787 0.603981 -0.615069
1268950666 0.6042706666666667 -0.616226
1270436545 0.6058406666666666 -0.6156066666666667
1271922424 0.6023736666666667 -0.6186579999999999
1273408303 0.6036803333333333 -0.619906
1274894182 0.6019833333333334 -0.6213606666666666
1276380061 0.600815 -0.620691
1277865940 0.600303 -0.6233163333333334
1279351819 0.5988883333333334 -0.6216863333333333
1280837698 0.597235 -0.6194526666666667
1282323577 0.597088 -0.6175056666666667
1283809456 0.5928563333333333 -0.6206813333333333
1285295335 0.5910399999999999 -0.6174833333333334
1286781214 0.5891383333333334 -0.615247
1288267093 0.5859763333333333 -0.613622
1289752972 0.581488 -0.6100066666666667
1291238851 0.5844536666666666 -0.6150773333333333
1292724730 0.5834849999999999 -0.6163713333333333
1294210609 0.5861993333333334 -0.6196306666666667
1295696488 0.587309 -0.6222906666666667
1297182367 0.5859833333333334 -0.6227543333333334
1298668246 0.5879340000000001 -0.6251846666666666
1300154125 0.5892313333333333 -0.6245246666666666
1301640004 0.5895083333333333 -0.6263926666666667
1303125883 0.5904900000000001 -0.626214
1304611762 0.5918446666666667 -0.627506
1306097641 0.5901293333333334 -0.6263343333333334
1307583520 0.5919316666666666 -0.6263073333333333
1309069399 0.5891120000000001 -0.6243873333333333
1310555278 0.589563 -0.6230156666666667
1312041157 0.5886166666666667 -0.623187
1313527036 0.5888646666666667 -0.6207376666666667
1315012915 0.5864833333333334 -0.6186656666666667
1316498794 0.5846293333333333 -0.6174946666666666
1317984673 0.5837976666666668 -0.6141330000000002
1319470552 0.5781149999999999 -0.612105
1320956431 0.5833160000000001 -0.6126303333333333
1322442310 0.5827380000000001 -0.61173
1323928189 0.5819496666666667 -0.6194743333333332
1325414068 0.582132 -0.6199983333333333
1326899947 0.5827483333333333 -0.6227093333333333
1328385826 0.5848253333333334 -0.6259563333333333
1329871705 0.5830783333333333 -0.625431
1331357584 0.5863393333333332 -0.6248546666666667
1332843463 0.5860056666666666 -0.6265973333333333
1334329342 0.5854616666666667 -0.631486
1335815221 0.5850863333333334 -0.6288656666666667
1337301100 0.585597 -0.6303986666666667
1338786979 0.5846303333333334 -0.6289093333333333
1340272858 0.5847643333333333 -0.6280023333333333
1341758737 0.5808216666666667 -0.6291283333333334
1343244616 0.5812080000000001 -0.627656
1344730495 0.5795536666666666 -0.6249060000000001
1346216374 0.5784219999999999 -0.624624
1347702253 0.5762816666666667 -0.622811
1349188132 0.576078 -0.6199093333333333
1350674011 0.5772343333333333 -0.6187773333333334
1352159890 0.5776033333333334 -0.6207513333333333
1353645769 0.579005 -0.6251013333333333
1355131648 0.5790576666666666 -0.6234726666666667
1356617527 0.5775643333333333 -0.6254093333333334
1358103406 0.577251 -0.6285723333333334
1359589285 0.575331 -0.6306526666666666
1361075164 0.5738606666666667 -0.628867
1362561043 0.575034 -0.6291626666666666
1364046922 0.572779 -0.6315366666666667
1365532801 0.5720293333333334 -0.631617
1367018680 0.5705173333333332 -0.6307636666666667
1368504559 0.5690713333333334 -0.6309313333333333
1369990438 0.5633546666666667 -0.628501
1371476317 0.5625336666666666 -0.6296523333333334
1372962196 0.5610476666666666 -0.627488
1374448075 0.5593146666666667 -0.6270266666666666
1375933954 0.5410923333333333 -0.6369856666666668
1377419833 0.5460706666666667 -0.6285506666666666
1378905712 0.5493773333333333 -0.6218483333333333
1380391591 0.5465863333333333 -0.6233883333333333
1381877470 0.549116 -0.6249423333333334
1383363349 0.5486566666666667 -0.6305893333333333
1384849228 0.5520360000000001 -0.6317150000000001
1386335107 0.555362 -0.6320876666666667
1387820986 0.5573353333333334 -0.631331
1389306865 0.5580033333333333 -0.634757
1390792744 0.5576386666666666 -0.6378023333333334
1392278623 0.5584556666666667 -0.6378956666666666
1393764502 0.560223 -0.6365
1395250381 0.5592866666666667 -0.636483
1396736260 0.5604220000000001 -0.636791
1398222139 0.561005 -0.6350846666666667
1399708018 0.5623036666666666 -0.6328156666666667
1401193897 0.5597476666666666 -0.633682
1402679776 0.5585333333333334 -0.6314826666666667
1404165655 0.5573009999999999 -0.6324776666666666
1405651534 0.5571333333333334 -0.629768
1407137413 0.554848 -0.6277356666666667
1408623292 0.551055 -0.6262773333333334
1410109171 0.5509436666666666 -0.6230509999999999
1411595050 0.5547933333333334 -0.624339
1413080929 0.5553833333333333 -0.6287760000000001
1414566808 0.5566209999999999 -0.6334543333333333
1416052687 0.5602073333333334 -0.6333756666666667
1417538566 0.560569 -0.6367550000000001
1419024445 0.5620283333333334 -0.637768
1420510324 0.5633976666666667 -0.6385016666666666
1421996203 0.5645156666666667 -0.6390609999999999
1423482082 0.5631499999999999 -0.6391016666666667
1424967961 0.5647496666666667 -0.638608
1426453840 0.564623 -0.6396433333333333
1427939719 0.5638983333333334 -0.639526
1429425598 0.5659543333333333 -0.636875
1430911477 0.5612086666666666 -0.639034
1432397356 0.557953 -0.637304
1433883235 0.5618876666666667 -0.636578
1435369114 0.5614983333333333 -0.6351373333333333
1436854993 0.5576293333333333 -0.6300279999999999
1438340872 0.55526 -0.62999
1439826751 0.5556576666666667 -0.6266576666666667
1441312630 0.5540466666666667 -0.6310696666666668
1442798509 0.555587 -0.6321596666666667
1444284388 0.5567036666666666 -0.6350029999999999
1445770267 0.5572006666666667 -0.636982
1447256146 0.5549803333333334 -0.6383960000000001
1448742025 0.5579106666666667 -0.638271
1450227904 0.5572056666666667 -0.6401746666666667
1451713783 0.5562876666666666 -0.6411186666666666
1453199662 0.5574816666666667 -0.6408619999999999
1454685541 0.5546456666666667 -0.6415133333333333
1456171420 0.5544173333333333 -0.640686
1457657299 0.5547133333333334 -0.6402216666666667
1459143178 0.5517443333333333 -0.6395156666666667
1460629057 0.5508286666666666 -0.6371863333333333
1462114936 0.5481323333333333 -0.637778
1463600815 0.5459520000000001 -0.6359513333333333
1465086694 0.5436869999999999 -0.634343
1466572573 0.5393223333333333 -0.6324626666666667
1468058452 0.5351353333333334 -0.6309896666666667
1469544331 0.529769 -0.629825
1471030210 0.5324780000000001 -0.6299656666666666
1472516089 0.5359536666666668 -0.6327626666666667
1474001968 0.5368683333333334 -0.6367526666666666
1475487847 0.5365340000000001 -0.639548
1476973726 0.537381 -0.6423926666666667
1478459605 0.5405236666666666 -0.6421966666666666
1479945484 0.5402113333333333 -0.6444846666666667
1481431363 0.5407316666666667 -0.645397
1482917242 0.5392963333333334 -0.6474216666666667
1484403121 0.542879 -0.6459423333333333
1485889000 0.5402233333333334 -0.6466266666666667
1487374879 0.541986 -0.6450263333333334
1488860758 0.5412516666666667 -0.6439716666666667
1490346637 0.5395126666666666 -0.6439309999999999
1491832516 0.537253 -0.6429766666666666
1493318395 0.536407 -0.641679
1494804274 0.5337263333333334 -0.6395126666666667
1496290153 0.530224 -0.638598
1497776032 0.5276756666666667 -0.6358893333333334
1499261911 0.5248466666666667 -0.6324826666666666
1500747790 0.5284406666666667 -0.6320803333333332
1502233669 0.525308 -0.63513
1503719548 0.5291663333333333 -0.638167
1505205427 0.529106 -0.6414080000000001
1506691306 0.5310156666666667 -0.6425613333333334
1508177185 0.5297803333333334 -0.6457043333333333
1509663064 0.5315453333333333 -0.645827
1511148943 0.5314756666666667 -0.6491346666666667
1512634822 0.5343806666666667 -0.6490716666666667
1514120701 0.5295643333333334 -0.650052
1515606580 0.5315033333333333 -0.6470893333333334
1517092459 0.5294279999999999 -0.6485866666666668
1518578338 0.527333 -0.6489813333333333
1520064217 0.5273016666666667 -0.6462563333333333
1521550096 0.5230253333333333 -0.6486580000000001
1523035975 0.5215080000000001 -0.6468926666666667
1524521854 0.5201113333333334 -0.644125
1526007733 0.5134323333333334 -0.6423523333333333
1527493612 0.5138816666666667 -0.637598
1528979491 0.5110313333333333 -0.6366936666666666
1530465370 0.510475 -0.6377646666666666
1531951249 0.5105103333333333 -0.6413153333333333
1533437128 0.5103453333333333 -0.6444813333333334
1534923007 0.5113786666666665 -0.6467329999999999
1536408886 0.5112603333333333 -0.6495283333333334
1537894765 0.5155026666666666 -0.6501406666666667
1539380644 0.5130846666666666 -0.6528696666666667
1540866523 0.5155066666666667 -0.6521823333333333
1542352402 0.515838 -0.6527186666666668
1543838281 0.516045 -0.6539586666666666
1545324160 0.5182303333333333 -0.6502933333333333
1546810039 0.5146206666666667 -0.6510003333333333
1548295918 0.5128876666666667 -0.6501976666666667
1549781797 0.514339 -0.645981
1551267676 0.5126113333333333 -0.6473303333333333
1552753555 0.5090266666666667 -0.6452273333333333
1554239434 0.5060086666666667 -0.6436689999999999
1555725313 0.5039103333333333 -0.6399396666666667
1557211192 0.500703 -0.6380506666666667
1558697071 0.49807099999999993 -0.6372433333333333
1560182950 0.4940263333333334 -0.632541
1561668829 0.496621 -0.6366906666666666
1563154708 0.49481233333333335 -0.6410753333333333
1564640587 0.4977956666666667 -0.64237
1566126466 0.4977116666666666 -0.646797
1567612345 0.4984003333333334 -0.6491563333333333
1569098224 0.499943 -0.6494903333333334
1570584103 0.4988683333333333 -0.6514706666666666
1572069982 0.4984516666666667 -0.6523199999999999
1573555861 0.5014606666666667 -0.652298
1575041740 0.49790566666666675 -0.6534933333333334
1576527619 0.49918100000000004 -0.651837
1578013498 0.4973933333333333 -0.6528393333333333
1579499377 0.49760033333333337 -0.6521963333333334
1580985256 0.46826233333333334 -0.6436609999999999
1582471135 0.49412666666666666 -0.65104
1583957014 0.49353166666666665 -0.6485156666666667
1585442893 0.489109 -0.6432416666666666
1586928772 0.48922766666666667 -0.6436616666666667
1588414651 0.4858176666666667 -0.6425746666666666
1589900530 0.48438066666666674 -0.6380246666666666
1591386409 0.48450499999999996 -0.6420199999999999
1592872288 0.48693433333333336 -0.6441500000000001
1594358167 0.48425133333333337 -0.6486423333333334
1595844046 0.4840913333333334 -0.6514253333333334
1597329925 0.48742833333333335 -0.6516829999999999
1598815804 0.4910126666666666 -0.6507386666666667
1600301683 0.48696466666666666 -0.6539756666666667
1601787562 0.488915 -0.654902
1603273441 0.48744699999999996 -0.6572043333333333
1604759320 0.4891563333333333 -0.6546443333333334
1606245199 0.48881766666666665 -0.6546230000000001
1607731078 0.487714 -0.6554143333333333
1609216957 0.48445933333333335 -0.6560816666666667
1610702836 0.486308 -0.6524933333333334
1612188715 0.4859266666666666 -0.6515606666666666
1613674594 0.4841956666666667 -0.6495110000000001
1615160473 0.48047033333333333 -0.6487263333333333
1616646352 0.47962766666666673 -0.6457456666666667
1618132231 0.47875533333333337 -0.642186
1619618110 0.4759453333333334 -0.639447
1621103989 0.476033 -0.6424599999999999
1622589868 0.4780546666666667 -0.6434446666666666
1624075747 0.4767683333333333 -0.6467893333333333
1625561626 0.477114 -0.650205
1627047505 0.47618266666666664 -0.6523053333333333
1628533384 0.47279333333333334 -0.6556480000000001
1630019263 0.47619933333333336 -0.6554063333333333
1631505142 0.47654233333333335 -0.6553043333333334
1632991021 0.4748156666666667 -0.658124
1634476900 0.47753500000000004 -0.6558350000000001
1635962779 0.476018 -0.657895
1637448658 0.4736983333333333 -0.658915
1638934537 0.47254066666666666 -0.6584116666666667
1640420416 0.47236866666666666 -0.6576183333333333
1641906295 0.46889000000000003 -0.6578503333333333
1643392174 0.46951866666666664 -0.654341
1644878053 0.46903866666666666 -0.652018
1646363932 0.46545499999999995 -0.6518443333333334
1647849811 0.458184 -0.651784
1649335690 0.459057 -0.6490130000000001
1650821569 0.4537926666666667 -0.6515613333333333
1652307448 0.4528256666666666 -0.6540933333333333
1653793327 0.45465266666666665 -0.6548943333333334
1655279206 0.4541583333333333 -0.657842
1656765085 0.454482 -0.6597783333333332
1658250964 0.4551786666666667 -0.6620183333333333
1659736843 0.45652866666666664 -0.661609
1661222722 0.45566100000000004 -0.6626923333333333
1662708601 0.45494799999999996 -0.6621083333333333
1664194480 0.456258 -0.661983
1665680359 0.452764 -0.6622963333333334
1667166238 0.4527116666666666 -0.6631459999999999
1668652117 0.4526493333333333 -0.6611713333333333
1670137996 0.450936 -0.66188
1671623875 0.4507873333333334 -0.658367
1673109754 0.44995366666666664 -0.6556123333333334
1674595633 0.4492026666666667 -0.655023
1676081512 0.41516033333333335 -0.6402389999999999
1677567391 0.4374196666666667 -0.646309
1679053270 0.44080733333333333 -0.648732
1680539149 0.4387783333333333 -0.6481136666666667
1682025028 0.44262033333333334 -0.6501819999999999
1683510907 0.4418336666666667 -0.6531846666666666
1684996786 0.44192800000000004 -0.657343
1686482665 0.444181 -0.6590683333333334
1687968544 0.445009 -0.6595263333333334
1689454423 0.44594966666666663 -0.6608376666666667
1690940302 0.4456543333333333 -0.6608386666666667
1692426181 0.4480963333333334 -0.6634486666666667
1693912060 0.44992766666666667 -0.65991
1695397939 0.451065 -0.659364
1696883818 0.4468973333333333 -0.6620356666666667
1698369697 0.44853366666666666 -0.6609973333333333
1699855576 0.4475763333333333 -0.6598376666666667
1701341455 0.44665166666666667 -0.659848
1702827334 0.442432 -0.6579456666666667
1704313213 0.44975566666666666 -0.652553
1705799092 0.439132 -0.6535543333333335
1707284971 0.4455226666666667 -0.6499240000000001
1708770850 0.4363533333333333 -0.6498473333333333
1710256729 0.4412473333333334 -0.6475606666666667
1711742608 0.4354073333333333 -0.6515460000000001
1713228487 0.44725466666666663 -0.6501666666666667
1714714366 0.436822 -0.6563706666666667
1716200245 0.44676699999999997 -0.654131
1717686124 0.43842800000000004 -0.657906
1719172003 0.44969333333333333 -0.653935
1720657882 0.43990900000000005 -0.6581086666666667
1722143761 0.44824033333333335 -0.65852
1723629640 0.43759533333333334 -0.6614840000000001
1725115519 0.448031 -0.6570916666666666
1726601398 0.439501 -0.6606133333333334
1728087277 0.4456196666666667 -0.6568126666666666
1729573156 0.437437 -0.6627740000000001
1731059035 0.43634633333333334 -0.6566076666666666
1732544914 0.44401 -0.6516436666666667
1734030793 0.4332606666666667 -0.6536420000000001
1735516672 0.43865766666666667 -0.6502486666666667
1737002551 0.42774266666666666 -0.650305
1738488430 0.4347653333333334 -0.6443616666666667
1739974309 0.42259599999999997 -0.6462003333333334
1741460188 0.431689 -0.6449306666666667
1742946067 0.4236963333333333 -0.652577
1744431946 0.43410566666666667 -0.6506416666666667
1745917825 0.4265756666666667 -0.6550193333333333
1747403704 0.4282863333333333 -0.6579153333333333
1748889583 0.43302933333333327 -0.657552
1750375462 0.4356433333333333 -0.6584473333333333
1751861341 0.4311323333333334 -0.6597896666666666
1753347220 0.4310513333333333 -0.6615556666666667
1754833099 0.43287600000000004 -0.6626059999999999
1756318978 0.430892 -0.6594776666666667
1757804857 0.43095666666666665 -0.6611009999999999
1759290736 0.4311793333333333 -0.660971
1760776615 0.43091666666666667 -0.6588266666666666
1762262494 0.42843866666666663 -0.6596286666666668
1763748373 0.4315166666666667 -0.656563
1765234252 0.4282983333333333 -0.6556463333333333
1766720131 0.426752 -0.6515073333333333
1768206010 0.42191033333333333 -0.6499893333333334
1769691889 0.4227936666666667 -0.6476163333333332
1771177768 0.42191433333333334 -0.65061
1772663647 0.4224213333333333 -0.6536293333333334
1774149526 0.424692 -0.655887
1775635405 0.42680333333333337 -0.6560686666666666
1777121284 0.427189 -0.658998
1778607163 0.422367 -0.6626773333333333
1780093042 0.4253183333333333 -0.6635416666666667
1781578921 0.42750366666666667 -0.6636366666666667
1783064800 0.4295226666666667 -0.6636943333333333
1784550679 0.431544 -0.6627986666666666
1786036558 0.42902999999999997 -0.660992
1787522437 0.4269673333333333 -0.6633563333333333
1789008316 0.42786900000000005 -0.6615533333333333
1790494195 0.4296933333333333 -0.6606139999999999
1791980074 0.4264833333333333 -0.6603043333333334
1793465953 0.4250943333333333 -0.65835
1794951832 0.425945 -0.6551846666666666
1796437711 0.4230323333333333 -0.6533150000000001
1797923590 0.4214846666666667 -0.6506253333333333
1799409469 0.41899166666666665 -0.647551
1800895348 0.42317199999999994 -0.6466073333333333
1802381227 0.4237333333333333 -0.6486226666666667
1803867106 0.424798 -0.6500486666666667
1805352985 0.4255103333333334 -0.6517733333333334
1806838864 0.42462466666666665 -0.6545763333333333
1808324743 0.4281606666666667 -0.6563876666666667
1809810622 0.4265163333333333 -0.6563256666666666
1811296501 0.4263936666666666 -0.657719
1812782380 0.4308746666666667 -0.656756
1814268259 0.4274023333333334 -0.6569533333333333
1815754138 0.42805000000000004 -0.6565366666666667
1817240017 0.42456166666666667 -0.6558343333333333
1818725896 0.4301506666666666 -0.6520256666666667
1820211775 0.417988 -0.6555346666666666
1821697654 0.423697 -0.65132
1823183533 0.4222066666666667 -0.6491823333333333
1824669412 0.4197403333333333 -0.6485666666666666
1826155291 0.4160463333333333 -0.645199
1827641170 0.4320836666666667 -0.6460456666666666
1829127049 0.41213833333333333 -0.640914
1830612928 0.40810133333333337 -0.640568
1832098807 0.4101646666666667 -0.6419186666666666
1833584686 0.412411 -0.6460473333333333
1835070565 0.41206899999999996 -0.6487853333333333
1836556444 0.41317833333333337 -0.650503
1838042323 0.41080633333333333 -0.6513866666666667
1839528202 0.4151183333333333 -0.6557703333333333
1841014081 0.41295166666666666 -0.6541676666666667
1842499960 0.4151606666666667 -0.6558816666666667
1843985839 0.411499 -0.657909
1845471718 0.413866 -0.657041
1846957597 0.4142956666666667 -0.6554333333333333
1848443476 0.41321433333333335 -0.6553296666666667
1849929355 0.41366900000000006 -0.655577
1851415234 0.410298 -0.6548846666666667
1852901113 0.41521 -0.6534166666666666
1854386992 0.4053966666666667 -0.6528613333333334
1855872871 0.40618400000000005 -0.652016
1857358750 0.40197 -0.6491349999999999
1858844629 0.40451300000000007 -0.6454719999999999
1860330508 0.399735 -0.6444066666666667
1861816387 0.402465 -0.6481073333333333
1863302266 0.4050226666666667 -0.6495793333333334
1864788145 0.4042413333333334 -0.652263
1866274024 0.4067523333333333 -0.654178
1867759903 0.40399699999999994 -0.6570643333333334
1869245782 0.40733099999999994 -0.6573803333333333
1870731661 0.40430633333333327 -0.6609266666666667
1872217540 0.3898686666666667 -0.6573186666666667
1873703419 0.4039873333333333 -0.661053
1875189298 0.4070723333333333 -0.6602713333333333
1876675177 0.40597466666666665 -0.6600823333333333
1878161056 0.4038663333333334 -0.6611403333333333
1879646935 0.40362500000000007 -0.6593886666666666
1881132814 0.4166593333333333 -0.6535386666666666
1882618693 0.402896 -0.6564346666666667
1884104572 0.40508799999999995 -0.6539606666666666
1885590451 0.4015856666666667 -0.6524536666666667
1887076330 0.397821 -0.6513746666666667
1888562209 0.398803 -0.646961
1890048088 0.39445833333333336 -0.6460026666666666
1891533967 0.3970086666666666 -0.6486109999999999
1893019846 0.400125 -0.6496723333333333
1894505725 0.3980863333333334 -0.6539546666666666
1895991604 0.395486 -0.651749
1897477483 0.3993516666666667 -0.655067
1898963362 0.40123133333333333 -0.655337
1900449241 0.395928 -0.6562783333333334
1901935120 0.397445 -0.6584973333333334
1903420999 0.3984493333333334 -0.6582263333333332
1904906878 0.400681 -0.6557646666666667
1906392757 0.3964323333333333 -0.6550443333333333
1907878636 0.39889766666666665 -0.6533503333333334
1909364515 0.39719233333333337 -0.6545433333333334
1910850394 0.39527 -0.6535836666666667
1912336273 0.39421600000000007 -0.6499556666666666
1913822152 0.392836 -0.6493856666666665
1915308031 0.391688 -0.6477093333333334
1916793910 0.39058600000000004 -0.6419383333333334
1918279789 0.38557033333333335 -0.6423203333333333
1919765668 0.38598233333333337 -0.6393683333333334
1921251547 0.3885436666666666 -0.638128
1922737426 0.3829486666666666 -0.6444366666666667
1924223305 0.3854936666666666 -0.6456283333333332
1925709184 0.38907866666666663 -0.647783
1927195063 0.38735633333333336 -0.6495793333333334
1928680942 0.387483 -0.6531133333333333
1930166821 0.38898933333333335 -0.6551716666666667
1931652700 0.38863433333333336 -0.653952
1933138579 0.387611 -0.6556023333333334
1934624458 0.38967100000000005 -0.653987
1936110337 0.387306 -0.6554543333333332
1937596216 0.38565066666666664 -0.6562506666666666
1939082095 0.38649666666666666 -0.6565119999999999
1940567974 0.3865693333333333 -0.6550889999999999
1942053853 0.3837756666666667 -0.6544433333333334
1943539732 0.38506033333333334 -0.6519320000000001
1945025611 0.3824033333333334 -0.6515636666666667
1946511490 0.3836933333333333 -0.646907
1947997369 0.3790153333333333 -0.6461220000000001
1949483248 0.3784783333333333 -0.643547
1950969127 0.3796826666666666 -0.6455143333333333
1952455006 0.381473 -0.6463296666666667
1953940885 0.3806056666666667 -0.6498126666666667
1955426764 0.37951633333333334 -0.6521966666666666
1956912643 0.38127700000000003 -0.6544063333333333
1958398522 0.38150033333333333 -0.6540643333333334
1959884401 0.384066 -0.652972
1961370280 0.3820926666666667 -0.6561903333333333
1962856159 0.38142633333333337 -0.6550343333333334
1964342038 0.383546 -0.6541186666666666
1965827917 0.38063566666666665 -0.6552446666666667
1967313796 0.372093 -0.6579546666666666
1968799675 0.37659966666666667 -0.6536836666666667
1970285554 0.3891273333333333 -0.6488366666666667
1971771433 0.3793676666666667 -0.6526506666666666
1973257312 0.377567 -0.6487973333333333
1974743191 0.37843699999999997 -0.6475186666666667
1976229070 0.341382 -0.6273173333333333
1977714949 0.37266400000000005 -0.6454099999999999
1979200828 0.37042966666666666 -0.6423336666666666
1980686707 0.3681566666666667 -0.6420853333333333
1982172586 0.36797366666666664 -0.6438366666666667
1983658465 0.37126566666666666 -0.6450466666666667
1985144344 0.37144 -0.6489296666666666
1986630223 0.36910933333333334 -0.6488956666666666
1988116102 0.3692776666666666 -0.6530360000000001
1989601981 0.37058933333333327 -0.657124
1991087860 0.37341833333333335 -0.6534746666666668
1992573739 0.37293400000000004 -0.6541086666666667
1994059618 0.385431 -0.649995
1995545497 0.37343866666666664 -0.6538626666666666
1997031376 0.37191166666666664 -0.6524633333333334
1998517255 0.3688936666666667 -0.6519303333333334
2000003134 0.3701406666666667 -0.6528349999999999
2001489013 0.36934500000000003 -0.6508120000000001
2002974892 0.36566866666666664 -0.6503503333333334
2004460771 0.36492066666666667 -0.6480836666666666
2005946650 0.36274366666666663 -0.6478623333333333
2007432529 0.3628883333333333 -0.643988
2008918408 0.3621483333333333 -0.640154
2010404287 0.358397 -0.6403756666666666
2011890166 0.36188400000000004 -0.6427036666666667
2013376045 0.3619483333333333 -0.6457536666666667
2014861924 0.35996066666666665 -0.6481119999999999
2016347803 0.36252666666666666 -0.6504743333333333
2017833682 0.36322866666666664 -0.6522733333333334
2019319561 0.360879 -0.655879
2020805440 0.35467633333333337 -0.659179
2022291319 0.3687256666666667 -0.6498523333333334
2023777198 0.36267 -0.657759
2025263077 0.36283333333333334 -0.655513
2026748956 0.3615443333333333 -0.6601213333333334
2028234835 0.36465 -0.655772
2029720714 0.38604900000000003 -0.6586643333333334
2031206593 0.36414299999999994 -0.6532013333333334
2032692472 0.359097 -0.655875
2034178351 0.35940900000000003 -0.6515353333333334
2035664230 0.35957766666666663 -0.6492640000000001
2037150109 0.355743 -0.648867
2038635988 0.3550786666666667 -0.645801
2040121867 0.3548993333333333 -0.6414066666666667
2041607746 0.3545426666666667 -0.6448333333333333
2043093625 0.3535616666666666 -0.647934
2044579504 0.35653966666666664 -0.6481016666666667
2046065383 0.35305366666666665 -0.652876
2047551262 0.35629599999999995 -0.6513736666666667
2049037141 0.35447633333333334 -0.6533463333333333
2050523020 0.3552026666666666 -0.653927
2052008899 0.356739 -0.652756
2053494778 0.35397066666666666 -0.6544473333333333
2054980657 0.35523466666666664 -0.6523393333333334
2056466536 0.3547583333333333 -0.6534136666666667
2057952415 0.35340900000000003 -0.6532953333333333
2059438294 0.35094633333333336 -0.6517026666666667
2060924173 0.35179166666666667 -0.650226
2062410052 0.3483446666666667 -0.64928
2063895931 0.34588233333333335 -0.6471816666666667
2065381810 0.34291699999999997 -0.6459546666666667
2066867689 0.34341533333333335 -0.6431286666666667
2068353568 0.3400206666666666 -0.641177
2069839447 0.3377556666666666 -0.638841
2071325326 0.33815666666666666 -0.6405686666666667
2072811205 0.339226 -0.6436933333333333
2074297084 0.3390086666666667 -0.6482726666666667
2075782963 0.34422766666666665 -0.6475949999999999
2077268842 0.34321433333333334 -0.650081
2078754721 0.34548466666666666 -0.6521743333333333
2080240600 0.34244499999999994 -0.6550466666666667
2081726479 0.3484853333333333 -0.6537923333333333
2083212358 0.34386333333333335 -0.655779
2084698237 0.3465206666666667 -0.6557523333333333
2086184116 0.34451433333333337 -0.6582773333333334
2087669995 0.3480743333333333 -0.653833
2089155874 0.34810199999999997 -0.6536526666666667
2090641753 0.34829233333333337 -0.652643
2092127632 0.3451043333333333 -0.651388
2093613511 0.34693966666666665 -0.6488333333333333
2095099390 0.3404683333333334 -0.6487406666666666
2096585269 0.3461303333333334 -0.6434519999999999
2098071148 0.34064466666666665 -0.6417320000000001
2099557027 0.3423066666666667 -0.6410543333333333
2101042906 0.34225900000000004 -0.64004
2102528785 0.34143300000000004 -0.6439906666666667
2104014664 0.342918 -0.647423
2105500543 0.346951 -0.648749
2106986422 0.34647433333333333 -0.6502363333333333
2108472301 0.3432846666666667 -0.6533986666666667
2109958180 0.34468433333333337 -0.6556223333333334
2111444059 0.3452806666666666 -0.6536633333333333
2112929938 0.3457406666666667 -0.6551809999999999
2114415817 0.34576133333333336 -0.6541440000000001
2115901696 0.34610266666666667 -0.655876
2117387575 0.34445366666666666 -0.6568916666666667
2118873454 0.343942 -0.6559463333333334
2120359333 0.343014 -0.6550199999999999
2121845212 0.341112 -0.6520753333333333
2123331091 0.34602266666666665 -0.6491933333333333
2124816970 0.34212033333333336 -0.6477913333333333
2126302849 0.34091066666666664 -0.6477506666666667
2127788728 0.3363686666666667 -0.6437390000000001
2129274607 0.3385913333333333 -0.6404736666666667
2130760486 0.33687766666666663 -0.6424859999999999
2132246365 0.3345933333333333 -0.6437229999999999
2133732244 0.33474466666666663 -0.6476623333333333
2135218123 0.33688633333333334 -0.6472049999999999
2136704002 0.33613933333333335 -0.6518703333333334
2138189881 0.33712800000000004 -0.6529426666666667
2139675760 0.3349393333333333 -0.6541383333333334
2141161639 0.3332863333333333 -0.6549110000000001
2142647518 0.3332583333333333 -0.6562359999999999
2144133397 0.33350433333333335 -0.656159
2145619276 0.3343783333333334 -0.6568143333333333
2147105155 0.33276866666666666 -0.6580659999999999
2148591034 0.333946 -0.6552663333333334
2150076913 0.332574 -0.6540316666666667
2151562792 0.33105566666666664 -0.652864
2153048671 0.32937933333333336 -0.6527356666666667
2154534550 0.3287086666666667 -0.6513936666666668
2156020429 0.32608 -0.6470193333333333
2157506308 0.32109766666666667 -0.6490463333333333
2158992187 0.321241 -0.646178
2160478066 0.31820600000000004 -0.6441923333333334
2161963945 0.3177426666666667 -0.648064
2163449824 0.320861 -0.6501206666666667
2164935703 0.32147533333333334 -0.6515886666666667
2166421582 0.32341966666666666 -0.6532236666666668
2167907461 0.323784 -0.6545653333333333
2169393340 0.3254333333333333 -0.6558596666666667
2170879219 0.326196 -0.6570936666666666
2172365098 0.327556 -0.658529
2173850977 0.32536533333333334 -0.656425
2175336856 0.32567833333333335 -0.657297
2176822735 0.327003 -0.6578863333333334
2178308614 0.3389203333333333 -0.6572836666666667
2179794493 0.32600366666666664 -0.6536373333333333
2181280372 0.32507400000000003 -0.6551873333333333
2182766251 0.3271806666666666 -0.6509386666666667
2184252130 0.32585366666666665 -0.6495206666666666
2185738009 0.320096 -0.6480996666666666
2187223888 0.32230866666666663 -0.6460629999999999
2188709767 0.32061233333333333 -0.6412183333333333
2190195646 0.3210463333333333 -0.6413893333333333
2191681525 0.32054866666666665 -0.6434636666666665
2193167404 0.321327 -0.6449383333333333
2194653283 0.32264833333333337 -0.6483636666666667
2196139162 0.320694 -0.6477183333333333
2197625041 0.326785 -0.6510056666666667
2199110920 0.3237703333333333 -0.6510630000000001
2200596799 0.32612833333333335 -0.6499780000000001
2202082678 0.32617333333333337 -0.652203
2203568557 0.3270476666666666 -0.6531776666666667
2205054436 0.3266113333333333 -0.651731
2206540315 0.327502 -0.652104
2208026194 0.30684500000000003 -0.6309143333333335
2209512073 0.3264996666666667 -0.6500026666666666
2210997952 0.32672866666666667 -0.6466593333333334
2212483831 0.324743 -0.6476350000000001
2213969710 0.3270036666666667 -0.6448650000000001
2215455589 0.324367 -0.6414976666666666
2216941468 0.32460700000000003 -0.6382583333333334
2218427347 0.317109 -0.6354243333333333
2219913226 0.32027599999999995 -0.6318643333333333
2221399105 0.31847033333333336 -0.636171
2222884984 0.319386 -0.6368753333333333
2224370863 0.3206716666666667 -0.6415073333333333
2225856742 0.3173396666666667 -0.6428630000000001
2227342621 0.3220083333333334 -0.6434146666666667
2228828500 0.3197413333333334 -0.646417
2230314379 0.32097266666666663 -0.6479156666666667
2231800258 0.3178373333333333 -0.648281
2233286137 0.32525466666666664 -0.6473156666666667
2234772016 0.3193706666666667 -0.6489729999999999
2236257895 0.3209896666666667 -0.6497523333333333
2237743774 0.31906966666666664 -0.649565
2239229653 0.322184 -0.6483853333333333
2240715532 0.32022599999999996 -0.6489346666666667
2242201411 0.32218600000000003 -0.6458510000000001
2243687290 0.317704 -0.6438246666666667
2245173169 0.31655866666666665 -0.6461923333333334
2246659048 0.31473666666666666 -0.6414883333333333
2248144927 0.31730533333333333 -0.6404546666666667
2249630806 0.316057 -0.6380363333333333
2251116685 0.31642300000000007 -0.6387116666666667
2252602564 0.31393766666666667 -0.640139
2254088443 0.31605866666666665 -0.6416633333333334
2255574322 0.31563 -0.6437266666666667
2257060201 0.312212 -0.6449036666666667
2258546080 0.31140433333333334 -0.6451266666666667
2260031959 0.3135563333333333 -0.646342
2261517838 0.3156886666666667 -0.646348
2263003717 0.3150753333333333 -0.646235
2264489596 0.310082 -0.647652
2265975475 0.31312 -0.645639
2267461354 0.31002899999999994 -0.6474036666666666
2268947233 0.338755 -0.661786
2270433112 0.31105733333333335 -0.6452763333333333
2271918991 0.30626333333333333 -0.6431206666666668
2273404870 0.3079016666666667 -0.6415223333333334
2274890749 0.3078723333333333 -0.6407883333333334
2276376628 0.31198200000000004 -0.637145
2277862507 0.3034943333333333 -0.6360359999999999
2279348386 0.29688433333333336 -0.6349496666666666
2280834265 0.29875199999999996 -0.6335413333333334
2282320144 0.29959966666666665 -0.6369526666666667
2283806023 0.30018833333333333 -0.6384090000000001
2285291902 0.30190133333333335 -0.6381616666666666
2286777781 0.29165166666666664 -0.6402773333333334
2288263660 0.3039266666666667 -0.6419473333333333
2289749539 0.296981 -0.6449073333333334
2291235418 0.2993603333333333 -0.642258
2292721297 0.30213833333333334 -0.64298
2294207176 0.30240700000000004 -0.6453913333333333
2295693055 0.30140900000000004 -0.6445033333333333
2297178934 0.2993773333333334 -0.6448693333333334
2298664813 0.301037 -0.6433193333333332
2300150692 0.298234 -0.6428306666666667
2301636571 0.298273 -0.6407913333333334
2303122450 0.306101 -0.6378886666666667
2304608329 0.30534833333333333 -0.63759
2306094208 0.30551466666666666 -0.633989
2307580087 0.3029996666666666 -0.6328093333333333
2309065966 0.29682533333333333 -0.6310623333333333
2310551845 0.29653833333333335 -0.6321546666666666
2312037724 0.2977666666666667 -0.6352796666666667
2313523603 0.30010133333333333 -0.6380353333333333
2315009482 0.3023633333333333 -0.6354056666666666
2316495361 0.30153766666666665 -0.6414833333333334
2317981240 0.30369633333333335 -0.643275
2319467119 0.302384 -0.6419783333333333
2320952998 0.30477633333333337 -0.6452046666666666
2322438877 0.27935899999999997 -0.6326489999999999
2323924756 0.30721533333333334 -0.644021
2325410635 0.30448733333333333 -0.6463233333333332
2326896514 0.3135213333333333 -0.6441223333333334
2328382393 0.295436 -0.6474613333333333
2329868272 0.30845833333333333 -0.6459686666666666
2331354151 0.30376566666666666 -0.6489873333333334
2332840030 0.305809 -0.644659
2334325909 0.298426 -0.645555
2335811788 0.3055566666666667 -0.6391106666666667
2337297667 0.2975216666666667 -0.6415226666666667
2338783546 0.3037646666666666 -0.638584
2340269425 0.294989 -0.6384023333333333
2341755304 0.30409966666666666 -0.638188
2343241183 0.2964546666666667 -0.6452046666666668
2344727062 0.3023923333333333 -0.64319
2346212941 0.2915776666666667 -0.6484506666666666
2347698820 0.302158 -0.6454886666666666
2349184699 0.29317 -0.6518103333333333
2350670578 0.299737 -0.6514323333333333
2352156457 0.287159 -0.6486696666666667
2353642336 0.301697 -0.6485460000000001
2355128215 0.29137033333333334 -0.650728
2356614094 0.304422 -0.6472146666666666
2358099973 0.2922466666666666 -0.6496373333333333
2359585852 0.2957103333333333 -0.6490236666666667
2361071731 0.284523 -0.651084
2362557610 0.29247166666666663 -0.6431403333333333
2364043489 0.2829323333333333 -0.6452713333333333
2365529368 0.291562 -0.64303
2367015247 0.292352 -0.6383893333333334
2368501126 0.2816706666666667 -0.6408469999999999
2369987005 0.2798163333333333 -0.6392019999999999
2371472884 0.28120833333333334 -0.6438946666666667
2372958763 0.2824963333333333 -0.6444856666666666
2374444642 0.28089633333333336 -0.6459646666666666
2375930521 0.27790833333333337 -0.650403
2377416400 0.2885343333333333 -0.6427283333333333
2378902279 0.285329 -0.6498510000000001
2380388158 0.2893516666666666 -0.6481146666666667
2381874037 0.2873866666666666 -0.6505653333333333
2383359916 0.2831956666666666 -0.6530056666666667
2384845795 0.28713799999999995 -0.6502553333333333
2386331674 0.28966 -0.645677
2387817553 0.28592833333333334 -0.6473006666666666
2389303432 0.28492766666666663 -0.6462656666666667
2390789311 0.2859526666666667 -0.6466233333333333
2392275190 0.28403 -0.6419956666666667
2393761069 0.2845436666666667 -0.642108
2395246948 0.2856836666666666 -0.638539
2396732827 0.28513900000000003 -0.635962
2398218706 0.27935566666666667 -0.6378883333333333
2399704585 0.27647333333333335 -0.636045
2401190464 0.28061033333333335 -0.6344776666666666
2402676343 0.276545 -0.6383906666666667
2404162222 0.27892066666666665 -0.6395
2405648101 0.2771476666666667 -0.6412629999999999
2407133980 0.2784583333333333 -0.64797
2408619859 0.28078966666666666 -0.6462416666666666
2410105738 0.27662366666666666 -0.6472666666666668
2411591617 0.278612 -0.6480513333333333
2413077496 0.27372 -0.6518106666666666
2414563375 0.275667 -0.6504956666666667
2416049254 0.27674000000000004 -0.6519696666666667
2417535133 0.27629 -0.650349
2419021012 0.27551499999999995 -0.6500916666666666
2420506891 0.27555799999999997 -0.6471883333333334
2421992770 0.274718 -0.6504766666666667
2423478649 0.27030333333333334 -0.650632
2424964528 0.274562 -0.6404716666666667
2426450407 0.26618766666666666 -0.6447416666666667
2427936286 0.26445599999999997 -0.6425383333333334
2429422165 0.2683163333333333 -0.637644
2430908044 0.26478266666666667 -0.640385
2432393923 0.26521600000000006 -0.6442913333333333
2433879802 0.26705700000000004 -0.6447836666666666
2435365681 0.2663213333333333 -0.6481560000000001
2436851560 0.2685903333333333 -0.6489736666666667
2438337439 0.2674383333333334 -0.6495963333333333
2439823318 0.26694233333333334 -0.6493863333333333
2441309197 0.26611033333333334 -0.6524686666666667
2442795076 0.26900666666666667 -0.6490746666666666
2444280955 0.26758733333333334 -0.648282
2445766834 0.26359400000000005 -0.6531963333333333
2447252713 0.269825 -0.6501066666666667
2448738592 0.26792466666666664 -0.6463843333333332
2450224471 0.267535 -0.6463756666666667
2451710350 0.26422933333333337 -0.644326
2453196229 0.262712 -0.642331
2454682108 0.26242400000000005 -0.638655
2456167987 0.2629376666666667 -0.6383390000000001
2457653866 0.2623946666666666 -0.6331866666666667
2459139745 0.25875 -0.6320793333333334
2460625624 0.25618 -0.6331760000000001
2462111503 0.25711466666666666 -0.6352553333333333
2463597382 0.25894633333333333 -0.638598
2465083261 0.25682999999999995 -0.6403980000000001
2466569140 0.2556003333333334 -0.6411466666666668
2468055019 0.25871 -0.6421263333333334
2469540898 0.25728666666666666 -0.6428413333333333
2471026777 0.2580436666666666 -0.6468716666666666
2472512656 0.25739566666666663 -0.6447843333333333
2473998535 0.2606113333333333 -0.6439726666666666
2475484414 0.25791566666666665 -0.6456583333333333
2476970293 0.2564416666666667 -0.6437296666666666
2478456172 0.2564783333333333 -0.6475146666666666
2479942051 0.24420700000000004 -0.6465246666666666
2481427930 0.25661633333333334 -0.6409440000000001
2482913809 0.25764099999999995 -0.6389553333333334
2484399688 0.25418566666666664 -0.637958
2485885567 0.2544153333333334 -0.6362709999999999
2487371446 0.251055 -0.6350963333333334
2488857325 0.249498 -0.6324643333333334
2490343204 0.248753 -0.629849
2491829083 0.249659 -0.6325473333333332
2493314962 0.2521086666666667 -0.6365759999999999
2494800841 0.25223066666666666 -0.6389353333333333
2496286720 0.253083 -0.6408226666666667
2497772599 0.2543033333333333 -0.6422726666666667
2499258478 0.2572400000000001 -0.6431176666666667
2500744357 0.25736766666666666 -0.6430383333333333
2502230236 0.260521 -0.6443516666666667
2503716115 0.2591096666666666 -0.6427156666666667
2505201994 0.259364 -0.6447886666666667
2506687873 0.25903533333333334 -0.644624
2508173752 0.25839133333333336 -0.6447586666666667
2509659631 0.2623513333333333 -0.6428266666666667
2511145510 0.2592406666666667 -0.6437586666666667
2512631389 0.26153266666666664 -0.6401063333333333
2514117268 0.2612006666666667 -0.6382276666666666
2515603147 0.25764333333333334 -0.6356906666666667
2517089026 0.2600826666666667 -0.6343576666666667
2518574905 0.25795233333333334 -0.6327986666666666
2520060784 0.2578336666666667 -0.629275
2521546663 0.25786933333333334 -0.631592
2523032542 0.25611633333333333 -0.637048
2524518421 0.25826 -0.6364513333333334
2526004300 0.25588799999999995 -0.6371636666666667
2527490179 0.256556 -0.6410066666666667
2528976058 0.2585423333333334 -0.6403903333333333
2530461937 0.254571 -0.6423613333333332
2531947816 0.258712 -0.6423953333333333
2533433695 0.251318 -0.6439316666666667
2534919574 0.2530786666666666 -0.6399073333333333
2536405453 0.2548843333333333 -0.6435810000000001
2537891332 0.25629399999999997 -0.642868
2539377211 0.25369633333333336 -0.6430613333333334
2540863090 0.25210899999999997 -0.6404873333333333
2542348969 0.2523003333333333 -0.643002
2543834848 0.25243033333333337 -0.6393753333333333
2545320727 0.248332 -0.6370323333333333
2546806606 0.24754800000000002 -0.6360020000000001
2548292485 0.24649466666666667 -0.634329
2549778364 0.24486666666666668 -0.6341413333333333
2551264243 0.25071133333333334 -0.632967
2552750122 0.246656 -0.6352380000000001
2554236001 0.24572066666666667 -0.6358533333333333
2555721880 0.24913233333333332 -0.6372523333333334
2557207759 0.24511266666666667 -0.642411
2558693638 0.24960200000000002 -0.6445143333333334
2560179517 0.2460003333333333 -0.6422796666666667
2561665396 0.24619666666666665 -0.6458273333333334
2563151275 0.246482 -0.647358
2564637154 0.2473736666666667 -0.6483166666666668
2566123033 0.248062 -0.6496379999999999
2567608912 0.243124 -0.6449493333333334
2569094791 0.2449583333333333 -0.6465816666666666
2570580670 0.24414233333333332 -0.6480743333333333
2572066549 0.24329233333333336 -0.6467656666666667
2573552428 0.24130633333333332 -0.6438016666666667
2575038307 0.24052833333333334 -0.6455723333333333
2576524186 0.24129233333333333 -0.6440866666666667
2578010065 0.23962466666666668 -0.6423343333333333
2579495944 0.23925966666666665 -0.6410956666666666
2580981823 0.23596799999999998 -0.6398486666666666
2582467702 0.24012133333333333 -0.642651
2583953581 0.24112433333333336 -0.643622
2585439460 0.23815566666666665 -0.639007
2586925339 0.238908 -0.6458646666666666
2588411218 0.244309 -0.641288
2589897097 0.24211533333333335 -0.6408363333333335
2591382976 0.24204633333333334 -0.640528
2592868855 0.24086033333333334 -0.6385663333333333
2594354734 0.24521466666666666 -0.6424253333333333
2595840613 0.24192 -0.640961
2597326492 0.2439273333333333 -0.637855
2598812371 0.24237633333333333 -0.6366013333333332
2600298250 0.24147600000000002 -0.631322
2601784129 0.24128033333333332 -0.6326543333333333
2603270008 0.24035366666666666 -0.6270016666666667
2604755887 0.23311366666666666 -0.6228646666666666
2606241766 0.235491 -0.6202139999999999
2607727645 0.23452566666666666 -0.6209253333333332
2609213524 0.22857366666666667 -0.6173336666666667
2610699403 0.228998 -0.6185823333333333
2612185282 0.23130400000000004 -0.6177383333333334
2613671161 0.23639200000000002 -0.6229203333333334
2615157040 0.2349753333333333 -0.623449
2616642919 0.23853 -0.6236573333333333
2618128798 0.235676 -0.6242596666666667
2619614677 0.23420799999999997 -0.6239669999999999
2621100556 0.22694566666666668 -0.6256546666666667
2622586435 0.23129266666666667 -0.625798
2624072314 0.23533300000000001 -0.6268316666666668
2625558193 0.22834733333333332 -0.6286133333333334
2627044072 0.23539600000000002 -0.6257453333333333
2628529951 0.23209533333333332 -0.627711
2630015830 0.23797666666666664 -0.626087
2631501709 0.23031866666666667 -0.6208983333333333
2632987588 0.230158 -0.6223756666666667
2634473467 0.22826100000000002 -0.6182120000000001
2635959346 0.23221433333333333 -0.6211526666666666
2637445225 0.22478433333333334 -0.6165866666666666
2638931104 0.22612100000000002 -0.6169556666666667
2640416983 0.22804133333333332 -0.6175596666666666
2641902862 0.22474399999999997 -0.6165796666666666
2643388741 0.22968799999999998 -0.6201683333333333
2644874620 0.226882 -0.6209176666666666
2646360499 0.2256836666666667 -0.6258866666666667
2647846378 0.22702733333333333 -0.628262
2649332257 0.22528 -0.6282646666666666
2650818136 0.22464233333333336 -0.6303746666666666
2652304015 0.23265866666666668 -0.6330629999999999
2653789894 0.22263066666666664 -0.6293366666666667
2655275773 0.22114866666666666 -0.632497
2656761652 0.22673866666666664 -0.634906
2658247531 0.2329083333333333 -0.6362566666666666
2659733410 0.22537533333333334 -0.6341126666666667
2661219289 0.23069433333333333 -0.6342
2662705168 0.225008 -0.631541
2664191047 0.224181 -0.6321460000000001
2665676926 0.21939466666666665 -0.6307866666666667
2667162805 0.22158200000000003 -0.6294316666666667
2668648684 0.219618 -0.629797
2670134563 0.226436 -0.626954
2671620442 0.226877 -0.6295876666666667
2673106321 0.22295333333333334 -0.632075
2674592200 0.22444433333333333 -0.6337593333333335
2676078079 0.22954566666666665 -0.6333413333333334
2677563958 0.23385733333333333 -0.6367533333333334
2679049837 0.22814166666666666 -0.6320266666666666
2680535716 0.22867466666666666 -0.635713
2682021595 0.231572 -0.6365676666666666
2683507474 0.22907933333333333 -0.6344040000000001
2684993353 0.235031 -0.6311646666666667
2686479232 0.22936900000000002 -0.6341413333333333
2687965111 0.23349866666666666 -0.6370109999999999
2689450990 0.23487233333333335 -0.632997
2690936869 0.229949 -0.6292766666666666
2692422748 0.23119299999999998 -0.6273253333333334
2693908627 0.22899099999999997 -0.6284583333333333
2695394506 0.22902766666666666 -0.6253826666666668
2696880385 0.22296766666666668 -0.6232626666666666
2698366264 0.22249033333333332 -0.619591
2699852143 0.21954766666666667 -0.6176146666666665
2701338022 0.22062266666666666 -0.6194283333333334
2702823901 0.22606533333333334 -0.6181353333333334
2704309780 0.231666 -0.6212856666666666
2705795659 0.23326966666666668 -0.6244433333333334
2707281538 0.233254 -0.6226846666666667
2708767417 0.23283399999999999 -0.6250983333333334
2710253296 0.23815899999999998 -0.6239709999999999
2711739175 0.23219966666666667 -0.6226806666666665
2713225054 0.23801666666666668 -0.6251886666666667
2714710933 0.23895733333333333 -0.6249586666666667
2716196812 0.24113166666666666 -0.6211003333333335
2717682691 0.23531733333333335 -0.623278
2719168570 0.26779033333333335 -0.6630323333333332
2720654449 0.23499233333333333 -0.620176
2722140328 0.23492433333333332 -0.6187553333333332
2723626207 0.22884533333333335 -0.6157976666666666
2725112086 0.233966 -0.6149789999999999
2726597965 0.229339 -0.6118986666666667
2728083844 0.23095733333333332 -0.6092436666666666
2729569723 0.23420700000000003 -0.607241
2731055602 0.22626566666666667 -0.6074763333333334
2732541481 0.22209766666666667 -0.6115513333333333
2734027360 0.22561233333333333 -0.613309
2735513239 0.22344133333333335 -0.6197946666666666
2736999118 0.22240233333333334 -0.620803
2738484997 0.224021 -0.6245580000000001
2739970876 0.22333999999999998 -0.6243263333333333
2741456755 0.22813000000000003 -0.6245246666666667
2742942634 0.2244286666666667 -0.6238640000000001
2744428513 0.22471833333333335 -0.6300896666666667
2745914392 0.21763633333333335 -0.6305823333333334
2747400271 0.22088066666666664 -0.6313133333333333
2748886150 0.21729266666666666 -0.6303073333333333
2750372029 0.216947 -0.6314136666666667
2751857908 0.2185883333333333 -0.6346316666666666
2753343787 0.21687966666666667 -0.6349523333333332
2754829666 0.213189 -0.632393
2756315545 0.217209 -0.628588
2757801424 0.21126233333333333 -0.632943
2759287303 0.211236 -0.6310016666666667
2760773182 0.20721433333333336 -0.634995
2762259061 0.215932 -0.6305386666666667
2763744940 0.21061133333333334 -0.6369693333333334
2765230819 0.21055366666666667 -0.6397909999999999
2766716698 0.21733833333333333 -0.6378606666666667
2768202577 0.21464333333333332 -0.6383329999999999
2769688456 0.21777366666666667 -0.6387626666666667
2771174335 0.217553 -0.6411033333333334
2772660214 0.23005233333333333 -0.641575
2774146093 0.21918 -0.6411456666666666
2775631972 0.22228666666666666 -0.6382503333333333
2777117851 0.21859266666666666 -0.6405073333333333
2778603730 0.22208966666666666 -0.6362376666666666
2780089609 0.22246833333333335 -0.635617
2781575488 0.22231466666666666 -0.632502
2783061367 0.21955766666666665 -0.6350626666666667
2784547246 0.21931333333333333 -0.6343543333333334
2786033125 0.216915 -0.629004
2787519004 0.21802166666666667 -0.623684
2789004883 0.21958 -0.6245213333333334
2790490762 0.21902566666666667 -0.6246886666666667
2791976641 0.21635433333333332 -0.621379
2793462520 0.218867 -0.6247076666666667
2794948399 0.215313 -0.628437
2796434278 0.212248 -0.6321256666666666
2797920157 0.21820499999999998 -0.6333596666666667
2799406036 0.21857633333333334 -0.6316163333333333
2800891915 0.215575 -0.6338396666666667
2802377794 0.21478133333333335 -0.6369916666666667
2803863673 0.21245900000000004 -0.63525
2805349552 0.2194453333333333 -0.6306913333333334
2806835431 0.21275999999999998 -0.63776
2808321310 0.21500666666666668 -0.632532
2809807189 0.21406133333333335 -0.6312670000000001
2811293068 0.21201066666666668 -0.6330286666666667
2812778947 0.210411 -0.629466
2814264826 0.213271 -0.6331106666666667
2815750705 0.203025 -0.6260606666666667
2817236584 0.20999866666666667 -0.6235816666666666
2818722463 0.205354 -0.6227993333333334
2820208342 0.20126400000000003 -0.618802
2821694221 0.210097 -0.6189933333333334
2823180100 0.20637366666666668 -0.6340003333333333
2824665979 0.2097273333333333 -0.6362826666666667
2826151858 0.20139566666666667 -0.6300983333333333
2827637737 0.20887433333333336 -0.6364693333333333
2829123616 0.20171399999999998 -0.6335126666666667
2830609495 0.20733733333333335 -0.6346863333333332
2832095374 0.208404 -0.6332963333333333
2833581253 0.21108000000000002 -0.6290166666666667
2835067132 0.21103366666666667 -0.6341640000000001
2836553011 0.20789633333333332 -0.632475
2838038890 0.20646399999999998 -0.6285846666666667
2839524769 0.20923133333333332 -0.6260006666666666
2841010648 0.20772933333333332 -0.6248760000000001
2842496527 0.208844 -0.6171369999999999
2843982406 0.20930033333333334 -0.6192493333333333
2845468285 0.207865 -0.615553
2846954164 0.20060200000000003 -0.6130636666666667
2848440043 0.20044399999999998 -0.6106416666666666
2849925922 0.20184233333333335 -0.6100180000000001
2851411801 0.20151299999999997 -0.609827
2852897680 0.19858033333333336 -0.6104533333333333
2854383559 0.20295133333333334 -0.6149803333333334
2855869438 0.199476 -0.6126923333333333
2857355317 0.2053503333333333 -0.6131033333333334
2858841196 0.205157 -0.615714
2860327075 0.20732399999999998 -0.6175986666666667
2861812954 0.2047756666666667 -0.6218303333333333
2863298833 0.204634 -0.6210343333333334
2864784712 0.20713533333333334 -0.6160026666666666
2866270591 0.21121933333333334 -0.6160896666666666
2867756470 0.20840166666666668 -0.614034
2869242349 0.20696499999999998 -0.6092369999999999
2870728228 0.20492999999999997 -0.6115200000000001
2872214107 0.210615 -0.6142106666666667
2873699986 0.206412 -0.608958
2875185865 0.20995266666666668 -0.6130506666666666
2876671744 0.207001 -0.6091313333333334
2878157623 0.2042196666666667 -0.605202
2879643502 0.20645366666666667 -0.6041476666666666
2881129381 0.20613599999999999 -0.6037516666666666
2882615260 0.20358333333333334 -0.6064010000000001
2884101139 0.20428366666666667 -0.606789
2885587018 0.2034216666666667 -0.61193
2887072897 0.203448 -0.612522
2888558776 0.20538599999999999 -0.6156266666666667
2890044655 0.20452366666666666 -0.616129
2891530534 0.205427 -0.617195
2893016413 0.20756266666666667 -0.6149826666666667
2894502292 0.20406999999999997 -0.619856
2895988171 0.20523133333333332 -0.6173116666666666
2897474050 0.20394900000000002 -0.6166436666666667
2898959929 0.20411633333333334 -0.6134486666666666
2900445808 0.20302466666666666 -0.6137333333333334
2901931687 0.202692 -0.6131856666666667
2903417566 0.203139 -0.6136856666666667
2904903445 0.20164400000000002 -0.611339
2906389324 0.20238066666666668 -0.6098156666666666
2907875203 0.200461 -0.609365
2909361082 0.199321 -0.6046916666666666
2910846961 0.198136 -0.6066186666666666
2912332840 0.20065633333333333 -0.6090086666666666
2913818719 0.20066433333333333 -0.610704
2915304598 0.19685233333333332 -0.612143
2916790477 0.20116600000000004 -0.6131826666666665
2918276356 0.19765133333333332 -0.6143813333333332
2919762235 0.19908766666666666 -0.6169553333333333
2921248114 0.196693 -0.6168109999999999
2922733993 0.21667366666666665 -0.6274959999999999
2924219872 0.19371066666666667 -0.61756
2925705751 0.196775 -0.6169743333333333
2927191630 0.192084 -0.6172476666666666
2928677509 0.19011366666666665 -0.61786
2930163388 0.194159 -0.6156223333333334
2931649267 0.19170066666666666 -0.6150766666666666
2933135146 0.190267 -0.6142376666666667
2934621025 0.18861166666666665 -0.612847
2936106904 0.18503499999999998 -0.6119596666666666
2937592783 0.184855 -0.6110853333333334
2939078662 0.1829603333333333 -0.609147
2940564541 0.18308999999999997 -0.6081736666666667
2942050420 0.18497966666666665 -0.610798
2943536299 0.18354533333333334 -0.6112833333333333
2945022178 0.1851533333333333 -0.6142783333333333
2946508057 0.18339533333333333 -0.6150263333333333
2947993936 0.18688066666666667 -0.6143756666666667
2949479815 0.18525999999999998 -0.6157116666666668
2950965694 0.18554966666666664 -0.6177353333333334
2952451573 0.18692933333333336 -0.6172486666666668
2953937452 0.18576800000000002 -0.6168866666666667
2955423331 0.18489766666666665 -0.6180673333333333
2956909210 0.18972633333333333 -0.615383
2958395089 0.19183399999999998 -0.6142573333333333
2959880968 0.189608 -0.6142846666666667
2961366847 0.18713433333333332 -0.614237
2962852726 0.1862676666666667 -0.610607
2964338605 0.187634 -0.6084943333333334
2965824484 0.18553233333333333 -0.6074393333333333
2967310363 0.18514966666666666 -0.6059873333333333
2968796242 0.18533933333333333 -0.6000213333333333
2970282121 0.18571666666666667 -0.6005623333333333
2971768000 0.18520599999999998 -0.6024093333333334
2973253879 0.18561566666666665 -0.6037063333333333
2974739758 0.18550366666666665 -0.605343
2976225637 0.187688 -0.6075066666666668
2977711516 0.1871223333333333 -0.6072096666666668
2979197395 0.18722733333333333 -0.6060376666666666
2980683274 0.18956266666666666 -0.606939
2982169153 0.189891 -0.607287
2983655032 0.19020199999999998 -0.6083373333333333
2985140911 0.18748433333333334 -0.6082893333333333
2986626790 0.19000533333333336 -0.6055936666666667
2988112669 0.19168666666666667 -0.6025393333333334
2989598548 0.18887733333333334 -0.604454
2991084427 0.1869333333333333 -0.6016376666666666
2992570306 0.187455 -0.598879
2994056185 0.188773 -0.5984953333333333
2995542064 0.18891933333333333 -0.5942986666666666
2997027943 0.18790966666666667 -0.5954953333333334
2998513822 0.18652000000000002 -0.5925673333333332
2999999701 0.18768600000000002 -0.591148
