# HZ S RI R 50
10000 0.8690389999999999 -0.10255399999999999
1495879 0.8055119999999999 1.2613710000000002
2981758 0.5776926666666666 0.6883033333333333
4467637 0.5806703333333334 0.326826
5953516 0.6506576666666667 0.13769966666666666
7439395 0.7431583333333333 0.012454
8925274 1.0574416666666666 -0.06216733333333333
10411153 1.0973186666666666 0.03675966666666666
11897032 1.0864906666666667 0.16826833333333335
13382911 1.0199003333333334 0.29249233333333335
14868790 0.9170493333333334 0.3812596666666666
16354669 0.8044186666666667 0.42884733333333336
17840548 0.6993830000000001 0.4439923333333333
19326427 0.6093413333333334 0.4378046666666667
20812306 0.5359956666666666 0.4197023333333334
22298185 0.47661133333333333 0.39522933333333327
23784064 0.42854566666666666 0.3692286666666667
25269943 0.38952400000000004 0.34303
26755822 0.358095 0.3180766666666667
28241701 0.33191933333333334 0.29438800000000004
29727580 0.3101103333333333 0.27283433333333335
31213459 0.320424 0.257481
32699338 0.3369433333333333 0.24314999999999998
34185217 0.3525876666666667 0.22987333333333335
35671096 0.3682016666666666 0.21380566666666667
37156975 0.38336 0.19519133333333336
38642854 0.3975603333333333 0.17843433333333336
40128733 0.41204766666666665 0.155528
41614612 0.4246816666666667 0.14410900000000001
43100491 0.43844799999999995 0.12228566666666667
44586370 0.451819 0.10403233333333334
46072249 0.46553500000000003 0.08077533333333334
47558128 0.48035933333333336 0.06437766666666667
49044007 0.4967533333333334 0.047108000000000004
50529886 0.5155060000000001 0.03299
52015765 0.5377036666666666 0.004085999999999999
53501644 0.5670513333333334 -0.014113666666666665
54987523 0.6049519999999999 -0.03824433333333333
56473402 0.6581883333333334 -0.075525
57959281 0.7461486666666666 -0.08943833333333334
59445160 0.9042693333333333 -0.06576766666666667
60931039 0.9993813333333333 -0.03270699999999999
62416918 1.0027863333333331 -0.041856666666666674
63902797 1.0053756666666667 -0.050898
65388676 1.009308 -0.053988666666666664
66874555 1.0108703333333333 -0.05567766666666666
68360434 1.0063916666666668 -0.139729
69846313 1.0150256666666666 -0.03165866666666667
71332192 1.0168176666666666 -0.025935
72818071 1.0170503333333334 -0.07085066666666667
74303950 1.0176109999999998 -0.061574333333333335
75789829 1.0182609999999999 0.007203666666666666
77275708 1.0181953333333333 -0.002232
78761587 1.016696 0.004306333333333333
80247466 1.0109563333333333 -0.11253600000000001
81733345 1.0134073333333333 -0.06393433333333333
83219224 1.0105026666666668 -0.07595766666666666
84705103 1.0061996666666666 -0.09896033333333333
86190982 1.0059116666666668 0.024955666666666664
87676861 0.9997893333333333 -0.092093
89162740 0.9986326666666666 -0.06518666666666666
90648619 0.9961816666666667 -0.08433800000000001
92134498 0.9997296666666667 -0.082102
93620377 1.003954 -0.04942333333333334
95106256 1.0048813333333333 -0.07661366666666668
96592135 1.0083686666666667 -0.07540566666666666
98078014 1.0105816666666667 -0.07051066666666667
99563893 1.0125733333333333 -0.066647
101049772 1.0134996666666665 -0.07978700000000001
102535651 1.014064 -0.07486066666666667
104021530 1.0145153333333334 -0.08174833333333333
105507409 1.013475 -0.08284733333333334
106993288 1.0137660000000002 -0.08331133333333333
108479167 1.012996 -0.083698
109965046 1.0115876666666666 -0.08339066666666667
111450925 1.0094856666666667 -0.084173
112936804 1.007727 -0.08496133333333333
114422683 1.005723 -0.08541266666666668
115908562 1.0017759999999998 -0.08579866666666665
117394441 0.998897 -0.08576399999999999
118880320 0.995378 -0.08611
120366199 0.993095 -0.08770333333333334
121852078 0.9980463333333334 -0.08867799999999999
123337957 1.00158 -0.09082633333333334
124823836 1.0049703333333335 -0.09274666666666669
126309715 1.0082246666666668 -0.09450633333333334
127795594 1.011233 -0.09452066666666666
129281473 1.0144606666666667 -0.09577000000000001
130767352 1.01465 -0.09660466666666667
132253231 1.0178753333333332 -0.09731233333333333
133739110 1.0195893333333332 -0.09856733333333334
135224989 1.004329 -0.09676433333333333
136710868 1.005244 -0.11044433333333332
138196747 1.005191 -0.11004366666666666
139682626 1.0047366666666664 -0.11031433333333333
141168505 1.0042823333333333 -0.11015666666666667
142654384 1.002366 -0.11042566666666666
144140263 1.000308 -0.104267
145626142 0.9978566666666667 -0.11056233333333333
147112021 0.9961319999999999 -0.11142133333333333
148597900 0.9922983333333333 -0.11072900000000001
150083779 0.989484 -0.11042766666666666
151569658 0.9933226666666667 -0.11249433333333332
153055537 0.9959583333333333 -0.11415466666666667
154541416 0.9990693333333334 -0.11478433333333334
156027295 1.0014716666666665 -0.11622266666666665
157513174 1.0035283333333334 -0.11692600000000002
158999053 1.0039176666666665 -0.11970033333333334
160484932 1.0060496666666667 -0.11930133333333333
161970811 1.008012 -0.12005566666666667
163456690 1.0082849999999999 -0.12120366666666667
164942569 1.0085596666666667 -0.12168533333333333
166428448 1.0080636666666667 -0.12238933333333334
167914327 1.0072406666666665 -0.12302233333333333
169400206 1.0059876666666667 -0.12291800000000001
170886085 1.0041113333333334 -0.12460033333333333
172371964 0.9051366666666668 -0.13455266666666665
173857843 1.0002603333333333 -0.126532
175343722 0.9974203333333334 -0.12689633333333333
176829601 0.9948526666666667 -0.126894
178315480 0.991189 -0.128381
179801359 0.9866023333333334 -0.13007766666666667
181287238 0.9898243333333333 -0.13179133333333334
182773117 0.9936356666666667 -0.133095
184258996 0.9958913333333334 -0.13389166666666666
185744875 0.998619 -0.135571
187230754 1.0012610000000002 -0.13625
188716633 1.0030396666666668 -0.137351
190202512 1.0043043333333335 -0.13854599999999997
191688391 1.005558 -0.13975133333333334
193174270 1.0060306666666667 -0.1403053333333333
194660149 1.0059053333333332 -0.14062966666666665
196146028 1.0054716666666665 -0.14202100000000004
197631907 1.005059 -0.14231833333333335
199117786 1.0034750000000001 -0.143556
200603665 1.0020033333333334 -0.144364
202089544 1.0003513333333334 -0.145415
203575423 0.9978326666666666 -0.14634966666666668
205061302 0.9944643333333333 -0.14750966666666665
206547181 0.9911690000000001 -0.14915633333333334
208033060 0.9885343333333333 -0.15068633333333334
209518939 0.9836836666666667 -0.15129299999999998
211004818 0.9857269999999999 -0.15309733333333334
212490697 0.9895046666666666 -0.15442
213976576 0.9926003333333333 -0.15616833333333333
215462455 0.9952570000000001 -0.15735433333333335
216948334 0.9981083333333333 -0.15784966666666667
218434213 0.999911 -0.1597033333333333
219920092 1.0016176666666665 -0.1607793333333333
221405971 1.001855 -0.16185366666666665
222891850 1.003272 -0.162668
224377729 1.0040033333333334 -0.16284166666666666
225863608 1.0041783333333334 -0.16254999999999997
227349487 1.002492 -0.16436366666666666
228835366 1.0022586666666669 -0.165084
230321245 0.999211 -0.16577399999999998
231807124 0.9969066666666667 -0.16661966666666664
233293003 0.9949473333333333 -0.16809
234778882 0.9917606666666666 -0.16947500000000001
236264761 0.988222 -0.1707196666666667
237750640 0.9841690000000001 -0.17120500000000002
239236519 0.9798593333333333 -0.17263799999999999
240722398 0.9790443333333334 -0.174613
242208277 0.9840606666666667 -0.176214
243694156 0.986901 -0.17771499999999998
245180035 0.9902853333333335 -0.179978
246665914 0.9935906666666666 -0.180524
248151793 0.9957446666666666 -0.181712
249637672 0.9975256666666666 -0.18244033333333332
251123551 0.9987803333333334 -0.184067
252609430 1.0000356666666665 -0.184485
254095309 0.9995989999999999 -0.18579299999999999
255581188 0.999451 -0.18611966666666668
257067067 0.9994063333333334 -0.18698700000000001
258552946 0.9974973333333333 -0.187567
260038825 0.9956003333333333 -0.18793633333333334
261524704 0.9940966666666666 -0.1884863333333333
263010583 0.9902583333333332 -0.18918933333333335
264496462 0.987658 -0.1909
265982341 0.9838819999999999 -0.1917616666666667
267468220 0.9799893333333333 -0.193209
268954099 0.9748550000000001 -0.19379833333333332
270439978 0.9721496666666667 -0.195658
271925857 0.9767423333333333 -0.19770500000000002
273411736 0.9808013333333333 -0.20045100000000002
274897615 0.9849723333333333 -0.20102533333333336
276383494 0.9869726666666666 -0.20298400000000003
277869373 0.9906746666666667 -0.20460466666666666
279355252 0.991978 -0.20589866666666667
280841131 0.992825 -0.205754
282327010 0.9945219999999999 -0.20679000000000003
283812889 0.9949523333333333 -0.208843
285298768 0.9949340000000001 -0.20849533333333334
286784647 0.9946853333333333 -0.21051366666666668
288270526 0.9937636666666667 -0.209873
289756405 0.9915820000000001 -0.21069366666666667
291242284 0.9896426666666667 -0.21116900000000002
292728163 0.9863003333333333 -0.21200833333333335
294214042 0.9835213333333334 -0.21201133333333333
295699921 0.9795893333333333 -0.21336766666666665
297185800 0.9757966666666666 -0.21407866666666667
298671679 0.970303 -0.21494533333333332
300157558 0.9658543333333333 -0.21529866666666667
301643437 0.9712503333333333 -0.21750633333333336
303129316 0.9750763333333333 -0.22055499999999997
304615195 0.9779096666666667 -0.222768
306101074 0.9818349999999999 -0.22363766666666665
307586953 0.9841606666666666 -0.22568166666666667
309072832 0.9862259999999999 -0.227888
310558711 0.9884593333333332 -0.228811
312044590 0.989538 -0.22954566666666665
313530469 0.9892343333333334 -0.23066966666666666
315016348 0.9906026666666667 -0.23138633333333333
316502227 0.989528 -0.23226933333333333
317988106 0.9889236666666666 -0.23185766666666666
319473985 0.9872956666666667 -0.23146
320959864 0.9855043333333334 -0.23257433333333336
322445743 0.9821949999999999 -0.23201566666666665
323931622 0.9788796666666667 -0.23293233333333332
325417501 0.975621 -0.23260866666666669
326903380 0.9710453333333334 -0.23342733333333332
328389259 0.9655016666666666 -0.23375899999999997
329875138 0.9955536666666666 -0.21659833333333334
331361017 0.9690283333333335 -0.22630499999999998
332846896 0.9731733333333333 -0.230159
334332775 0.9717483333333333 -0.2430486666666667
335818654 0.973799 -0.24501666666666666
337304533 0.976768 -0.24626933333333334
338790412 0.9780836666666667 -0.24846899999999997
340276291 0.978736 -0.24957066666666664
341762170 0.9809586666666666 -0.250801
343248049 0.9801276666666667 -0.25119766666666665
344733928 0.98082 -0.25267833333333334
346219807 0.9794519999999999 -0.25360133333333335
347705686 0.9776493333333334 -0.2537296666666667
349191565 0.9774546666666667 -0.2542566666666667
350677444 0.9745266666666668 -0.2542466666666667
352163323 0.9727756666666667 -0.254618
353649202 0.9688396666666668 -0.2548436666666667
355135081 0.9651076666666666 -0.25547600000000004
356620960 0.9608413333333333 -0.2558036666666667
358106839 0.9559316666666667 -0.255588
359592718 0.9502776666666667 -0.2558066666666667
361078597 0.951868 -0.258729
362564476 0.9558663333333334 -0.262005
364050355 0.9590836666666668 -0.263806
365536234 0.9618316666666668 -0.266391
367022113 0.963693 -0.26864466666666664
368507992 0.9662639999999999 -0.270925
369993871 0.9679509999999999 -0.27167766666666665
371479750 0.9691436666666666 -0.27345800000000003
372965629 0.9698336666666667 -0.274054
374451508 0.9700626666666667 -0.27479766666666666
375937387 0.9690810000000001 -0.276409
377423266 0.9689933333333333 -0.27707666666666664
378909145 0.9652470000000001 -0.2816963333333334
380395024 0.965699 -0.276572
381880903 0.963711 -0.276275
383366782 0.9606393333333334 -0.27526466666666666
384852661 0.9576473333333334 -0.2760723333333333
386338540 0.9543050000000001 -0.2761196666666667
387824419 0.9487113333333334 -0.2753623333333333
389310298 0.944172 -0.2748836666666667
390796177 0.9447973333333334 -0.27745633333333336
392282056 0.9472513333333333 -0.280986
393767935 0.9509196666666666 -0.2828716666666667
395253814 0.9533703333333333 -0.28625666666666666
396739693 0.9550116666666666 -0.28701899999999997
398225572 0.9580993333333333 -0.2879633333333333
399711451 0.9589630000000001 -0.291274
401197330 0.9600270000000001 -0.29285266666666665
402683209 0.9603136666666666 -0.29323499999999997
404169088 0.960943 -0.29497733333333337
405654967 0.9612953333333333 -0.2949743333333334
407140846 0.959742 -0.29558633333333334
408626725 0.958647 -0.2951106666666667
410112604 0.9573463333333333 -0.29518466666666665
411598483 0.9544166666666666 -0.2954463333333333
413084362 0.9524146666666667 -0.2953143333333333
414570241 0.9491336666666667 -0.294782
416056120 0.9453073333333334 -0.29430033333333333
417541999 0.9416859999999999 -0.2942253333333333
419027878 0.9374693333333334 -0.29440133333333335
420513757 0.934783 -0.29468
421999636 0.939026 -0.29812833333333333
423485515 0.9408690000000001 -0.3003483333333334
424971394 0.9440046666666667 -0.30334
426457273 0.9459653333333332 -0.3051373333333333
427943152 0.9476986666666667 -0.30816333333333334
429429031 0.9490593333333334 -0.30896799999999996
430914910 0.9493803333333334 -0.3106733333333333
432400789 0.9496683333333333 -0.311461
433886668 0.9505556666666667 -0.3127646666666667
435372547 0.9502613333333333 -0.3135753333333333
436858426 0.949719 -0.31393899999999997
438344305 0.9487286666666668 -0.31490799999999997
439830184 0.947418 -0.315548
441316063 0.9449186666666667 -0.31551033333333334
442801942 0.94217 -0.3140096666666667
444287821 0.9395433333333334 -0.31498066666666663
445773700 0.936763 -0.31493166666666667
447259579 0.9355826666666666 -0.3092453333333333
448745458 0.929395 -0.31524066666666667
450231337 0.9261333333333334 -0.31403133333333333
451717216 0.9286716666666667 -0.315496
453203095 0.9322856666666667 -0.31875633333333336
454688974 0.9345666666666667 -0.321656
456174853 0.9371283333333333 -0.32398266666666664
457660732 0.9371649999999999 -0.32619166666666666
459146611 0.939833 -0.3263583333333333
460632490 0.941325 -0.32781
462118369 0.9406630000000001 -0.3290703333333333
463604248 0.941431 -0.32975366666666667
465090127 0.9408500000000001 -0.33012966666666665
466576006 0.9412963333333334 -0.33017399999999997
468061885 0.9401603333333334 -0.32988999999999996
469547764 0.9385180000000001 -0.33098666666666665
471033643 0.936086 -0.3314126666666667
472519522 0.9338660000000001 -0.3307976666666667
474005401 0.9311853333333332 -0.33013133333333333
475491280 0.9266953333333333 -0.330225
476977159 0.923437 -0.3310573333333333
478463038 0.918036 -0.33250833333333335
479948917 0.9274313333333333 -0.30927133333333334
481434796 0.9172086666666667 -0.33261466666666667
482920675 0.9201936666666667 -0.334905
484406554 0.9231843333333334 -0.338125
485892433 0.9255939999999999 -0.34041800000000005
487378312 0.9273886666666667 -0.34121
488864191 0.928835 -0.34248700000000004
490350070 0.9304546666666668 -0.343752
491835949 0.9322066666666666 -0.344285
493321828 0.9318326666666668 -0.34572866666666674
494807707 0.9325866666666666 -0.34486533333333336
496293586 0.9316756666666667 -0.3466683333333333
497779465 0.9300013333333333 -0.346509
499265344 0.9292096666666666 -0.3458243333333333
500751223 0.9279890000000001 -0.3478583333333333
502237102 0.9248763333333333 -0.3472056666666667
503722981 0.9221423333333334 -0.34531
505208860 0.9189656666666667 -0.34710833333333335
506694739 0.9145470000000001 -0.347861
508180618 0.9119896666666666 -0.34579699999999997
509666497 0.906895 -0.3464676666666667
511152376 0.9083693333333334 -0.3487546666666666
512638255 0.9125183333333333 -0.3507193333333333
514124134 0.9133456666666667 -0.3541666666666667
515610013 0.917586 -0.354307
517095892 0.918187 -0.35711866666666664
518581771 0.9202119999999999 -0.358871
520067650 0.9202400000000001 -0.35938966666666666
521553529 0.9216643333333333 -0.361034
523039408 0.9215836666666667 -0.36261633333333326
524525287 0.9219136666666667 -0.3618246666666667
526011166 0.9208453333333333 -0.362406
527497045 0.920839 -0.3623753333333333
528982924 0.918745 -0.3637793333333334
530468803 0.9173913333333333 -0.3633406666666667
531954682 0.9152466666666665 -0.36311166666666667
533440561 0.9129533333333333 -0.3628203333333333
534926440 0.9091463333333335 -0.3625893333333334
536412319 0.905352 -0.36237733333333333
537898198 0.9016646666666667 -0.3642103333333333
539384077 0.8963206666666667 -0.36350166666666667
540869956 0.895922 -0.364209
542355835 0.8997586666666666 -0.3663383333333334
543841714 0.9013503333333333 -0.367829
545327593 0.9050243333333333 -0.36761099999999997
546813472 0.9059833333333334 -0.36949633333333337
548299351 0.9073406666666667 -0.371226
549785230 0.909315 -0.37026833333333337
551271109 0.9081523333333333 -0.37130166666666664
552756988 0.9080563333333332 -0.37130766666666665
554242867 0.908381 -0.369796
555728746 0.9087893333333333 -0.3706503333333333
557214625 0.9060406666666667 -0.36987499999999995
558700504 0.903957 -0.368087
560186383 0.901412 -0.3678156666666667
561672262 0.9003453333333332 -0.36790833333333334
563158141 0.896455 -0.36634066666666665
564644020 0.8916153333333333 -0.36637633333333336
566129899 0.8880333333333333 -0.3644263333333333
567615778 0.8825146666666667 -0.36334466666666665
569101657 0.8762526666666667 -0.3633193333333333
570587536 0.8755573333333334 -0.3633816666666667
572073415 0.8781926666666666 -0.368987
573559294 0.8805120000000001 -0.3716103333333334
575045173 0.8840076666666666 -0.37430366666666665
576531052 0.8855780000000001 -0.37739933333333325
578016931 0.8877043333333333 -0.380666
579502810 0.887804 -0.38504066666666664
580988689 0.8889083333333333 -0.38678133333333337
582474568 0.890631 -0.3879903333333334
583960447 0.8910800000000001 -0.3892356666666667
585446326 0.890386 -0.3915053333333333
586932205 0.8897696666666666 -0.39243033333333327
588418084 0.8887709999999999 -0.3936633333333333
589903963 0.8871373333333333 -0.3956836666666667
591389842 0.8853283333333333 -0.39559933333333336
592875721 0.883883 -0.39475299999999997
594361600 0.88103 -0.3970453333333333
595847479 0.8765276666666667 -0.3968083333333334
597333358 0.8738943333333333 -0.39658499999999997
598819237 0.8696676666666666 -0.3989496666666666
600305116 0.8636739999999999 -0.4031013333333333
601790995 0.8708523333333332 -0.40262133333333333
603276874 0.8731833333333333 -0.40503333333333336
604762753 0.8767853333333333 -0.4079723333333333
606248632 0.8799693333333334 -0.40881066666666666
607734511 0.8805763333333334 -0.4121146666666667
609220390 0.882796 -0.4136496666666667
610706269 0.8842413333333333 -0.413837
612192148 0.8842099999999999 -0.417325
613678027 0.8856093333333334 -0.41636233333333333
615163906 0.884492 -0.4186433333333333
616649785 0.8838636666666666 -0.418836
618135664 0.8839356666666666 -0.4184123333333334
619621543 0.8828723333333333 -0.4176256666666667
621107422 0.8805649999999999 -0.41627133333333327
622593301 0.878486 -0.416512
624079180 0.8759853333333333 -0.4156243333333333
625565059 0.8717196666666668 -0.41448999999999997
627050938 0.8519616666666666 -0.42627533333333334
628536817 0.86475 -0.4130006666666666
630022696 0.8598583333333334 -0.41276599999999997
631508575 0.8617023333333332 -0.41592066666666666
632994454 0.865781 -0.41902
634480333 0.868348 -0.4214453333333334
635966212 0.870349 -0.42453266666666667
637452091 0.8727906666666666 -0.4265953333333334
638937970 0.8749873333333333 -0.4276606666666667
640423849 0.8762626666666667 -0.4292036666666667
641909728 0.8768803333333333 -0.4305573333333334
643395607 0.8760516666666667 -0.4315933333333333
644881486 0.8756713333333334 -0.432217
646367365 0.876528 -0.4329233333333334
647853244 0.8748783333333333 -0.43346466666666666
649339123 0.8733586666666667 -0.4323953333333333
650825002 0.8731046666666668 -0.43000533333333335
652310881 0.8700243333333333 -0.43123
653796760 0.8668333333333332 -0.43106
655282639 0.863519 -0.429166
656768518 0.8605563333333333 -0.428267
658254397 0.8555596666666667 -0.42702599999999996
659740276 0.8522686666666667 -0.4249866666666667
661226155 0.8525133333333333 -0.429019
662712034 0.8560973333333334 -0.4326763333333334
664197913 0.8578049999999999 -0.4330446666666667
665683792 0.8606356666666667 -0.4357586666666666
667169671 0.86167 -0.436065
668655550 0.8637143333333333 -0.43939233333333333
670141429 0.865014 -0.4399306666666667
671627308 0.8654933333333332 -0.43983599999999995
673113187 0.8666096666666666 -0.4403973333333333
674599066 0.8656003333333334 -0.440308
676084945 0.8670806666666667 -0.439251
677570824 0.8659560000000001 -0.43951866666666667
679056703 0.863876 -0.441003
680542582 0.8626196666666667 -0.43897333333333327
682028461 0.8619300000000001 -0.437124
683514340 0.8578126666666667 -0.4355116666666667
685000219 0.856036 -0.43387400000000004
686486098 0.8490840000000001 -0.43398899999999996
687971977 0.8470963333333333 -0.43188200000000004
689457856 0.8434796666666666 -0.429357
690943735 0.8441143333333333 -0.43171
692429614 0.8450850000000001 -0.4354123333333333
693915493 0.8464649999999999 -0.43843066666666664
695401372 0.8480893333333333 -0.441913
696887251 0.8501326666666666 -0.44383066666666665
698373130 0.849666 -0.44633866666666666
699859009 0.8503 -0.4485523333333334
701344888 0.850057 -0.4507573333333334
702830767 0.8513510000000001 -0.4515343333333333
704316646 0.8503146666666667 -0.45225
705802525 0.8494160000000001 -0.453082
707288404 0.845994 -0.4532176666666667
708774283 0.846495 -0.4549223333333334
710260162 0.8454126666666667 -0.4535153333333333
711746041 0.8420010000000001 -0.4561673333333333
713231920 0.8401903333333333 -0.45483366666666664
714717799 0.8353320000000001 -0.455813
716203678 0.8339566666666668 -0.45634900000000006
717689557 0.8284059999999999 -0.45516566666666664
719175436 0.826991 -0.45101900000000006
720661315 0.8247753333333333 -0.45448233333333327
722147194 0.8265986666666666 -0.459601
723633073 0.8287773333333334 -0.461512
725118952 0.8309436666666666 -0.46429633333333337
726604831 0.832415 -0.4671323333333333
728090710 0.834966 -0.467942
729576589 0.8347423333333333 -0.468841
731062468 0.8348263333333333 -0.47049266666666667
732548347 0.8348726666666667 -0.4727213333333333
734034226 0.8349876666666667 -0.47302700000000003
735520105 0.8358650000000001 -0.471953
737005984 0.834918 -0.47193899999999994
738491863 0.8334593333333333 -0.47388199999999997
739977742 0.831084 -0.47200100000000006
741463621 0.8306399999999999 -0.473298
742949500 0.8287273333333333 -0.47259
744435379 0.8263163333333333 -0.47157166666666667
745921258 0.8215296666666667 -0.4724196666666667
747407137 0.8191086666666667 -0.4706416666666667
748893016 0.8163656666666667 -0.4676396666666666
750378895 0.8129133333333334 -0.46898900000000004
751864774 0.816319 -0.4718003333333334
753350653 0.8179903333333334 -0.473473
754836532 0.821462 -0.474887
756322411 0.821275 -0.4791106666666667
757808290 0.8218003333333334 -0.48057799999999995
759294169 0.8225606666666666 -0.48184699999999997
760780048 0.8242323333333333 -0.481992
762265927 0.8242446666666666 -0.48439366666666667
763751806 0.8226786666666667 -0.48455899999999996
765237685 0.8222100000000001 -0.483808
766723564 0.8225783333333334 -0.4848236666666667
768209443 0.8205680000000001 -0.48532
769695322 0.818838 -0.4847483333333334
771181201 0.8137503333333332 -0.486689
772667080 0.8142813333333333 -0.48411133333333334
774152959 0.8123756666666667 -0.4837213333333333
775638838 0.8076563333333334 -0.4821876666666667
777124717 0.8064089999999999 -0.48169799999999996
778610596 0.800586 -0.48188533333333333
780096475 0.7971053333333334 -0.480394
781582354 0.7996233333333334 -0.48295666666666665
783068233 0.8040306666666667 -0.48480433333333334
784554112 0.8051543333333333 -0.48769100000000004
786039991 0.807405 -0.49012933333333336
787525870 0.8086730000000001 -0.492582
789011749 0.810725 -0.49364399999999997
790497628 0.8105169999999999 -0.49509766666666666
791983507 0.8123793333333333 -0.4940306666666667
793469386 0.8030390000000001 -0.5042540000000001
794955265 0.8137566666666668 -0.4950756666666667
796441144 0.8120476666666666 -0.4965536666666666
797927023 0.812393 -0.49414700000000006
799412902 0.810393 -0.4948856666666666
800898781 0.8088639999999999 -0.495385
802384660 0.8078193333333333 -0.49239933333333336
803870539 0.8046829999999999 -0.4927106666666667
805356418 0.8018733333333333 -0.4912886666666667
806842297 0.7979583333333333 -0.490796
808328176 0.7940466666666667 -0.4889853333333334
809814055 0.7892990000000001 -0.48854166666666665
811299934 0.7924380000000001 -0.49017299999999997
812785813 0.7943836666666666 -0.49450066666666664
814271692 0.7952573333333334 -0.49655000000000005
815757571 0.7978576666666667 -0.49981733333333334
817243450 0.7982906666666668 -0.5022253333333334
818729329 0.800321 -0.5040343333333334
820215208 0.800287 -0.5063436666666666
821701087 0.8100116666666667 -0.49829566666666664
823186966 0.8010743333333333 -0.5080743333333333
824672845 0.8005303333333332 -0.509655
826158724 0.7998850000000001 -0.50928
827644603 0.80057 -0.5075896666666666
829130482 0.797629 -0.5102846666666667
830616361 0.7987286666666668 -0.5075230000000001
832102240 0.7943760000000001 -0.509986
833588119 0.7954849999999999 -0.5046390000000001
835073998 0.7840253333333332 -0.5119366666666667
836559877 0.7873223333333333 -0.5058696666666668
838045756 0.7768416666666665 -0.510852
839531635 0.7800783333333334 -0.5002636666666667
841017514 0.7734693333333333 -0.5115923333333333
842503393 0.7810809999999999 -0.509663
843989272 0.7763589999999999 -0.5194896666666667
845475151 0.7863113333333334 -0.513266
846961030 0.779928 -0.5236783333333334
848446909 0.7894006666666668 -0.5190483333333333
849932788 0.7829563333333334 -0.5267726666666667
851418667 0.7898876666666667 -0.5203003333333334
852904546 0.7845343333333333 -0.5277003333333333
854390425 0.7901586666666667 -0.5220760000000001
855876304 0.7834659999999999 -0.529403
857362183 0.789041 -0.5225406666666667
858848062 0.7807896666666666 -0.530034
860333941 0.7876873333333334 -0.5197266666666667
861819820 0.776627 -0.5274376666666667
863305699 0.7817226666666667 -0.5199186666666668
864791578 0.7713316666666666 -0.526485
866277457 0.7753873333333333 -0.5165256666666665
867763336 0.7646953333333334 -0.5240203333333332
869249215 0.7678220000000001 -0.513282
870735094 0.7593323333333334 -0.5220159999999999
872220973 0.7677426666666666 -0.5186806666666667
873706852 0.7644343333333333 -0.529432
875192731 0.772141 -0.5244023333333333
876678610 0.766953 -0.5336256666666667
878164489 0.7789319999999998 -0.5250096666666666
879650368 0.7713303333333332 -0.5356023333333333
881136247 0.7722723333333333 -0.5354133333333334
882622126 0.7728543333333332 -0.538067
884108005 0.7742680000000001 -0.5368590000000001
885593884 0.7731083333333334 -0.5365993333333333
887079763 0.7717729999999999 -0.5378343333333334
888565642 0.7715846666666666 -0.5367086666666666
890051521 0.769403 -0.537026
891537400 0.76638 -0.5374686666666667
893023279 0.7658356666666667 -0.5341653333333333
894509158 0.7626686666666668 -0.5330613333333334
895995037 0.7603643333333334 -0.531816
897480916 0.7556560000000001 -0.530645
898966795 0.7528216666666666 -0.527198
900452674 0.7493176666666667 -0.527907
901938553 0.7521633333333334 -0.5300383333333333
903424432 0.7533036666666667 -0.5342996666666667
904910311 0.7550310000000001 -0.537423
906396190 0.7552763333333333 -0.540936
907882069 0.7583099999999999 -0.5396903333333334
909367948 0.7577903333333333 -0.543496
910853827 0.7578913333333334 -0.5447033333333333
912339706 0.7579716666666667 -0.54766
913825585 0.758636 -0.547161
915311464 0.7593503333333333 -0.5468896666666666
916797343 0.7558436666666667 -0.5471750000000001
918283222 0.7578296666666667 -0.5474823333333333
919769101 0.7551493333333333 -0.544798
921254980 0.7518316666666666 -0.5457026666666667
922740859 0.752541 -0.5424836666666666
924226738 0.7485813333333332 -0.5428990000000001
925712617 0.7472593333333334 -0.5413156666666666
927198496 0.7399416666666667 -0.5426746666666666
928684375 0.7376453333333334 -0.5381436666666667
930170254 0.7355 -0.5351626666666667
931656133 0.7372736666666667 -0.539398
933142012 0.7389176666666666 -0.543957
934627891 0.7409973333333334 -0.5459213333333334
936113770 0.742464 -0.5483216666666667
937599649 0.7441380000000001 -0.5505416666666666
939085528 0.7449893333333334 -0.5528276666666667
940571407 0.7457086666666667 -0.5536393333333334
942057286 0.7452253333333333 -0.5553343333333333
943543165 0.7494913333333333 -0.5539723333333334
945029044 0.7476166666666666 -0.5555693333333334
946514923 0.7468473333333332 -0.555143
948000802 0.7462403333333333 -0.556297
949486681 0.7461186666666667 -0.5539913333333334
950972560 0.743704 -0.5537803333333333
952458439 0.7427673333333332 -0.5525306666666667
953944318 0.7405116666666666 -0.5516293333333334
955430197 0.7397163333333333 -0.5481143333333334
956916076 0.7370396666666666 -0.5465543333333334
958401955 0.7328643333333332 -0.5452910000000001
959887834 0.7298103333333333 -0.5430153333333333
961373713 0.7304263333333333 -0.5469866666666667
962859592 0.7315873333333333 -0.5478806666666667
964345471 0.7319536666666666 -0.5528293333333333
965831350 0.733737 -0.5533763333333334
967317229 0.7353236666666666 -0.5554803333333332
968803108 0.7352219999999999 -0.5582556666666667
970288987 0.7342643333333333 -0.5616503333333333
971774866 0.7349519999999999 -0.5619236666666666
973260745 0.7351606666666667 -0.5617703333333334
974746624 0.736444 -0.5630503333333333
976232503 0.736218 -0.5629483333333333
977718382 0.733669 -0.5640276666666667
979204261 0.7325776666666667 -0.5634819999999999
980690140 0.731197 -0.5635676666666667
982176019 0.7283753333333333 -0.5618299999999999
983661898 0.729135 -0.5613586666666667
985147777 0.7254916666666666 -0.5587963333333333
986633656 0.7233136666666667 -0.5588733333333332
988119535 0.7227043333333333 -0.5540473333333333
989605414 0.7174643333333334 -0.5551400000000001
991091293 0.7219346666666667 -0.5517679999999999
992577172 0.7184886666666666 -0.5600333333333333
994063051 0.7222423333333333 -0.5589526666666668
995548930 0.7199313333333334 -0.5656746666666668
997034809 0.7238916666666667 -0.5639423333333333
998520688 0.7207236666666667 -0.5686153333333334
1000006567 0.7265413333333334 -0.5642486666666667
1001492446 0.7233666666666667 -0.5693239999999999
1002978325 0.7256559999999999 -0.5672506666666667
1004464204 0.7224483333333334 -0.5698266666666666
1005950083 0.7245406666666666 -0.56753
1007435962 0.71958 -0.5710253333333334
1008921841 0.7230409999999999 -0.5656913333333332
1010407720 0.7170896666666667 -0.570701
1011893599 0.7187943333333333 -0.5653306666666666
1013379478 0.7129146666666667 -0.568419
1014865357 0.714772 -0.5631973333333332
1016351236 0.7079023333333333 -0.5647463333333334
1017837115 0.7087286666666666 -0.5592693333333333
1019322994 0.701996 -0.562261
1020808873 0.7040220000000001 -0.559121
1022294752 0.7016563333333333 -0.5654659999999999
1023780631 0.7071313333333333 -0.5640623333333333
1025266510 0.7054010000000001 -0.5703
1026752389 0.7089193333333332 -0.5687203333333334
1028238268 0.7062050000000001 -0.5729016666666666
1029724147 0.7094080000000001 -0.571343
1031210026 0.7070059999999999 -0.5754386666666667
1032695905 0.70738 -0.5768556666666667
1034181784 0.7070409999999999 -0.5762076666666667
1035667663 0.7051446666666665 -0.5783366666666666
1037153542 0.7040626666666666 -0.5787
1038639421 0.702547 -0.5777553333333333
1040125300 0.7031696666666667 -0.5765710000000001
1041611179 0.7004503333333334 -0.575891
1043097058 0.6988643333333333 -0.5746893333333333
1044582937 0.6972036666666667 -0.572882
1046068816 0.6939623333333333 -0.5738553333333334
1047554695 0.690076 -0.5730496666666668
1049040574 0.6878403333333333 -0.5711656666666666
1050526453 0.688417 -0.570087
1052012332 0.6877356666666667 -0.5743839999999999
1053498211 0.6908756666666668 -0.5749873333333334
1054984090 0.6912516666666667 -0.5763363333333333
1056469969 0.6925046666666668 -0.5796526666666666
1057955848 0.6935690000000001 -0.58165
1059441727 0.6942933333333333 -0.5827793333333333
1060927606 0.6963783333333332 -0.582663
1062413485 0.6961016666666667 -0.5837910000000001
1063899364 0.6959876666666666 -0.5845696666666667
1065385243 0.6948660000000001 -0.5847746666666666
1066871122 0.6950046666666667 -0.583712
1068357001 0.6940419999999999 -0.5855593333333333
1069842880 0.6933506666666666 -0.5835940000000001
1071328759 0.6898776666666667 -0.584869
1072814638 0.6877083333333333 -0.5833383333333333
1074300517 0.6861263333333333 -0.5822133333333334
1075786396 0.684897 -0.5804966666666668
1077272275 0.6816909999999999 -0.5781053333333334
1078758154 0.6790553333333333 -0.5779170000000001
1080244033 0.6760006666666666 -0.577525
1081729912 0.6786886666666666 -0.579208
1083215791 0.6813386666666666 -0.5824466666666667
1084701670 0.6808936666666666 -0.5864953333333334
1086187549 0.681702 -0.5873506666666667
1087673428 0.6844343333333334 -0.5878633333333333
1089159307 0.6848536666666667 -0.5892093333333334
1090645186 0.6877073333333333 -0.5894206666666667
1092131065 0.685895 -0.5914116666666667
1093616944 0.6873353333333333 -0.5907393333333334
1095102823 0.6857393333333334 -0.5890553333333334
1096588702 0.6875023333333333 -0.5891626666666666
1098074581 0.6854939999999999 -0.5905983333333333
1099560460 0.683659 -0.5909963333333333
1101046339 0.679793 -0.591087
1102532218 0.6788603333333333 -0.5893286666666667
1104018097 0.677508 -0.58722
1105503976 0.6730200000000001 -0.586586
1106989855 0.6712866666666667 -0.5853526666666666
1108475734 0.667272 -0.5836926666666666
1109961613 0.6637939999999999 -0.5819133333333334
1111447492 0.6668153333333334 -0.5849456666666667
1112933371 0.6682223333333335 -0.587283
1114419250 0.669416 -0.5889876666666667
1115905129 0.6721803333333334 -0.5928426666666667
1117391008 0.6722926666666668 -0.5948593333333333
1118876887 0.6721136666666667 -0.5968239999999999
1120362766 0.6738653333333332 -0.5972233333333333
1121848645 0.678868 -0.5960226666666667
1123334524 0.6745086666666666 -0.5987893333333333
1124820403 0.675749 -0.599383
1126306282 0.6760116666666667 -0.6007426666666666
1127792161 0.6713450000000001 -0.6008943333333333
1129278040 0.671261 -0.6002646666666666
1130763919 0.67008 -0.5994289999999999
1132249798 0.6678890000000001 -0.5968249999999999
1133735677 0.6656933333333334 -0.5987033333333333
1135221556 0.661968 -0.5974016666666667
1136707435 0.6596313333333333 -0.5952163333333335
1138193314 0.6565463333333333 -0.5960353333333334
1139679193 0.6526913333333333 -0.5933923333333334
1141165072 0.6512976666666667 -0.5944043333333333
1142650951 0.654868 -0.5991796666666667
1144136830 0.6555306666666666 -0.602269
1145622709 0.6592863333333333 -0.6023016666666666
1147108588 0.6586563333333334 -0.6051503333333333
1148594467 0.6602506666666667 -0.6078553333333333
1150080346 0.6607316666666666 -0.609576
1151566225 0.6614939999999999 -0.6091396666666666
1153052104 0.6609683333333333 -0.6099496666666666
1154537983 0.6591196666666667 -0.612674
1156023862 0.6593363333333333 -0.6108896666666667
1157509741 0.6601363333333333 -0.608763
1158995620 0.6544603333333333 -0.612764
1160481499 0.6564566666666667 -0.6080303333333333
1161967378 0.653568 -0.608444
1163453257 0.6529733333333333 -0.6035696666666667
1164939136 0.64861 -0.6030246666666667
1166425015 0.6442899999999999 -0.6031736666666666
1167910894 0.6420043333333333 -0.60286
1169396773 0.6359346666666666 -0.60095
1170882652 0.6362616666666667 -0.6023483333333334
1172368531 0.638743 -0.603893
1173854410 0.640929 -0.6059943333333334
1175340289 0.6391749999999999 -0.6099303333333334
1176826168 0.641177 -0.6123713333333334
1178312047 0.641807 -0.6148086666666667
1179797926 0.642671 -0.6145393333333333
1181283805 0.6419413333333334 -0.6146816666666667
1182769684 0.6409046666666667 -0.6174523333333334
1184255563 0.6425676666666666 -0.616982
1185741442 0.6420113333333334 -0.616765
1187227321 0.638725 -0.6177723333333334
1188713200 0.6367113333333333 -0.616733
1190199079 0.635163 -0.6157026666666667
1191684958 0.634744 -0.6150973333333333
1193170837 0.6323093333333333 -0.6127053333333334
1194656716 0.6279406666666666 -0.6123266666666667
1196142595 0.6251273333333334 -0.6104093333333334
1197628474 0.6220033333333332 -0.6087056666666667
1199114353 0.6175080000000001 -0.6060120000000001
1200600232 0.615571 -0.6068533333333334
1202086111 0.6184980000000001 -0.610143
1203571990 0.6175630000000001 -0.6141523333333333
1205057869 0.6206023333333334 -0.6168383333333333
1206543748 0.6229166666666667 -0.6186053333333333
1208029627 0.6234093333333334 -0.6205643333333334
1209515506 0.6238813333333333 -0.6230483333333333
1211001385 0.6237286666666667 -0.6249363333333334
1212487264 0.6236173333333334 -0.626094
1213973143 0.6263960000000001 -0.625645
1215459022 0.624542 -0.626417
1216944901 0.6232166666666666 -0.62724
1218430780 0.623361 -0.6260183333333333
1219916659 0.6232306666666666 -0.62383
1221402538 0.62175 -0.6234043333333333
1222888417 0.6186743333333333 -0.6215473333333333
1224374296 0.6166729999999999 -0.62092
1225860175 0.6138549999999999 -0.62003
1227346054 0.647339 -0.6344376666666667
1228831933 0.6087626666666667 -0.6121829999999999
1230317812 0.6072703333333332 -0.6114879999999999
1231803691 0.6072299999999999 -0.6154016666666667
1233289570 0.6082056666666666 -0.6189313333333333
1234775449 0.6100266666666666 -0.6204653333333333
1236261328 0.6115926666666667 -0.6221853333333334
1237747207 0.6123526666666667 -0.6239529999999999
1239233086 0.612015 -0.6260416666666667
1240718965 0.612297 -0.6268950000000001
1242204844 0.6132703333333333 -0.626931
1243690723 0.6128109999999999 -0.6280476666666667
1245176602 0.613992 -0.6256339999999999
1246662481 0.613275 -0.6252876666666666
1248148360 0.6118196666666668 -0.6236983333333334
1249634239 0.611384 -0.6237713333333333
1251120118 0.6095936666666667 -0.622096
1252605997 0.6070683333333333 -0.6201336666666667
1254091876 0.6042913333333333 -0.6197306666666668
1255577755 0.6028209999999999 -0.616421
1257063634 0.6031676666666667 -0.6116376666666666
1258549513 0.598156 -0.6106766666666666
1260035392 0.5936976666666666 -0.6052073333333333
1261521271 0.5950173333333333 -0.6103953333333334
1263007150 0.5938063333333333 -0.6143953333333333
1264493029 0.5939610000000001 -0.6172483333333333
1265978908 0.5932013333333334 -0.6203633333333333
1267464787 0.5958100000000001 -0.6227186666666666
1268950666 0.5964043333333334 -0.6218606666666667
1270436545 0.5960513333333334 -0.6250316666666667
1271922424 0.5595203333333333 -0.6199066666666667
1273408303 0.594256 -0.6272703333333334
1274894182 0.5933936666666666 -0.6267516666666667
1276380061 0.5907996666666667 -0.6284126666666666
1277865940 0.5936403333333334 -0.6279223333333334
1279351819 0.5908596666666667 -0.6269636666666666
1280837698 0.6050396666666666 -0.6220413333333333
1282323577 0.5856303333333334 -0.6267176666666666
1283809456 0.5864440000000001 -0.6255556666666667
1285295335 0.5815586666666667 -0.6247400000000001
1286781214 0.5815266666666666 -0.6198739999999999
1288267093 0.574792 -0.6224426666666667
1289752972 0.5722733333333333 -0.617046
1291238851 0.5738683333333333 -0.6212263333333333
1292724730 0.5784236666666667 -0.6212593333333333
1294210609 0.5778633333333333 -0.6253669999999999
1295696488 0.578177 -0.6272916666666667
1297182367 0.578369 -0.6291896666666666
1298668246 0.5783936666666666 -0.6321766666666667
1300154125 0.5816146666666667 -0.632545
1301640004 0.580401 -0.6326156666666667
1303125883 0.5810133333333334 -0.6333513333333333
1304611762 0.578766 -0.634764
1306097641 0.5804223333333334 -0.6332156666666666
1307583520 0.5823809999999999 -0.6313963333333333
1309069399 0.5803723333333334 -0.63057
1310555278 0.5807516666666667 -0.6286839999999999
1312041157 0.5809153333333333 -0.6267133333333333
1313527036 0.5780470000000001 -0.627051
1315012915 0.5782789999999999 -0.6223806666666667
1316498794 0.5742693333333334 -0.622023
1317984673 0.573551 -0.6182286666666666
1319470552 0.5693413333333334 -0.617343
1320956431 0.5722153333333334 -0.6194013333333334
1322442310 0.5712266666666667 -0.6201603333333333
1323928189 0.5725326666666667 -0.6220566666666666
1325414068 0.5737373333333333 -0.6251249999999999
1326899947 0.5740046666666666 -0.6263326666666668
1328385826 0.573964 -0.6286303333333333
1329871705 0.5766143333333332 -0.630815
1331357584 0.5784403333333333 -0.6284806666666666
1332843463 0.577255 -0.6281656666666667
1334329342 0.574695 -0.6324230000000001
1335815221 0.5768703333333333 -0.6338113333333334
1337301100 0.576219 -0.6315933333333333
1338786979 0.5757713333333333 -0.6326586666666666
1340272858 0.5745693333333334 -0.6340473333333333
1341758737 0.5725106666666667 -0.6327786666666666
1343244616 0.573246 -0.6313460000000001
1344730495 0.5711273333333333 -0.630207
1346216374 0.5685156666666665 -0.628
1347702253 0.569395 -0.624343
1349188132 0.5659443333333333 -0.6249083333333333
1350674011 0.563291 -0.625363
1352159890 0.5651883333333333 -0.6263603333333333
1353645769 0.5660193333333333 -0.6302236666666666
1355131648 0.5651603333333334 -0.6305850000000001
1356617527 0.564908 -0.6331873333333333
1358103406 0.5638376666666667 -0.6351883333333332
1359589285 0.5632183333333333 -0.6361156666666666
1361075164 0.5648179999999999 -0.6363426666666667
1362561043 0.5618193333333333 -0.6350673333333333
1364046922 0.5621276666666667 -0.635242
1365532801 0.5605490000000001 -0.6366323333333334
1367018680 0.5590809999999999 -0.6355270000000001
1368504559 0.5578373333333334 -0.6360233333333333
1369990438 0.5576690000000001 -0.633676
1371476317 0.5530126666666667 -0.6328893333333333
1372962196 0.5518233333333333 -0.6313113333333334
1374448075 0.5482100000000001 -0.632759
1375933954 0.5452586666666667 -0.632231
1377419833 0.5169440000000001 -0.6295733333333334
1378905712 0.5388076666666667 -0.6297579999999999
1380391591 0.5381783333333333 -0.6271826666666667
1381877470 0.5368206666666666 -0.6313746666666668
1383363349 0.5430366666666666 -0.633393
1384849228 0.5440809999999999 -0.6365903333333334
1386335107 0.5446716666666666 -0.6379616666666666
1387820986 0.5463396666666667 -0.640543
1389306865 0.547809 -0.6399283333333333
1390792744 0.5497163333333334 -0.6398856666666667
1392278623 0.5506236666666666 -0.6419803333333333
1393764502 0.5525886666666667 -0.6407123333333334
1395250381 0.5528486666666667 -0.6396266666666667
1396736260 0.5517599999999999 -0.640683
1398222139 0.5497033333333333 -0.641849
1399708018 0.552102 -0.641001
1401193897 0.550894 -0.638719
1402679776 0.547813 -0.6392923333333334
1404165655 0.5470050000000001 -0.637627
1405651534 0.5484873333333333 -0.6348153333333334
1407137413 0.5452856666666667 -0.6320833333333333
1408623292 0.5423756666666666 -0.6319146666666667
1410109171 0.5412886666666666 -0.628707
1411595050 0.546966 -0.6313876666666666
1413080929 0.5451156666666667 -0.6354153333333333
1414566808 0.5496903333333333 -0.6383303333333333
1416052687 0.5498569999999999 -0.6409016666666667
1417538566 0.5505776666666666 -0.645701
1419024445 0.5541010000000001 -0.6438583333333333
1420510324 0.5539616666666667 -0.6442943333333333
1421996203 0.5545146666666666 -0.6463986666666667
1423482082 0.5581563333333334 -0.646842
1424967961 0.5569746666666666 -0.646081
1426453840 0.558395 -0.6457366666666667
1427939719 0.5574646666666667 -0.646744
1429425598 0.555233 -0.6453623333333334
1430911477 0.5662273333333333 -0.640393
1432397356 0.5531596666666667 -0.641968
1433883235 0.5553113333333334 -0.641578
1435369114 0.5535873333333333 -0.638968
1436854993 0.549809 -0.6403186666666666
1438340872 0.5481876666666667 -0.6367053333333333
1439826751 0.5434086666666668 -0.6367213333333334
1441312630 0.54422 -0.6378050000000001
1442798509 0.5458533333333334 -0.6409433333333333
1444284388 0.5496033333333333 -0.6428516666666667
1445770267 0.5491016666666666 -0.6437596666666666
1447256146 0.549176 -0.646275
1448742025 0.5510666666666667 -0.6453376666666667
1450227904 0.5493443333333334 -0.6481176666666667
1451713783 0.551262 -0.6470540000000001
1453199662 0.550706 -0.6480793333333333
1454685541 0.5502043333333333 -0.6482566666666667
1456171420 0.5495306666666666 -0.6467949999999999
1457657299 0.5464403333333333 -0.6473479999999999
1459143178 0.545009 -0.6460563333333335
1460629057 0.5423833333333333 -0.6462136666666666
1462114936 0.540278 -0.6449386666666667
1463600815 0.5374556666666667 -0.643964
1465086694 0.536952 -0.640493
1466572573 0.5313846666666667 -0.6404356666666667
1468058452 0.5290406666666667 -0.639377
1469544331 0.5248423333333334 -0.635595
1471030210 0.5253606666666667 -0.6375756666666667
1472516089 0.5282296666666667 -0.6412016666666666
1474001968 0.5280966666666668 -0.643957
1475487847 0.5284513333333334 -0.6475493333333334
1476973726 0.5317856666666666 -0.6490373333333332
1478459605 0.532953 -0.6518873333333334
1479945484 0.5337040000000001 -0.6512623333333333
1481431363 0.533581 -0.6520819999999999
1482917242 0.5350646666666666 -0.6536436666666666
1484403121 0.5331206666666667 -0.655352
1485889000 0.532394 -0.6556853333333333
1487374879 0.5349956666666666 -0.6541566666666666
1488860758 0.5333106666666666 -0.6532666666666667
1490346637 0.5314226666666667 -0.6522183333333333
1491832516 0.5317980000000001 -0.6503943333333333
1493318395 0.5281606666666666 -0.6492786666666667
1494804274 0.528491 -0.6483150000000001
1496290153 0.5231196666666668 -0.6463843333333333
1497776032 0.5214093333333333 -0.6431683333333332
1499261911 0.5198563333333334 -0.6407226666666667
1500747790 0.5176576666666667 -0.6412453333333333
1502233669 0.5189926666666667 -0.6448116666666667
1503719548 0.5193599999999999 -0.6476956666666668
1505205427 0.5211073333333333 -0.6509933333333334
1506691306 0.5210486666666667 -0.653485
1508177185 0.5219186666666668 -0.6550833333333334
1509663064 0.5225810000000001 -0.657223
1511148943 0.521906 -0.6580159999999999
1512634822 0.5241053333333334 -0.6566496666666667
1514120701 0.5203386666666666 -0.6592786666666667
1515606580 0.5206753333333333 -0.659246
1517092459 0.5196436666666666 -0.659268
1518578338 0.5198036666666667 -0.6581819999999999
1520064217 0.522259 -0.6579216666666666
1521550096 0.5137143333333333 -0.6565593333333334
1523035975 0.5129776666666666 -0.6546126666666666
1524521854 0.511103 -0.6524436666666666
1526007733 0.5056820000000001 -0.6528083333333333
1527493612 0.5247663333333333 -0.6814986666666667
1528979491 0.5002583333333334 -0.6462853333333334
1530465370 0.49928833333333333 -0.6479226666666666
1531951249 0.49989633333333333 -0.6495476666666666
1533437128 0.5008613333333334 -0.6518073333333333
1534923007 0.5017633333333333 -0.6559856666666667
1536408886 0.5011736666666667 -0.658934
1537894765 0.5033316666666666 -0.660655
1539380644 0.5023993333333333 -0.6612680000000001
1540866523 0.5061196666666667 -0.6604543333333334
1542352402 0.5039996666666667 -0.6611123333333334
1543838281 0.502552 -0.663581
1545324160 0.5059273333333333 -0.659925
1546810039 0.5020573333333334 -0.6622693333333333
1548295918 0.5020573333333332 -0.6613356666666667
1549781797 0.5023526666666667 -0.6568776666666666
1551267676 0.499739 -0.6578176666666667
1552753555 0.4968326666666667 -0.6572496666666667
1554239434 0.49585300000000004 -0.6529593333333333
1555725313 0.49467599999999995 -0.6503106666666666
1557211192 0.4922006666666667 -0.6478149999999999
1558697071 0.484547 -0.6466500000000001
1560182950 0.4845016666666666 -0.6429553333333333
1561668829 0.48505100000000007 -0.6473619999999999
1563154708 0.48612900000000003 -0.649077
1564640587 0.48541866666666666 -0.653076
1566126466 0.48885766666666663 -0.65455
1567612345 0.48910366666666666 -0.6578933333333333
1569098224 0.4900633333333333 -0.6584603333333333
1570584103 0.4900286666666667 -0.6610523333333335
1572069982 0.48891733333333337 -0.6622386666666666
1573555861 0.48766966666666667 -0.6625260000000001
1575041740 0.48832766666666666 -0.664587
1576527619 0.48823066666666665 -0.663771
1578013498 0.4873956666666666 -0.6633506666666668
1579499377 0.4873266666666667 -0.6623020000000001
1580985256 0.48590466666666665 -0.6608176666666666
1582471135 0.48580399999999996 -0.659903
1583957014 0.481698 -0.6592950000000001
1585442893 0.4788843333333333 -0.6562016666666666
1586928772 0.4789753333333333 -0.6547556666666666
1588414651 0.47754433333333335 -0.6510716666666667
1589900530 0.4740816666666667 -0.6482986666666667
1591386409 0.47434033333333336 -0.652054
1592872288 0.4754486666666667 -0.655307
1594358167 0.47612933333333335 -0.6574513333333333
1595844046 0.476095 -0.6603966666666666
1597329925 0.47410800000000003 -0.6638743333333333
1598815804 0.4771973333333333 -0.664346
1600301683 0.4803406666666667 -0.6636943333333334
1601787562 0.47554466666666667 -0.6665546666666667
1603273441 0.478133 -0.666601
1604759320 0.477813 -0.6658430000000001
1606245199 0.476729 -0.6661056666666666
1607731078 0.47993933333333333 -0.6645763333333333
1609216957 0.477214 -0.664921
1610702836 0.47517699999999996 -0.6645163333333333
1612188715 0.4750566666666667 -0.6623833333333332
1613674594 0.47287266666666666 -0.661803
1615160473 0.47403033333333333 -0.6566486666666665
1616646352 0.47031333333333336 -0.6560060000000001
1618132231 0.46862699999999996 -0.6530973333333333
1619618110 0.466186 -0.6504193333333333
1621103989 0.4645963333333334 -0.6522743333333333
1622589868 0.46856766666666666 -0.6538216666666666
1624075747 0.4649933333333333 -0.6578803333333334
1625561626 0.46702366666666667 -0.6607996666666667
1627047505 0.4641486666666667 -0.6640066666666667
1628533384 0.465019 -0.6647193333333333
1630019263 0.4655263333333333 -0.6658316666666666
1631505142 0.46684400000000004 -0.666426
1632991021 0.4663096666666667 -0.6671716666666666
1634476900 0.464464 -0.6688903333333333
1635962779 0.463288 -0.6697736666666666
1637448658 0.46591 -0.6678733333333332
1638934537 0.46686999999999995 -0.6661183333333334
1640420416 0.46172966666666665 -0.667653
1641906295 0.46237966666666663 -0.6662276666666666
1643392174 0.4602583333333334 -0.665248
1644878053 0.458839 -0.6618843333333334
1646363932 0.45657733333333334 -0.6606489999999999
1647849811 0.45288599999999996 -0.660507
1649335690 0.45111866666666667 -0.6582013333333333
1650821569 0.45252033333333336 -0.6584813333333334
1652307448 0.45275899999999997 -0.6597283333333334
1653793327 0.4540406666666667 -0.6609403333333334
1655279206 0.4539773333333333 -0.6633006666666666
1656765085 0.4527033333333333 -0.665823
1658250964 0.4544793333333333 -0.6680106666666666
1659736843 0.4551833333333333 -0.6668063333333333
1661222722 0.452876 -0.6697873333333333
1662708601 0.454069 -0.6691556666666667
1664194480 0.452092 -0.6710313333333334
1665680359 0.45378333333333326 -0.6685696666666666
1667166238 0.45080533333333334 -0.670888
1668652117 0.45025733333333334 -0.6685886666666666
1670137996 0.44960466666666665 -0.6683226666666666
1671623875 0.4502766666666667 -0.6654393333333334
1673109754 0.44641899999999995 -0.666149
1674595633 0.45307866666666663 -0.6601483333333333
1676081512 0.45056500000000005 -0.659165
1677567391 0.4479 -0.6565506666666666
1679053270 0.45063533333333333 -0.6518833333333333
1680539149 0.4473736666666667 -0.6518466666666667
1682025028 0.44735733333333333 -0.6574650000000001
1683510907 0.4478026666666666 -0.6593503333333333
1684996786 0.44958566666666666 -0.6597113333333333
1686482665 0.4511056666666666 -0.6626310000000001
1687968544 0.45148866666666665 -0.6667763333333333
1689454423 0.453163 -0.665957
1690940302 0.45447966666666667 -0.6659943333333334
1692426181 0.45692099999999997 -0.6664140000000001
1693912060 0.45619699999999996 -0.6679293333333334
1695397939 0.4488106666666667 -0.6694773333333334
1696883818 0.444738 -0.6715416666666666
1698369697 0.4475036666666667 -0.6687786666666667
1699855576 0.44634033333333334 -0.6682203333333333
1701341455 0.44789199999999996 -0.6661876666666667
1702827334 0.4456003333333333 -0.6653763333333333
1704313213 0.446185 -0.6619016666666666
1705799092 0.44201766666666664 -0.6602686666666666
1707284971 0.44210900000000003 -0.6589913333333334
1708770850 0.44076566666666667 -0.657132
1710256729 0.44027466666666665 -0.6549453333333334
1711742608 0.4391393333333333 -0.6588393333333334
1713228487 0.44048033333333336 -0.6598443333333334
1714714366 0.44037666666666664 -0.6626843333333333
1716200245 0.44153133333333333 -0.664555
1717686124 0.44431133333333334 -0.6636936666666667
1719172003 0.4449973333333333 -0.6667350000000001
1720657882 0.4426213333333333 -0.666718
1722143761 0.44186433333333336 -0.6694650000000001
1723629640 0.4411886666666667 -0.668824
1725115519 0.44346599999999997 -0.6672436666666667
1726601398 0.44333266666666665 -0.6665503333333334
1728087277 0.4389693333333334 -0.6695543333333333
1729573156 0.4284506666666667 -0.6660210000000001
1731059035 0.437676 -0.6648676666666667
1732544914 0.43699533333333335 -0.6619083333333333
1734030793 0.435205 -0.6607339999999999
1735516672 0.43315666666666663 -0.659656
1737002551 0.43330166666666664 -0.6599370000000001
1738488430 0.4266183333333333 -0.6582123333333333
1739974309 0.42665933333333333 -0.6538306666666667
1741460188 0.4289433333333333 -0.656784
1742946067 0.428726 -0.6596033333333334
1744431946 0.4302603333333333 -0.661358
1745917825 0.4311506666666667 -0.6628753333333334
1747403704 0.4312913333333333 -0.665368
1748889583 0.4320296666666667 -0.6697416666666666
1750375462 0.4312303333333333 -0.6696093333333333
1751861341 0.4327303333333333 -0.6702
1753347220 0.43401633333333334 -0.6696266666666667
1754833099 0.43104566666666666 -0.6712966666666667
1756318978 0.43207966666666664 -0.671696
1757804857 0.43091433333333334 -0.6707543333333333
1759290736 0.4309633333333333 -0.6702053333333334
1760776615 0.43033866666666665 -0.6715050000000001
1762262494 0.43009500000000006 -0.6686143333333333
1763748373 0.42629433333333333 -0.6665846666666667
1765234252 0.42826666666666674 -0.665643
1766720131 0.4232826666666667 -0.6634156666666667
1768206010 0.4192903333333333 -0.661433
1769691889 0.41848233333333335 -0.6607283333333334
1771177768 0.420846 -0.659097
1772663647 0.42284499999999997 -0.6633893333333334
1774149526 0.42352799999999996 -0.6653583333333334
1775635405 0.42455966666666667 -0.668009
1777121284 0.42609 -0.67117
1778607163 0.4288353333333333 -0.670956
1780093042 0.42844699999999997 -0.673283
1781578921 0.42694633333333326 -0.674138
1783064800 0.4293356666666667 -0.6753866666666667
1784550679 0.42925966666666665 -0.6741296666666666
1786036558 0.431735 -0.6742473333333333
1787522437 0.4319 -0.6763986666666666
1789008316 0.43129999999999996 -0.672486
1790494195 0.428529 -0.6725326666666667
1791980074 0.4284666666666667 -0.6690339999999999
1793465953 0.4280623333333333 -0.6681123333333333
1794951832 0.4253943333333334 -0.6659563333333333
1796437711 0.42329900000000004 -0.6636653333333333
1797923590 0.42282666666666663 -0.6598583333333333
1799409469 0.4207376666666667 -0.6577726666666667
1800895348 0.414136 -0.659599
1802381227 0.418082 -0.663449
1803867106 0.4217233333333334 -0.6621813333333333
1805352985 0.4197946666666667 -0.6665583333333334
1806838864 0.41936599999999996 -0.6684993333333334
1808324743 0.42324266666666666 -0.6685663333333333
1809810622 0.424666 -0.6695540000000001
1811296501 0.42150399999999993 -0.6724613333333332
1812782380 0.42349299999999995 -0.6713093333333333
1814268259 0.42059533333333327 -0.6715226666666667
1815754138 0.419143 -0.672024
1817240017 0.4187796666666667 -0.670192
1818725896 0.4208716666666667 -0.66625
1820211775 0.4169053333333333 -0.6683073333333334
1821697654 0.4188503333333333 -0.6653749999999999
1823183533 0.41154566666666664 -0.6657593333333334
1824669412 0.411603 -0.6618026666666667
1826155291 0.3976566666666667 -0.6573053333333334
1827641170 0.4006956666666666 -0.653069
1829127049 0.40592100000000003 -0.652701
1830612928 0.40558266666666665 -0.6537296666666667
1832098807 0.4027153333333333 -0.6587216666666666
1833584686 0.40375933333333336 -0.6607676666666666
1835070565 0.409759 -0.661718
1836556444 0.40471900000000005 -0.6660243333333334
1838042323 0.41157400000000005 -0.6675040000000001
1839528202 0.41238766666666665 -0.6676653333333333
1841014081 0.4114706666666667 -0.6693133333333333
1842499960 0.4113656666666667 -0.6693910000000001
1843985839 0.41455400000000003 -0.6687099999999999
1845471718 0.41220833333333334 -0.6695576666666666
1846957597 0.40781433333333333 -0.6743220000000001
1848443476 0.40984033333333336 -0.671389
1849929355 0.40969799999999995 -0.6693889999999999
1851415234 0.40973433333333337 -0.6699060000000001
1852901113 0.40806633333333336 -0.6660033333333333
1854386992 0.40437866666666666 -0.6688916666666667
1855872871 0.40017433333333335 -0.6659173333333333
1857358750 0.398913 -0.6625683333333333
1858844629 0.3943136666666667 -0.6627996666666667
1860330508 0.39489100000000005 -0.659823
1861816387 0.39292066666666664 -0.6627706666666667
1863302266 0.3976106666666667 -0.6645513333333333
1864788145 0.39658 -0.6689023333333334
1866274024 0.3983006666666667 -0.6709806666666666
1867759903 0.3989823333333333 -0.6723673333333333
1869245782 0.39790600000000004 -0.6737616666666666
1870731661 0.3976933333333334 -0.6753936666666668
1872217540 0.3998643333333334 -0.675221
1873703419 0.39946166666666666 -0.6769423333333333
1875189298 0.3972976666666666 -0.6778923333333333
1876675177 0.40011066666666667 -0.6762903333333333
1878161056 0.3991753333333334 -0.675087
1879646935 0.3977223333333333 -0.6756326666666667
1881132814 0.4007296666666667 -0.6735713333333333
1882618693 0.39671933333333337 -0.6723923333333334
1884104572 0.396614 -0.6707976666666666
1885590451 0.39353466666666664 -0.6672859999999999
1887076330 0.39306166666666664 -0.6662776666666667
1888562209 0.3908663333333333 -0.6634833333333333
1890048088 0.3902853333333334 -0.661041
1891533967 0.3898886666666667 -0.6642963333333333
1893019846 0.38918366666666665 -0.6658013333333334
1894505725 0.389983 -0.6680386666666666
1895991604 0.388731 -0.6679923333333333
1897477483 0.39125066666666664 -0.6721850000000001
1898963362 0.391029 -0.67293
1900449241 0.3898276666666667 -0.6738473333333334
1901935120 0.3935356666666667 -0.6732666666666667
1903420999 0.3903486666666667 -0.674331
1904906878 0.39202333333333333 -0.6742606666666666
1906392757 0.3931546666666667 -0.6708449999999999
1907878636 0.39170599999999994 -0.672759
1909364515 0.38776066666666664 -0.6707559999999999
1910850394 0.390781 -0.668802
1912336273 0.38653 -0.6679143333333334
1913822152 0.385702 -0.6648546666666667
1915308031 0.38620366666666667 -0.6614313333333334
1916793910 0.38171099999999997 -0.6605
1918279789 0.38057199999999997 -0.6572619999999999
1919765668 0.379675 -0.655111
1921251547 0.3775386666666667 -0.6561913333333332
1922737426 0.38205500000000003 -0.6592726666666666
1924223305 0.37834366666666663 -0.6641386666666667
1925709184 0.3745716666666667 -0.6679360000000001
1927195063 0.3793626666666667 -0.669113
1928680942 0.37947899999999996 -0.6709436666666666
1930166821 0.3792416666666667 -0.6712913333333334
1931652700 0.38116533333333336 -0.6713516666666667
1933138579 0.37940033333333334 -0.6721386666666667
1934624458 0.379404 -0.6732843333333333
1936110337 0.37700300000000003 -0.6731926666666667
1937596216 0.3803716666666666 -0.6722033333333334
1939082095 0.381802 -0.6707123333333334
1940567974 0.38005399999999995 -0.6701996666666666
1942053853 0.37875166666666665 -0.6693833333333333
1943539732 0.3772873333333333 -0.670316
1945025611 0.3789896666666666 -0.666404
1946511490 0.37143333333333334 -0.6667846666666666
1947997369 0.3690743333333333 -0.6665693333333333
1949483248 0.369429 -0.6618456666666667
1950969127 0.3693576666666667 -0.6625260000000001
1952455006 0.36945466666666665 -0.665921
1953940885 0.3728916666666667 -0.6654059999999999
1955426764 0.3703093333333333 -0.6704916666666666
1956912643 0.3716973333333333 -0.671799
1958398522 0.3745483333333333 -0.669578
1959884401 0.36805166666666667 -0.6750256666666666
1961370280 0.37007966666666664 -0.674314
1962856159 0.36999966666666667 -0.6739800000000001
1964342038 0.36976433333333336 -0.673104
1965827917 0.37112100000000003 -0.6715803333333333
1967313796 0.3711853333333333 -0.672561
1968799675 0.37026999999999993 -0.6725636666666667
1970285554 0.36594466666666664 -0.6710226666666667
1971771433 0.3657903333333334 -0.6703403333333333
1973257312 0.34082433333333334 -0.6346446666666666
1974743191 0.36247366666666664 -0.6692673333333333
1976229070 0.363513 -0.664902
1977714949 0.361224 -0.6593136666666667
1979200828 0.354023 -0.661496
1980686707 0.35474500000000003 -0.6599493333333334
1982172586 0.355796 -0.6635093333333333
1983658465 0.3589453333333334 -0.6633836666666667
1985144344 0.356837 -0.6676426666666666
1986630223 0.362104 -0.6687773333333333
1988116102 0.35697266666666666 -0.6701943333333333
1989601981 0.35387166666666664 -0.6673976666666667
1991087860 0.3572113333333333 -0.6740536666666667
1992573739 0.356725 -0.6756289999999999
1994059618 0.3567403333333334 -0.6741639999999999
1995545497 0.359895 -0.6718943333333334
1997031376 0.3562823333333333 -0.6740296666666667
1998517255 0.3546263333333333 -0.674651
2000003134 0.3553793333333333 -0.6720113333333334
2001489013 0.3515633333333333 -0.6724336666666666
2002974892 0.353431 -0.670035
2004460771 0.35179200000000005 -0.665693
2005946650 0.35068366666666667 -0.6650593333333333
2007432529 0.3497753333333334 -0.6629743333333333
2008918408 0.34468733333333335 -0.66125
2010404287 0.34700533333333333 -0.6578876666666668
2011890166 0.34652900000000003 -0.6599953333333333
2013376045 0.345289 -0.6675103333333333
2014861924 0.34654333333333337 -0.6684053333333333
2016347803 0.3479156666666667 -0.6704446666666666
2017833682 0.347013 -0.6745843333333333
2019319561 0.35052633333333333 -0.6722666666666667
2020805440 0.3509503333333333 -0.6738020000000001
2022291319 0.351586 -0.673167
2023777198 0.3471093333333333 -0.6761043333333334
2025263077 0.34849099999999994 -0.6744083333333334
2026748956 0.35201400000000005 -0.673938
2028234835 0.3468333333333333 -0.6765963333333334
2029720714 0.35000566666666666 -0.6735303333333333
2031206593 0.347067 -0.673893
2032692472 0.347652 -0.6717086666666666
2034178351 0.34575766666666663 -0.6709383333333333
2035664230 0.3437846666666666 -0.6683323333333333
2037150109 0.342389 -0.666572
2038635988 0.34014666666666665 -0.6654559999999999
2040121867 0.340441 -0.6609733333333333
2041607746 0.339158 -0.6639283333333333
2043093625 0.34042466666666665 -0.6669223333333333
2044579504 0.3390606666666667 -0.6703716666666667
2046065383 0.3429353333333333 -0.6681416666666666
2047551262 0.34261 -0.6703876666666666
2049037141 0.34129233333333336 -0.6727946666666668
2050523020 0.33997733333333335 -0.6713779999999999
2052008899 0.3384913333333333 -0.6740793333333333
2053494778 0.34082166666666663 -0.6729486666666666
2054980657 0.3399163333333333 -0.6727376666666666
2056466536 0.33796833333333337 -0.6726236666666666
2057952415 0.33644566666666664 -0.6714933333333333
2059438294 0.3356046666666667 -0.6708836666666667
2060924173 0.3375013333333334 -0.667239
2062410052 0.3331636666666667 -0.6690346666666667
2063895931 0.3323523333333333 -0.6666726666666666
2065381810 0.33091766666666667 -0.6618156666666667
2066867689 0.327049 -0.6637873333333334
2068353568 0.3254116666666667 -0.659238
2069839447 0.32119899999999996 -0.6577886666666667
2071325326 0.32201433333333335 -0.6601573333333333
2072811205 0.325366 -0.663589
2074297084 0.32633433333333334 -0.6630546666666667
2075782963 0.3283776666666667 -0.6676323333333333
2077268842 0.3281133333333333 -0.6695963333333333
2078754721 0.32847833333333337 -0.6713673333333333
2080240600 0.3280596666666667 -0.6743613333333333
2081726479 0.32928033333333334 -0.671954
2083212358 0.329382 -0.6738766666666667
2084698237 0.3307583333333333 -0.6740086666666666
2086184116 0.33156766666666665 -0.6734983333333333
2087669995 0.33002166666666666 -0.6729903333333334
2089155874 0.33031933333333335 -0.672742
2090641753 0.33081999999999995 -0.6712663333333334
2092127632 0.32853233333333337 -0.6688753333333334
2093613511 0.32934800000000003 -0.6690740000000001
2095099390 0.3292043333333333 -0.6656453333333333
2096585269 0.3269896666666667 -0.6643466666666668
2098071148 0.32488100000000003 -0.6630776666666667
2099557027 0.3254893333333333 -0.6590203333333333
2101042906 0.324657 -0.6589046666666666
2102528785 0.3231873333333333 -0.6637836666666667
2104014664 0.32287399999999994 -0.66634
2105500543 0.3263583333333333 -0.6674616666666666
2106986422 0.32586166666666666 -0.6713823333333333
2108472301 0.328439 -0.6729073333333333
2109958180 0.32741833333333337 -0.6728236666666666
2111444059 0.3271186666666666 -0.6734513333333334
2112929938 0.32944466666666666 -0.674369
2114415817 0.3266493333333333 -0.6748583333333332
2115901696 0.3268486666666666 -0.675627
2117387575 0.327359 -0.6750249999999999
2118873454 0.32627 -0.6741953333333334
2120359333 0.3251773333333334 -0.6713293333333334
2121845212 0.32553266666666664 -0.6715616666666667
2123331091 0.3249396666666667 -0.6695366666666667
2124816970 0.3317033333333334 -0.6667116666666667
2126302849 0.323067 -0.6656716666666668
2127788728 0.31809466666666664 -0.663503
2129274607 0.3160153333333333 -0.6618826666666667
2130760486 0.31901466666666667 -0.6617113333333333
2132246365 0.3197653333333333 -0.662651
2133732244 0.3199626666666667 -0.6656306666666667
2135218123 0.31612866666666667 -0.6689323333333332
2136704002 0.3181853333333333 -0.6707190000000001
2138189881 0.3166486666666667 -0.6730526666666666
2139675760 0.31734099999999993 -0.6721686666666667
2141161639 0.316686 -0.6751366666666666
2142647518 0.31614333333333333 -0.6758503333333333
2144133397 0.31701633333333334 -0.676249
2145619276 0.315874 -0.6738183333333333
2147105155 0.314649 -0.6744616666666667
2148591034 0.31529233333333334 -0.6736063333333333
2150076913 0.3131083333333333 -0.6737686666666667
2151562792 0.31925833333333337 -0.6705456666666666
2153048671 0.3100963333333333 -0.6728093333333334
2154534550 0.31114400000000003 -0.669107
2156020429 0.31360733333333335 -0.6664366666666667
2157506308 0.30785333333333337 -0.6648456666666667
2158992187 0.3071356666666667 -0.661919
2160478066 0.30300499999999997 -0.6643636666666667
2161963945 0.3052553333333333 -0.6658606666666667
2163449824 0.30181066666666667 -0.669331
2164935703 0.3081996666666667 -0.6690173333333332
2166421582 0.30217333333333335 -0.6734856666666666
2167907461 0.3101396666666667 -0.6728243333333334
2169393340 0.30348899999999995 -0.6747783333333333
2170879219 0.3084563333333334 -0.6755193333333334
2172365098 0.30176533333333333 -0.6769060000000001
2173850977 0.30989666666666665 -0.6763493333333334
2175336856 0.3009516666666667 -0.6780316666666667
2176822735 0.3130473333333333 -0.674169
2178308614 0.3039956666666667 -0.6754576666666666
2179794493 0.30939833333333333 -0.6730396666666666
2181280372 0.31271466666666664 -0.6730603333333333
2182766251 0.3053886666666667 -0.6726346666666667
2184252130 0.315613 -0.6674886666666667
2185738009 0.30453566666666665 -0.667083
2187223888 0.30956933333333336 -0.6635366666666667
2188709767 0.2988863333333333 -0.6621436666666667
2190195646 0.30699166666666666 -0.6577063333333334
2191681525 0.299858 -0.6639186666666667
2193167404 0.30813599999999997 -0.664115
2194653283 0.305353 -0.6682256666666667
2196139162 0.3120323333333333 -0.666013
2197625041 0.30383899999999997 -0.671069
2199110920 0.31283766666666674 -0.668411
2200596799 0.30141166666666663 -0.6695723333333333
2202082678 0.3125653333333333 -0.671312
2203568557 0.30881000000000003 -0.6701976666666667
2205054436 0.30826266666666663 -0.6706506666666666
2206540315 0.308918 -0.668809
2208026194 0.28341266666666665 -0.6610493333333334
2209512073 0.31007500000000005 -0.6683806666666666
2210997952 0.3107706666666667 -0.6664356666666666
2212483831 0.30638133333333334 -0.664152
2213969710 0.30865933333333334 -0.663642
2215455589 0.30595533333333336 -0.660986
2216941468 0.3051076666666666 -0.658299
2218427347 0.3043366666666667 -0.6544783333333334
2219913226 0.3038106666666667 -0.649854
2221399105 0.302504 -0.654383
2222884984 0.3039133333333333 -0.656958
2224370863 0.30298966666666666 -0.6590403333333333
2225856742 0.3029113333333333 -0.6621696666666667
2227342621 0.306265 -0.6626586666666666
2228828500 0.30474 -0.6662013333333334
2230314379 0.29937299999999994 -0.6669776666666666
2231800258 0.30689799999999995 -0.668916
2233286137 0.3052676666666667 -0.6693673333333333
2234772016 0.300205 -0.6685613333333333
2236257895 0.302761 -0.6676753333333334
2237743774 0.30160533333333334 -0.667976
2239229653 0.299016 -0.6682973333333333
2240715532 0.299725 -0.6679683333333334
2242201411 0.30081233333333335 -0.6638823333333334
2243687290 0.30190433333333333 -0.663782
2245173169 0.2983343333333333 -0.662279
2246659048 0.29815299999999995 -0.6599849999999999
2248144927 0.2953856666666667 -0.6596913333333333
2249630806 0.29629666666666665 -0.65737
2251116685 0.29373333333333335 -0.6590663333333332
2252602564 0.2942993333333333 -0.6583146666666667
2254088443 0.29404500000000006 -0.6612916666666666
2255574322 0.29579 -0.6609886666666668
2257060201 0.29778166666666667 -0.6639830000000001
2258546080 0.294632 -0.6651579999999999
2260031959 0.29632233333333335 -0.667589
2261517838 0.29619100000000004 -0.6653466666666666
2263003717 0.29390533333333335 -0.6651699999999999
2264489596 0.2920393333333334 -0.666362
2265975475 0.29324633333333333 -0.6658043333333333
2267461354 0.2923346666666667 -0.664412
2268947233 0.290182 -0.6639609999999999
2270433112 0.290599 -0.663741
2271918991 0.2901496666666667 -0.6635426666666667
2273404870 0.2889406666666667 -0.6614213333333333
2274890749 0.2836923333333334 -0.662635
2276376628 0.2845243333333333 -0.65914
2277862507 0.281995 -0.6570793333333333
2279348386 0.281005 -0.6540493333333334
2280834265 0.28781999999999996 -0.6523723333333333
2282320144 0.28339966666666666 -0.655615
2283806023 0.278595 -0.65765
2285291902 0.28285066666666664 -0.6597793333333334
2286777781 0.2884816666666667 -0.6606126666666666
2288263660 0.2857513333333333 -0.6627866666666666
2289749539 0.281885 -0.6630613333333334
2291235418 0.2818423333333333 -0.664834
2292721297 0.276391 -0.6617846666666667
2294207176 0.2877743333333333 -0.6629233333333333
2295693055 0.284046 -0.6649193333333333
2297178934 0.2840783333333333 -0.6621833333333333
2298664813 0.28584133333333334 -0.6627606666666667
2300150692 0.2807113333333333 -0.6600946666666667
2301636571 0.28169700000000003 -0.6624653333333334
2303122450 0.284946 -0.6583333333333333
2304608329 0.2838316666666667 -0.6583156666666666
2306094208 0.28076133333333336 -0.657798
2307580087 0.28245499999999996 -0.6525426666666667
2309065966 0.27437266666666665 -0.65501
2310551845 0.27845233333333336 -0.6523486666666667
2312037724 0.28001133333333333 -0.653036
2313523603 0.2769106666666667 -0.657863
2315009482 0.279136 -0.6587793333333334
2316495361 0.283156 -0.6588046666666666
2317981240 0.2831443333333333 -0.6616926666666666
2319467119 0.28573733333333334 -0.6635776666666666
2320952998 0.28337666666666667 -0.6648873333333333
2322438877 0.28563200000000005 -0.661171
2323924756 0.282146 -0.6654276666666666
2325410635 0.2849266666666666 -0.666528
2326896514 0.284622 -0.6672316666666666
2328382393 0.28221066666666667 -0.6671506666666667
2329868272 0.2849903333333333 -0.6685426666666666
2331354151 0.28287633333333334 -0.6670596666666667
2332840030 0.28175766666666663 -0.6640186666666666
2334325909 0.28374099999999997 -0.6668846666666667
2335811788 0.2819393333333334 -0.6634483333333333
2337297667 0.28047733333333336 -0.6592856666666667
2338783546 0.2748953333333333 -0.6605249999999999
2340269425 0.277841 -0.6594206666666667
2341755304 0.27472266666666667 -0.6602513333333333
2343241183 0.277032 -0.6643183333333333
2344727062 0.28161033333333335 -0.6616226666666667
2346212941 0.27612466666666663 -0.6690613333333334
2347698820 0.27608699999999997 -0.6695166666666666
2349184699 0.2747116666666667 -0.6702369999999999
2350670578 0.280732 -0.668994
2352156457 0.2764503333333333 -0.6720099999999999
2353642336 0.2752213333333334 -0.6693156666666665
2355128215 0.2775 -0.6712403333333333
2356614094 0.273837 -0.6696906666666668
2358099973 0.2699426666666667 -0.670982
2359585852 0.266433 -0.6718926666666666
2361071731 0.272405 -0.6660666666666666
2362557610 0.27302099999999996 -0.6657313333333333
2364043489 0.2658386666666667 -0.6643636666666667
2365529368 0.26264533333333334 -0.6648350000000001
2367015247 0.2605306666666667 -0.663819
2368501126 0.260443 -0.6585853333333334
2369987005 0.2573126666666667 -0.6563053333333334
2371472884 0.25973666666666667 -0.6600769999999999
2372958763 0.2613026666666667 -0.6650276666666667
2374444642 0.261986 -0.6646536666666667
2375930521 0.262527 -0.6676000000000001
2377416400 0.26455233333333333 -0.6639403333333334
2378902279 0.2648696666666666 -0.6717036666666667
2380388158 0.26206366666666664 -0.6705520000000001
2381874037 0.264234 -0.6711966666666666
2383359916 0.2684296666666667 -0.6678503333333333
2384845795 0.26690166666666665 -0.6702326666666667
2386331674 0.2689493333333333 -0.6678483333333333
2387817553 0.26967633333333335 -0.6699350000000001
2389303432 0.2639743333333333 -0.6673713333333332
2390789311 0.26712566666666665 -0.6634516666666667
2392275190 0.26266799999999996 -0.667367
2393761069 0.264309 -0.65912
2395246948 0.2618226666666667 -0.6596083333333334
2396732827 0.2576673333333333 -0.6566436666666667
2398218706 0.259631 -0.6550046666666667
2399704585 0.25595233333333334 -0.6532250000000001
2401190464 0.25899066666666665 -0.6518443333333334
2402676343 0.256002 -0.6572536666666666
2404162222 0.2609103333333333 -0.655746
2405648101 0.256058 -0.6617326666666666
2407133980 0.25975566666666666 -0.6648193333333334
2408619859 0.265056 -0.6627946666666668
2410105738 0.25908633333333336 -0.6666006666666667
2411591617 0.25974400000000003 -0.6675559999999999
2413077496 0.2565713333333333 -0.6686540000000001
2414563375 0.26498700000000003 -0.6644523333333333
2416049254 0.25351166666666664 -0.6689410000000001
2417535133 0.24096166666666666 -0.6741436666666667
2419021012 0.25031000000000003 -0.6712546666666667
2420506891 0.25895 -0.665988
2421992770 0.2563353333333333 -0.6674890000000001
2423478649 0.2507783333333333 -0.6677766666666667
2424964528 0.24796633333333332 -0.6631206666666666
2426450407 0.22161 -0.6493860000000001
2427936286 0.25200500000000003 -0.6622633333333333
2429422165 0.248035 -0.6595283333333334
2430908044 0.24496700000000002 -0.663296
2432393923 0.25068266666666666 -0.6587466666666666
2433879802 0.246625 -0.6668556666666667
2435365681 0.25034 -0.6653146666666667
2436851560 0.25265766666666667 -0.6645726666666667
2438337439 0.24813233333333332 -0.6710326666666666
2439823318 0.250577 -0.6670993333333333
2441309197 0.252994 -0.6675343333333332
2442795076 0.250054 -0.6692263333333334
2444280955 0.25021166666666667 -0.6683063333333333
2445766834 0.24769266666666667 -0.6702429999999998
2447252713 0.2516393333333333 -0.667599
2448738592 0.25131333333333333 -0.667166
2450224471 0.25164866666666663 -0.6639773333333333
2451710350 0.24764633333333333 -0.6631963333333334
2453196229 0.245959 -0.6604576666666666
2454682108 0.24561 -0.660323
2456167987 0.23826 -0.655705
2457653866 0.245528 -0.6548533333333334
2459139745 0.23864733333333335 -0.6491509999999999
2460625624 0.238317 -0.647784
2462111503 0.2368646666666667 -0.6542003333333334
2463597382 0.23978133333333332 -0.6571086666666667
2465083261 0.23734599999999997 -0.6578543333333333
2466569140 0.235768 -0.6592486666666667
2468055019 0.23971666666666666 -0.6624096666666667
2469540898 0.237815 -0.6599496666666667
2471026777 0.23811700000000002 -0.6635629999999999
2472512656 0.23945433333333332 -0.6679086666666666
2473998535 0.2396573333333333 -0.6644863333333334
2475484414 0.24078 -0.662976
2476970293 0.23594066666666666 -0.664146
2478456172 0.23517266666666667 -0.6636426666666666
2479942051 0.25110133333333334 -0.6639849999999999
2481427930 0.23421599999999998 -0.6605586666666666
2482913809 0.23384799999999997 -0.6601286666666667
2484399688 0.23406833333333332 -0.657386
2485885567 0.23409500000000003 -0.6558126666666667
2487371446 0.23181833333333332 -0.6543413333333333
2488857325 0.23259533333333335 -0.6489946666666667
2490343204 0.2272276666666667 -0.6482843333333334
2491829083 0.23029266666666667 -0.654966
2493314962 0.22997800000000002 -0.6558633333333334
2494800841 0.23201666666666668 -0.6570586666666666
2496286720 0.23207233333333335 -0.658557
2497772599 0.2342226666666667 -0.661247
2499258478 0.23417233333333332 -0.6635096666666667
2500744357 0.23439466666666667 -0.6640463333333333
2502230236 0.23448233333333335 -0.6639276666666666
2503716115 0.23804733333333336 -0.663671
2505201994 0.23890799999999998 -0.6655693333333333
2506687873 0.23779166666666665 -0.6629746666666666
2508173752 0.240298 -0.6635046666666667
2509659631 0.241236 -0.6608506666666667
2511145510 0.24113366666666666 -0.6640936666666667
2512631389 0.238034 -0.659965
2514117268 0.23798299999999997 -0.6556183333333333
2515603147 0.23818400000000003 -0.6556136666666667
2517089026 0.23968066666666665 -0.6525716666666667
2518574905 0.23783466666666664 -0.6488633333333333
2520060784 0.23861666666666667 -0.6493226666666666
2521546663 0.23494199999999998 -0.649493
2523032542 0.23832433333333333 -0.6517646666666667
2524518421 0.2403666666666667 -0.654382
2526004300 0.23629533333333333 -0.657477
2527490179 0.23435666666666666 -0.6574906666666668
2528976058 0.23591700000000002 -0.6604176666666667
2530461937 0.23639200000000002 -0.6630633333333332
2531947816 0.23829033333333335 -0.6610436666666667
2533433695 0.23463033333333336 -0.6633926666666666
2534919574 0.23298266666666667 -0.662343
2536405453 0.23532300000000003 -0.6604033333333333
2537891332 0.23564333333333334 -0.6623836666666668
2539377211 0.23364699999999997 -0.6623739999999999
2540863090 0.23303733333333332 -0.6607753333333333
2542348969 0.23348100000000002 -0.6597226666666666
2543834848 0.22996733333333333 -0.659498
2545320727 0.22814199999999998 -0.6573159999999999
2546806606 0.22759700000000002 -0.6556926666666666
2548292485 0.2273936666666667 -0.6526843333333333
2549778364 0.22299899999999998 -0.649983
2551264243 0.22419999999999998 -0.6516339999999999
2552750122 0.22675399999999998 -0.6550096666666666
2554236001 0.2228956666666667 -0.6600136666666666
2555721880 0.22574966666666665 -0.659793
2557207759 0.22560433333333332 -0.6645046666666666
2558693638 0.22438533333333335 -0.660234
2560179517 0.22339033333333336 -0.6644990000000001
2561665396 0.22467500000000004 -0.6656176666666668
2563151275 0.22636633333333334 -0.6661153333333333
2564637154 0.222584 -0.666219
2566123033 0.220571 -0.670363
2567608912 0.224607 -0.667303
2569094791 0.22340366666666667 -0.6656106666666667
2570580670 0.22064966666666666 -0.6653743333333333
2572066549 0.22614800000000002 -0.6654656666666666
2573552428 0.21867233333333336 -0.6653753333333333
2575038307 0.21806433333333333 -0.6652766666666666
2576524186 0.21685100000000002 -0.661832
2578010065 0.215592 -0.660654
2579495944 0.21535333333333337 -0.657512
2580981823 0.21545199999999998 -0.6587933333333335
2582467702 0.21582466666666666 -0.6622943333333334
2583953581 0.21652766666666667 -0.6602093333333333
2585439460 0.21867500000000004 -0.6638973333333333
2586925339 0.21844299999999997 -0.6607949999999999
2588411218 0.2181523333333333 -0.6629456666666665
2589897097 0.22021466666666667 -0.659132
2591382976 0.21807633333333332 -0.6599433333333334
2592868855 0.22174166666666664 -0.6582483333333333
2594354734 0.21770199999999998 -0.6596860000000001
2595840613 0.21328100000000003 -0.6574033333333333
2597326492 0.22141233333333335 -0.65612
2598812371 0.222935 -0.6523366666666667
2600298250 0.22332166666666667 -0.6516293333333334
2601784129 0.21923533333333334 -0.6504533333333334
2603270008 0.21664799999999998 -0.648752
2604755887 0.21608799999999997 -0.6412046666666666
2606241766 0.21662933333333334 -0.6458663333333333
2607727645 0.210071 -0.6399616666666667
2609213524 0.2083546666666667 -0.6352193333333334
2610699403 0.20884899999999998 -0.6330999999999999
2612185282 0.20900833333333332 -0.6373996666666667
2613671161 0.20706666666666665 -0.638273
2615157040 0.212691 -0.6419983333333333
2616642919 0.21492366666666665 -0.6429586666666668
2618128798 0.21306433333333333 -0.6421813333333333
2619614677 0.20759566666666665 -0.6457086666666667
2621100556 0.20251733333333335 -0.6363536666666666
2622586435 0.21198766666666669 -0.6504906666666667
2624072314 0.21066133333333334 -0.645819
2625558193 0.211295 -0.6419643333333334
2627044072 0.21166333333333331 -0.6482833333333333
2628529951 0.2095513333333333 -0.6448386666666667
2630015830 0.21275199999999997 -0.6464543333333334
2631501709 0.21130666666666667 -0.6445983333333334
2632987588 0.20468566666666665 -0.6407563333333334
2634473467 0.20795399999999997 -0.6426416666666667
2635959346 0.20169766666666666 -0.6379493333333334
2637445225 0.202089 -0.6350456666666666
2638931104 0.20433500000000002 -0.630818
2640416983 0.20287466666666668 -0.6366486666666666
2641902862 0.19606733333333334 -0.6359026666666666
2643388741 0.20017966666666664 -0.6407206666666666
2644874620 0.20470100000000002 -0.6415203333333334
2646360499 0.20351833333333333 -0.6467313333333333
2647846378 0.204052 -0.6434603333333334
2649332257 0.19965033333333335 -0.6490956666666666
2650818136 0.20540866666666666 -0.6505476666666666
2652304015 0.20513066666666668 -0.6492916666666666
2653789894 0.20312699999999997 -0.6522183333333333
2655275773 0.2050006666666667 -0.6511673333333333
2656761652 0.199859 -0.653953
2658247531 0.20569833333333332 -0.654354
2659733410 0.20765666666666668 -0.652646
2661219289 0.20696900000000004 -0.654497
2662705168 0.19902766666666669 -0.6510786666666667
2664191047 0.20336766666666664 -0.650768
2665676926 0.20343266666666668 -0.6501446666666667
2667162805 0.195553 -0.6500393333333333
2668648684 0.19967533333333332 -0.6471893333333333
2670134563 0.19784933333333332 -0.6446323333333334
2671620442 0.20211233333333334 -0.6456656666666667
2673106321 0.20224266666666665 -0.6530233333333334
2674592200 0.19909766666666665 -0.6523156666666666
2676078079 0.201939 -0.651994
2677563958 0.20757499999999998 -0.6546196666666667
2679049837 0.198747 -0.6551066666666666
2680535716 0.21266466666666664 -0.6582663333333334
2682021595 0.20278833333333335 -0.654777
2683507474 0.20194766666666664 -0.6553146666666666
2684993353 0.21227200000000002 -0.6529333333333334
2686479232 0.20723333333333335 -0.65067
2687965111 0.20563299999999998 -0.65512
2689450990 0.209472 -0.652213
2690936869 0.21086533333333335 -0.648945
2692422748 0.20769433333333334 -0.6489579999999999
2693908627 0.20537133333333332 -0.646627
2695394506 0.20204866666666665 -0.6409836666666666
2696880385 0.19959033333333331 -0.6387583333333333
2698366264 0.20407099999999997 -0.6386803333333333
2699852143 0.20307366666666668 -0.6353643333333334
2701338022 0.19580633333333333 -0.6372316666666668
2702823901 0.19677599999999998 -0.6419746666666667
2704309780 0.20647366666666667 -0.640767
2705795659 0.21145999999999998 -0.6409630000000001
2707281538 0.20475566666666667 -0.6440456666666666
2708767417 0.21731066666666665 -0.6390356666666667
2710253296 0.20963366666666663 -0.6465093333333333
2711739175 0.21414133333333338 -0.6459383333333334
2713225054 0.21699366666666667 -0.64483
2714710933 0.210449 -0.6437056666666666
2716196812 0.20871666666666666 -0.6449900000000001
2717682691 0.21789 -0.6439719999999999
2719168570 0.216141 -0.6409633333333333
2720654449 0.21463433333333334 -0.6391136666666667
2722140328 0.212396 -0.6393176666666666
2723626207 0.21365900000000002 -0.634591
2725112086 0.21119433333333335 -0.6324673333333334
2726597965 0.20477233333333333 -0.630626
2728083844 0.20884499999999998 -0.625019
2729569723 0.20636500000000002 -0.6248966666666668
2731055602 0.205824 -0.6280076666666666
2732541481 0.20748200000000003 -0.6314916666666667
2734027360 0.20630800000000002 -0.6338986666666666
2735513239 0.200434 -0.6367336666666666
2736999118 0.203304 -0.6371213333333334
2738484997 0.200863 -0.6411556666666667
2739970876 0.197763 -0.6447446666666666
2741456755 0.200381 -0.6437316666666667
2742942634 0.1990343333333333 -0.649406
2744428513 0.198735 -0.6490980000000001
2745914392 0.19509200000000002 -0.6501946666666667
2747400271 0.193862 -0.6524260000000001
2748886150 0.19212633333333332 -0.655925
2750372029 0.18834033333333333 -0.6523166666666667
2751857908 0.193273 -0.6533726666666667
2753343787 0.18943866666666667 -0.6534423333333333
2754829666 0.19245533333333334 -0.653468
2756315545 0.18899299999999997 -0.6525733333333333
2757801424 0.19112833333333334 -0.6515013333333334
2759287303 0.18489866666666666 -0.653254
2760773182 0.18438866666666667 -0.6506956666666667
2762259061 0.18920033333333333 -0.6545943333333333
2763744940 0.18636699999999998 -0.6543073333333335
2765230819 0.194034 -0.6574666666666666
2766716698 0.18445699999999998 -0.6654
2768202577 0.19702699999999998 -0.6582979999999999
2769688456 0.193334 -0.660395
2771174335 0.19263266666666667 -0.6590496666666666
2772660214 0.18798833333333334 -0.6649576666666667
2774146093 0.19654266666666667 -0.6627096666666666
2775631972 0.19391333333333335 -0.661096
2777117851 0.201515 -0.6584656666666666
2778603730 0.19609200000000002 -0.6602266666666666
2780089609 0.19508733333333336 -0.6540953333333334
2781575488 0.198313 -0.6564183333333333
2783061367 0.19718533333333332 -0.6539106666666666
2784547246 0.19354400000000002 -0.65505
2786033125 0.19182066666666667 -0.6531853333333333
2787519004 0.19348066666666666 -0.646932
2789004883 0.18994633333333333 -0.6445873333333334
2790490762 0.19874 -0.6369686666666666
2791976641 0.19510866666666668 -0.6425109999999999
2793462520 0.19885433333333333 -0.6432473333333333
2794948399 0.19174499999999997 -0.6488146666666667
2796434278 0.18998800000000002 -0.6471106666666667
2797920157 0.19104233333333331 -0.647662
2799406036 0.1953676666666667 -0.6529033333333333
2800891915 0.193604 -0.654861
2802377794 0.191466 -0.656012
2803863673 0.18779533333333331 -0.6534716666666666
2805349552 0.19259 -0.6523470000000001
2806835431 0.191477 -0.6543140000000001
2808321310 0.19399533333333333 -0.6529790000000001
2809807189 0.19261066666666668 -0.6513586666666668
2811293068 0.18949833333333332 -0.6481836666666667
2812778947 0.18930033333333332 -0.6477666666666667
2814264826 0.184694 -0.6477683333333334
2815750705 0.18495233333333336 -0.6496903333333334
2817236584 0.18815033333333334 -0.6462376666666667
2818722463 0.17944866666666667 -0.6454286666666667
2820208342 0.18092133333333335 -0.6373719999999999
2821694221 0.18264 -0.6438146666666666
2823180100 0.18174066666666666 -0.6560546666666667
2824665979 0.186886 -0.6533263333333333
2826151858 0.18230333333333335 -0.6527473333333332
2827637737 0.185003 -0.6541716666666666
2829123616 0.18610333333333337 -0.656831
2830609495 0.18853066666666665 -0.647982
2832095374 0.17998866666666666 -0.650646
2833581253 0.18529166666666666 -0.6497839999999999
2835067132 0.18508833333333333 -0.6544483333333333
2836553011 0.183426 -0.6486426666666667
2838038890 0.1845846666666667 -0.6471823333333333
2839524769 0.18578566666666665 -0.643431
2841010648 0.18607700000000002 -0.6394563333333333
2842496527 0.183084 -0.63841
2843982406 0.18841133333333335 -0.6422660000000001
2845468285 0.17956133333333335 -0.633395
2846954164 0.17967866666666665 -0.632235
2848440043 0.17603 -0.6274006666666666
2849925922 0.17498333333333335 -0.6280763333333333
2851411801 0.18121733333333334 -0.6250943333333333
2852897680 0.17989 -0.6258750000000001
2854383559 0.176967 -0.632386
2855869438 0.17936433333333332 -0.6333783333333333
2857355317 0.18132 -0.63187
2858841196 0.182376 -0.638362
2860327075 0.18348733333333334 -0.6349873333333335
2861812954 0.18285200000000001 -0.6365759999999999
2863298833 0.17879466666666666 -0.6389079999999999
2864784712 0.18472766666666665 -0.6372993333333333
2866270591 0.18148499999999998 -0.6361446666666667
2867756470 0.183121 -0.6358046666666667
2869242349 0.16546866666666668 -0.6327956666666666
2870728228 0.18324166666666666 -0.6317146666666668
2872214107 0.18219766666666667 -0.635046
2873699986 0.18764100000000003 -0.6307490000000001
2875185865 0.18230166666666667 -0.6326463333333333
2876671744 0.18523633333333334 -0.6264393333333333
2878157623 0.181808 -0.6234186666666667
2879643502 0.183702 -0.6213236666666666
2881129381 0.179327 -0.623395
2882615260 0.18094599999999997 -0.625136
2884101139 0.17966033333333334 -0.6273043333333334
2885587018 0.179638 -0.6258976666666667
2887072897 0.181542 -0.6337503333333333
2888558776 0.18466233333333334 -0.6356783333333333
2890044655 0.1800476666666667 -0.6346963333333333
2891530534 0.1821843333333333 -0.6337283333333333
2893016413 0.18130233333333332 -0.6355
2894502292 0.18360933333333332 -0.633412
2895988171 0.18734433333333333 -0.6351586666666666
2897474050 0.182244 -0.6329950000000001
2898959929 0.18082633333333334 -0.6355126666666667
2900445808 0.18217266666666668 -0.6330383333333334
2901931687 0.17937533333333333 -0.6325276666666667
2903417566 0.17989566666666668 -0.6309986666666667
2904903445 0.181458 -0.6298883333333333
2906389324 0.180114 -0.6294833333333334
2907875203 0.17992533333333335 -0.6262690000000001
2909361082 0.17894666666666667 -0.6260406666666667
2910846961 0.17918166666666666 -0.626594
2912332840 0.17673766666666668 -0.626862
2913818719 0.17765633333333333 -0.6295000000000001
2915304598 0.17562433333333335 -0.6309393333333334
2916790477 0.17812633333333336 -0.6322136666666667
2918276356 0.174998 -0.6336953333333334
2919762235 0.17386099999999996 -0.6348383333333334
2921248114 0.17170366666666667 -0.6353453333333333
2922733993 0.17108933333333334 -0.633951
2924219872 0.17183299999999999 -0.635614
2925705751 0.17228966666666667 -0.636882
2927191630 0.17173700000000003 -0.635554
2928677509 0.168292 -0.6360223333333334
2930163388 0.16913966666666666 -0.6344733333333333
2931649267 0.166117 -0.6348483333333333
2933135146 0.16660733333333333 -0.632304
2934621025 0.163572 -0.6329456666666667
2936106904 0.16563166666666665 -0.628387
2937592783 0.16299533333333333 -0.6307143333333333
2939078662 0.16093666666666667 -0.6263076666666666
2940564541 0.15513933333333332 -0.6263173333333333
2942050420 0.15942 -0.6279833333333332
2943536299 0.16003900000000001 -0.630934
2945022178 0.15907200000000002 -0.6325473333333335
2946508057 0.16048033333333334 -0.6334623333333332
2947993936 0.16283 -0.6337503333333333
2949479815 0.160639 -0.6351946666666666
2950965694 0.16246666666666668 -0.6368429999999999
2952451573 0.16311466666666666 -0.6375966666666667
2953937452 0.1631193333333333 -0.6381453333333333
2955423331 0.16446366666666667 -0.634125
2956909210 0.160668 -0.6365136666666666
2958395089 0.16590333333333335 -0.633193
2959880968 0.16631266666666666 -0.6315773333333333
2961366847 0.163184 -0.632022
2962852726 0.163363 -0.6305526666666667
2964338605 0.165189 -0.62851
2965824484 0.16371266666666665 -0.6262643333333333
2967310363 0.162552 -0.6235276666666667
2968796242 0.162911 -0.621363
2970282121 0.16279466666666667 -0.6179416666666667
2971768000 0.16241666666666668 -0.6201716666666667
2973253879 0.16057166666666667 -0.621568
2974739758 0.16262766666666664 -0.6236356666666667
2976225637 0.16306333333333334 -0.6255043333333333
2977711516 0.164879 -0.6266213333333334
2979197395 0.162495 -0.6251993333333333
2980683274 0.1636133333333333 -0.623911
2982169153 0.161982 -0.6299913333333333
2983655032 0.164825 -0.624522
2985140911 0.167112 -0.6269666666666667
2986626790 0.1652016666666667 -0.624505
2988112669 0.16671 -0.625392
2989598548 0.1675386666666667 -0.6205943333333334
2991084427 0.16311266666666668 -0.6209393333333334
2992570306 0.166914 -0.617197
2994056185 0.16945200000000002 -0.6164753333333333
2995542064 0.167481 -0.6131116666666666
2997027943 0.162813 -0.6103103333333334
2998513822 0.16501433333333335 -0.6072333333333333
2999999701 0.163517 -0.605178
