# HZ S RI R 50
10000 1.085533 -0.13062100000000001
1495879 0.9650403333333334 0.9751203333333333
2981758 0.577621 0.6881926666666667
4467637 0.5807283333333333 0.32692499999999997
5953516 0.6505786666666666 0.13802466666666666
7439395 0.743166 0.012658
8925274 1.0574473333333334 -0.06241833333333333
10411153 1.0983150000000002 0.035587
11897032 1.0868163333333334 0.16847766666666666
13382911 1.020315 0.2928523333333333
14868790 0.9176973333333334 0.382218
16354669 0.8051956666666666 0.430096
17840548 0.6996410000000001 0.445146
19326427 0.6101693333333332 0.43860066666666664
20812306 0.5359546666666667 0.4202516666666667
22298185 0.47618733333333335 0.39658299999999996
23784064 0.4281536666666667 0.3709816666666666
25269943 0.389762 0.34461933333333333
26755822 0.35766566666666666 0.3191456666666666
28241701 0.331628 0.29579333333333335
29727580 0.3100003333333334 0.273588
31213459 0.3202323333333333 0.2586013333333333
32699338 0.33679166666666666 0.24384966666666666
34185217 0.3522713333333334 0.230961
35671096 0.3678946666666667 0.21495666666666668
37156975 0.38315733333333335 0.19617766666666667
38642854 0.39759733333333336 0.17989433333333335
40128733 0.4119633333333334 0.15740633333333331
41614612 0.42473600000000006 0.14546333333333336
43100491 0.4384363333333334 0.12351133333333335
44586370 0.45172266666666666 0.10580366666666667
46072249 0.4657586666666667 0.08236366666666667
47558128 0.480672 0.06580666666666667
49044007 0.49664033333333335 0.049161
50529886 0.5158163333333333 0.03491533333333333
52015765 0.5376353333333334 0.005960333333333334
53501644 0.5670883333333333 -0.011795333333333333
54987523 0.6051953333333334 -0.035991666666666665
56473402 0.6581573333333334 -0.07249466666666667
57959281 0.746077 -0.08969900000000001
59445160 0.9041733333333334 -0.060442666666666665
60931039 0.999132 -0.03278866666666667
62416918 1.0030586666666668 -0.036348
63902797 1.0053203333333334 -0.050796
65388676 1.0093136666666667 -0.05366633333333334
66874555 1.0110306666666666 -0.055739666666666667
68360434 1.0084046666666666 -0.132741
69846313 1.0156906666666667 -0.031552000000000004
71332192 1.016843 -0.018956333333333335
72818071 1.0169526666666668 -0.07093266666666667
74303950 1.0178866666666666 -0.05514033333333334
75789829 1.0183936666666666 0.007578666666666667
77275708 1.0182163333333334 0.004706666666666667
78761587 1.0171696666666665 0.005210666666666666
80247466 1.0129863333333333 -0.10482933333333333
81733345 1.0138999999999998 -0.062440666666666665
83219224 1.011058 -0.06748133333333334
84705103 1.005378 -0.09840700000000001
86190982 1.00485 0.032683666666666666
87676861 1.000645 -0.08897533333333334
89162740 0.998615 -0.05768433333333334
90648619 0.9958836666666667 -0.08128266666666667
92134498 1.0004613333333334 -0.073836
93620377 1.0047590000000002 -0.047148999999999996
95106256 1.0061006666666665 -0.06823333333333333
96592135 1.0077193333333334 -0.07270833333333333
98078014 1.0119829999999999 -0.061498666666666674
99563893 1.0124643333333334 -0.064208
101049772 1.0145950000000001 -0.07074433333333334
102535651 1.0148209999999998 -0.072025
104021530 1.0155323333333335 -0.07216633333333333
105507409 1.0152003333333335 -0.07257566666666666
106993288 1.014596 -0.07383866666666666
108479167 1.0126843333333333 -0.07297166666666667
109965046 1.0130766666666666 -0.07467700000000001
111450925 1.0120806666666669 -0.07322333333333333
112936804 1.0089033333333333 -0.07444266666666667
114422683 1.006819 -0.07441566666666667
115908562 1.003906 -0.074407
117394441 1.0000586666666667 -0.07579866666666667
118880320 0.9962796666666667 -0.07461366666666668
120366199 0.9944513333333332 -0.07643066666666666
121852078 0.999065 -0.077887
123337957 1.0036383333333332 -0.08021333333333334
124823836 1.0064946666666668 -0.082185
126309715 1.009027 -0.083115
127795594 1.0129940000000002 -0.083235
129281473 1.0145856666666666 -0.08342333333333334
130767352 1.017928333333333 -0.085382
132253231 1.0191113333333333 -0.08523700000000001
133739110 1.021568 -0.08574700000000002
135224989 1.006687 -0.09748699999999999
136710868 1.0067293333333334 -0.098226
138196747 1.0069816666666667 -0.09800033333333334
139682626 1.005878 -0.09772199999999999
141168505 1.0053986666666666 -0.09749866666666668
142654384 1.00384 -0.097982
144140263 1.0023236666666666 -0.09822433333333332
145626142 0.9998636666666666 -0.09774833333333333
147112021 0.9977936666666668 -0.09748933333333333
148597900 0.9943136666666668 -0.09745033333333332
150083779 0.991051 -0.09718766666666667
151569658 0.9951153333333332 -0.09886533333333332
153055537 0.9982876666666666 -0.10034633333333333
154541416 1.0014926666666666 -0.10159133333333333
156027295 1.0038310000000001 -0.102367
157513174 1.0058503333333333 -0.10373233333333333
158999053 1.0086246666666667 -0.104253
160484932 1.0086403333333334 -0.105535
161970811 1.0087613333333334 -0.105914
163456690 1.009989 -0.10666833333333332
164942569 1.0106253333333333 -0.10673700000000001
166428448 1.0105053333333334 -0.10774766666666667
167914327 1.0086306666666667 -0.108213
169400206 1.0087849999999998 -0.108595
170886085 1.0065193333333333 -0.10975333333333333
172371964 1.0319943333333332 -0.08313266666666667
173857843 1.002849 -0.11075166666666665
175343722 0.9995240000000001 -0.11129633333333333
176829601 0.9973103333333334 -0.11146366666666667
178315480 0.9936546666666667 -0.11262433333333333
179801359 0.9902693333333333 -0.11405033333333332
181287238 0.9922943333333333 -0.11527966666666667
182773117 0.9955219999999999 -0.11719633333333333
184258996 0.9988093333333333 -0.118152
185744875 1.00163 -0.11902733333333333
187230754 1.0079523333333333 -0.10773999999999999
188716633 1.0055606666666668 -0.12731666666666666
190202512 1.0068443333333335 -0.12147233333333333
191688391 1.0084233333333332 -0.12249066666666668
193174270 1.0087583333333334 -0.12348333333333333
194660149 1.0090773333333332 -0.12431733333333334
196146028 1.0084843333333333 -0.12407833333333333
197631907 1.0081239999999998 -0.12540600000000002
199117786 1.006423 -0.12549733333333335
200603665 1.0055636666666665 -0.12681499999999998
202089544 1.0037803333333333 -0.12784933333333334
203575423 1.0014506666666667 -0.12839966666666666
205061302 0.997477 -0.12959800000000002
206547181 0.9954473333333334 -0.13095566666666666
208033060 0.991216 -0.13205599999999998
209518939 0.9877943333333333 -0.1338366666666667
211004818 0.988648 -0.13426433333333332
212490697 0.9924646666666667 -0.13623000000000002
213976576 0.9965396666666667 -0.13715166666666667
215462455 0.999215 -0.138294
216948334 1.001134 -0.139803
218434213 1.0037353333333334 -0.14006466666666664
219920092 1.007268 -0.134459
221405971 1.00336 -0.15416266666666667
222891850 1.0078473333333333 -0.14214833333333335
224377729 1.0052546666666666 -0.14956233333333335
225863608 1.0090516666666665 -0.13712966666666668
227349487 1.0048256666666666 -0.149923
228835366 1.0078566666666668 -0.13888866666666666
230321245 1.0019996666666666 -0.15142866666666666
231807124 1.0038313333333333 -0.14065266666666668
233293003 0.9970306666666667 -0.15360766666666667
234778882 0.9974786666666667 -0.142504
236264761 0.9906936666666667 -0.15571466666666667
237750640 0.9903963333333333 -0.14491766666666664
239236519 0.9823626666666666 -0.15831133333333333
240722398 0.985799 -0.14850266666666667
242208277 0.987073 -0.160741
243694156 0.9938416666666666 -0.15065833333333334
245180035 0.9934933333333333 -0.164305
246665914 0.9995189999999999 -0.153401
248151793 0.9990436666666667 -0.16629266666666667
249637672 1.004581 -0.15483666666666668
251123551 0.9998416666666667 -0.17307233333333336
252609430 1.0066849999999998 -0.15657433333333334
254095309 1.0026210000000002 -0.169262
255581188 1.0067656666666667 -0.15763800000000003
257067067 1.0017086666666666 -0.17045233333333332
258552946 1.0049016666666668 -0.15918533333333335
260038825 0.9987910000000001 -0.17148833333333333
261524704 0.9991636666666667 -0.165949
263010583 0.9940656666666666 -0.17348666666666665
264496462 0.9951273333333334 -0.16164399999999998
265982341 0.9869516666666667 -0.17439733333333332
267468220 0.985239 -0.16989833333333335
268954099 0.9813516666666667 -0.17026133333333335
270439978 0.9785339999999999 -0.17317866666666668
271925857 0.9830726666666667 -0.17445566666666665
273411736 0.9875323333333333 -0.17667466666666667
274897615 0.9903279999999999 -0.17811133333333332
276383494 0.9934463333333334 -0.179028
277869373 0.9965683333333333 -0.17992566666666665
279355252 0.99852 -0.180617
280841131 1.000234 -0.18248
282327010 1.0016100000000001 -0.18324966666666667
283812889 1.002125 -0.18305566666666664
285298768 1.0013926666666666 -0.18445533333333333
286784647 1.0013566666666667 -0.18490499999999999
288270526 0.9998366666666666 -0.18563966666666665
289756405 0.998723 -0.18568033333333334
291242284 0.9967346666666667 -0.18636433333333335
292728163 0.9933903333333333 -0.186724
294214042 0.989829 -0.1873486666666667
295699921 0.986919 -0.18790199999999999
297185800 0.9817416666666667 -0.188526
298671679 0.9771633333333334 -0.18964033333333333
300157558 0.9736220000000001 -0.19095933333333334
301643437 0.9783233333333333 -0.19345533333333334
303129316 0.9823219999999999 -0.19490566666666664
304615195 0.9862936666666666 -0.19774366666666668
306101074 0.9890846666666665 -0.198493
307586953 0.9923713333333334 -0.1990873333333333
309072832 0.9946989999999999 -0.20023166666666667
310558711 0.9963700000000001 -0.20196133333333333
312044590 0.997579 -0.202399
313530469 0.9980613333333332 -0.20291633333333334
315016348 0.9983296666666668 -0.2040856666666667
316502227 0.9986083333333333 -0.2036393333333333
317988106 0.9964326666666667 -0.20468933333333336
319473985 0.9950076666666666 -0.2042556666666667
320959864 0.9932766666666667 -0.20530199999999998
322445743 0.9955453333333333 -0.19478099999999998
323931622 0.9871876666666667 -0.20570133333333332
325417501 0.9833453333333333 -0.20508266666666666
326903380 0.9795886666666668 -0.20563166666666666
328389259 0.9753073333333333 -0.20648333333333335
329875138 1.020913 -0.22397199999999998
331361017 0.973144 -0.20916766666666664
332846896 0.9768793333333333 -0.21185333333333334
334332775 0.9809043333333333 -0.21547766666666668
335818654 0.9831500000000001 -0.2169823333333333
337304533 0.9854613333333333 -0.218554
338790412 0.9879116666666666 -0.21922699999999998
340276291 0.9894310000000001 -0.22173566666666666
341762170 0.9902450000000002 -0.222465
343248049 0.9897313333333333 -0.22271666666666667
344733928 0.990297 -0.22388700000000003
346219807 0.9892029999999999 -0.22498433333333334
347705686 0.9890773333333334 -0.22462566666666664
349191565 0.9868390000000001 -0.22515
350677444 0.9851926666666667 -0.22607233333333332
352163323 0.9816189999999999 -0.2254246666666667
353649202 0.9793823333333332 -0.22543499999999997
355135081 0.9751503333333332 -0.2270096666666667
356620960 0.9699036666666667 -0.22678966666666667
358106839 0.9671056666666668 -0.226456
359592718 0.9609566666666667 -0.22720466666666664
361078597 0.961793 -0.22852566666666665
362564476 0.966006 -0.23257000000000003
364050355 0.9696463333333334 -0.23504
365536234 0.9726406666666666 -0.23576433333333333
367022113 0.9751523333333333 -0.23862766666666668
368507992 0.9773256666666666 -0.241331
369993871 0.9794676666666667 -0.24154399999999998
371479750 0.9806456666666667 -0.24275066666666667
372965629 0.9810593333333332 -0.24314333333333335
374451508 0.9785026666666666 -0.249571
375937387 0.9814013333333333 -0.24465133333333333
377423266 0.9804476666666666 -0.24477533333333334
378909145 0.9797256666666666 -0.24466833333333335
380395024 0.9774906666666667 -0.24577966666666665
381880903 0.9756403333333333 -0.245568
383366782 0.972048 -0.24533166666666664
384852661 0.9696146666666667 -0.2454356666666667
386338540 0.9654946666666667 -0.24548433333333333
387824419 0.9617373333333333 -0.24483966666666668
389310298 0.956015 -0.24386366666666667
390796177 0.955712 -0.24732866666666667
392282056 0.9600986666666667 -0.24896366666666667
393767935 0.962938 -0.25121366666666667
395253814 0.9662713333333333 -0.253599
396739693 0.9676066666666666 -0.25542533333333334
398225572 0.970765 -0.25739966666666664
399711451 0.9723086666666667 -0.25812399999999996
401197330 0.9728953333333333 -0.25921
402683209 0.974122 -0.2604423333333334
404169088 0.9731563333333333 -0.2608916666666667
405654967 0.9738436666666667 -0.261729
407140846 0.9740886666666667 -0.262653
408626725 0.9717766666666666 -0.26297733333333334
410112604 0.9708216666666667 -0.26123999999999997
411598483 0.9689136666666668 -0.262506
413084362 0.965754 -0.2625866666666667
414570241 0.9629503333333332 -0.261626
416056120 0.959307 -0.2613836666666667
417541999 0.9553906666666666 -0.262105
419027878 0.9501180000000001 -0.26167033333333334
420513757 0.9485983333333333 -0.2637703333333334
421999636 0.9523566666666667 -0.26480166666666666
423485515 0.9547136666666667 -0.26693533333333336
424971394 0.9569663333333334 -0.2696423333333333
426457273 0.960559 -0.27095033333333335
427943152 0.962131 -0.2734096666666666
429429031 0.9635343333333334 -0.2755803333333333
430914910 0.965108 -0.27601366666666666
432400789 0.9651039999999999 -0.2768176666666667
433886668 0.9662430000000001 -0.27873966666666666
435372547 0.9652706666666667 -0.28000733333333333
436858426 0.9663163333333333 -0.27951
438344305 0.9640086666666666 -0.280246
439830184 0.9631803333333333 -0.27928533333333333
441316063 0.960601 -0.27997
442801942 0.9580376666666667 -0.2802533333333333
444287821 0.9559143333333333 -0.280107
445773700 0.95257 -0.27938066666666667
447259579 0.9488416666666667 -0.27902999999999994
448745458 0.9437709999999999 -0.2795813333333333
450231337 0.9418426666666666 -0.2787393333333333
451717216 0.9443546666666668 -0.281859
453203095 0.9477343333333333 -0.28218
454688974 0.9493640000000001 -0.28530666666666665
456174853 0.9539973333333333 -0.28826366666666664
457660732 0.9540273333333333 -0.28876966666666665
459146611 0.9561603333333334 -0.290167
460632490 0.9593856666666666 -0.2911396666666667
462118369 0.9591973333333333 -0.29149200000000003
463604248 0.9582533333333334 -0.292956
465090127 0.9585393333333334 -0.292907
466576006 0.9569466666666666 -0.2941723333333333
468061885 0.956763 -0.29331266666666667
469547764 0.9548596666666667 -0.294292
471033643 0.9537736666666667 -0.29291700000000004
472519522 0.950193 -0.29517466666666664
474005401 0.9475256666666666 -0.29431999999999997
475491280 0.9448706666666666 -0.29401866666666665
476977159 0.9853043333333332 -0.2755243333333333
478463038 0.9359963333333333 -0.293342
479948917 0.932757 -0.29321166666666665
481434796 0.935631 -0.2957353333333333
482920675 0.9382133333333335 -0.297912
484406554 0.9414736666666667 -0.299504
485892433 0.9438693333333333 -0.302099
487378312 0.9460466666666666 -0.30351
488864191 0.9476903333333334 -0.304421
490350070 0.9493486666666667 -0.3057263333333333
491835949 0.949596 -0.30691066666666666
493321828 0.9565956666666667 -0.29741766666666664
494807707 0.950508 -0.30862233333333333
496293586 0.949448 -0.30773266666666665
497779465 0.9502323333333335 -0.308332
499265344 0.9478543333333334 -0.30911666666666665
500751223 0.946049 -0.30903833333333336
502237102 0.9440516666666667 -0.3090513333333333
503722981 0.9405143333333333 -0.3097223333333334
505208860 0.9386936666666666 -0.3081103333333333
506694739 0.9348409999999999 -0.30833133333333335
508180618 0.9300770000000002 -0.309339
509666497 0.9249533333333333 -0.308802
511152376 0.9275126666666665 -0.31059533333333333
512638255 0.9307783333333334 -0.311522
514124134 0.9338640000000001 -0.314885
515610013 0.9358433333333332 -0.31736666666666663
517095892 0.9386113333333332 -0.31730933333333333
518581771 0.9407549999999999 -0.31924100000000005
520067650 0.94061 -0.32112166666666664
521553529 0.9423503333333333 -0.32055266666666665
523039408 0.9429086666666667 -0.322498
524525287 0.943134 -0.323272
526011166 0.942244 -0.32327766666666663
527497045 0.9411776666666666 -0.3227143333333333
528982924 0.9406046666666668 -0.32361833333333334
530468803 0.9390863333333334 -0.3234646666666667
531954682 0.936375 -0.32400366666666663
533440561 0.934527 -0.32443
534926440 0.9299053333333333 -0.32298033333333337
536412319 0.926635 -0.3229313333333333
537898198 0.9226663333333334 -0.3223246666666667
539384077 0.9176866666666665 -0.3225413333333333
540869956 0.91644 -0.324876
542355835 0.920076 -0.326359
543841714 0.923219 -0.327123
545327593 0.9264463333333333 -0.3280976666666667
546813472 0.9281203333333333 -0.33021233333333333
548299351 0.9302756666666667 -0.3286226666666667
549785230 0.9298716666666667 -0.32992733333333335
551271109 0.9305703333333334 -0.32980266666666663
552756988 0.9313893333333333 -0.32821133333333335
554242867 0.931123 -0.32948533333333335
555728746 0.9296623333333333 -0.3291636666666667
557214625 0.9274456666666667 -0.3296813333333333
558700504 0.9263943333333332 -0.3279376666666667
560186383 0.9235816666666666 -0.32717066666666667
561672262 0.9217406666666667 -0.3270186666666666
563158141 0.9171126666666667 -0.32549500000000003
564644020 0.9137303333333334 -0.32522
566129899 0.9093113333333335 -0.32336533333333334
567615778 0.9036053333333333 -0.3243853333333333
569101657 0.8989603333333335 -0.3222993333333333
570587536 0.897329 -0.32468733333333333
572073415 0.9003053333333333 -0.32803
573559294 0.9031653333333333 -0.330969
575045173 0.9065056666666668 -0.33449033333333333
576531052 0.9092753333333334 -0.33736666666666665
578016931 0.911342 -0.337756
579502810 0.9124433333333334 -0.34189200000000003
580988689 0.9141279999999999 -0.344657
582474568 0.9146203333333333 -0.3461016666666667
583960447 0.9149086666666667 -0.34855166666666665
585446326 0.9146156666666666 -0.3502226666666666
586932205 0.9151950000000001 -0.34991833333333333
588418084 0.9129053333333333 -0.35203466666666666
589903963 0.9124323333333333 -0.353338
591389842 0.9106036666666667 -0.35356899999999997
592875721 0.907722 -0.3547183333333333
594361600 0.9057166666666667 -0.35392833333333334
595847479 0.9027203333333333 -0.355521
597333358 0.8996976666666668 -0.3542053333333333
598819237 0.8951106666666666 -0.35660066666666673
600305116 0.8927853333333333 -0.35622400000000004
601790995 0.8964006666666666 -0.3590986666666667
603276874 0.8995620000000001 -0.3633866666666667
604762753 0.9023493333333334 -0.36565333333333333
606248632 0.9051806666666667 -0.3667766666666667
607734511 0.9077966666666667 -0.367985
609220390 0.9092949999999999 -0.3701223333333334
610706269 0.9104323333333334 -0.372014
612192148 0.911733 -0.37292
613678027 0.912724 -0.37336299999999994
615163906 0.9131163333333333 -0.3727446666666667
616649785 0.9126683333333334 -0.372893
618135664 0.9120306666666665 -0.3746173333333333
619621543 0.911167 -0.37383733333333335
621107422 0.9105466666666665 -0.36980233333333334
622593301 0.9054373333333334 -0.37364766666666666
624079180 0.902666 -0.37284200000000006
625565059 0.900435 -0.3712336666666667
627050938 0.9433326666666666 -0.39567100000000005
628536817 0.8590196666666667 -0.3808336666666667
630022696 0.887917 -0.36852700000000005
631508575 0.8901499999999999 -0.3727496666666667
632994454 0.8941696666666666 -0.37422533333333335
634480333 0.8973053333333333 -0.37787966666666667
635966212 0.8994886666666666 -0.379442
637452091 0.9023946666666666 -0.38233266666666665
638937970 0.9038423333333333 -0.3841943333333333
640423849 0.9041609999999999 -0.3851603333333333
641909728 0.9061543333333333 -0.38664866666666664
643395607 0.9062293333333332 -0.386201
644881486 0.9066023333333334 -0.3865083333333333
646367365 0.9129103333333332 -0.3780233333333333
647853244 0.9058853333333333 -0.38767666666666667
649339123 0.9039133333333332 -0.386957
650825002 0.9010410000000001 -0.38657633333333336
652310881 0.8996113333333332 -0.38674800000000004
653796760 0.8964156666666666 -0.384514
655282639 0.8946813333333333 -0.38302033333333335
656768518 0.8894213333333333 -0.3836296666666666
658254397 0.8861656666666667 -0.38214666666666663
659740276 0.881386 -0.38053633333333337
661226155 0.8832109999999999 -0.384013
662712034 0.8862030000000001 -0.38560333333333335
664197913 0.889487 -0.38576366666666667
665683792 0.8907486666666666 -0.3917473333333334
667169671 0.893266 -0.3925676666666667
668655550 0.8965673333333334 -0.3925723333333333
670141429 0.8971393333333334 -0.394922
671627308 0.8976973333333333 -0.3945086666666667
673113187 0.8986166666666667 -0.39336599999999994
674599066 0.8980796666666667 -0.3934626666666667
676084945 0.8968556666666667 -0.39505833333333334
677570824 0.8963709999999999 -0.39434166666666665
679056703 0.8956943333333333 -0.3949566666666667
680542582 0.8942996666666666 -0.391607
682028461 0.892751 -0.391785
683514340 0.890627 -0.38892
685000219 0.8872746666666668 -0.38929166666666665
686486098 0.8832966666666667 -0.38716833333333334
687971977 0.8782866666666665 -0.3865453333333333
689457856 0.8743883333333334 -0.38279166666666664
690943735 0.8735886666666667 -0.385917
692429614 0.8762343333333332 -0.38933766666666664
693915493 0.8783643333333333 -0.3927576666666666
695401372 0.8795660000000001 -0.3961426666666667
696887251 0.8796970000000001 -0.3974713333333333
698373130 0.8825906666666666 -0.400333
699859009 0.8837083333333333 -0.40202466666666664
701344888 0.8833456666666667 -0.4053280000000001
702830767 0.883842 -0.40477433333333335
704316646 0.8837376666666666 -0.40715799999999996
705802525 0.882561 -0.4079456666666667
707288404 0.8822923333333333 -0.40723400000000004
708774283 0.881547 -0.4073613333333333
710260162 0.8785250000000001 -0.40823566666666666
711746041 0.8777886666666667 -0.410938
713231920 0.8743226666666667 -0.40857899999999997
714717799 0.8713543333333335 -0.408971
716203678 0.8682639999999999 -0.4090453333333333
717689557 0.8664376666666667 -0.4069103333333333
719175436 0.8598913333333335 -0.40747700000000003
720661315 0.8597643333333332 -0.4079523333333333
722147194 0.8619023333333334 -0.4132343333333333
723633073 0.8638343333333333 -0.415767
725118952 0.8666756666666666 -0.417991
726604831 0.8686533333333334 -0.41894133333333333
728090710 0.8704879999999999 -0.42055533333333334
729576589 0.8718899999999999 -0.4206636666666667
731062468 0.8715633333333334 -0.42311899999999997
732548347 0.8715516666666666 -0.4255096666666667
734034226 0.8737330000000001 -0.4243873333333334
735520105 0.8727136666666667 -0.42452266666666666
737005984 0.8710226666666667 -0.42461733333333335
738491863 0.870483 -0.4272066666666667
739977742 0.8702380000000001 -0.42558266666666666
741463621 0.8674103333333334 -0.4252306666666667
742949500 0.8652813333333332 -0.42465400000000003
744435379 0.8643616666666666 -0.42352166666666663
745921258 0.8591466666666667 -0.42435700000000004
747407137 0.8561753333333333 -0.4217576666666667
748893016 0.8526416666666666 -0.42180833333333334
750378895 0.8518476666666667 -0.41967899999999997
751864774 0.8537123333333333 -0.422749
753350653 0.8559193333333334 -0.42714766666666665
754836532 0.8582346666666667 -0.427041
756322411 0.8597666666666667 -0.430488
757808290 0.859769 -0.43248033333333336
759294169 0.861328 -0.4332023333333333
760780048 0.8628896666666668 -0.434738
762265927 0.8620610000000001 -0.43680233333333335
763751806 0.8623949999999999 -0.43662566666666663
765237685 0.862397 -0.4379656666666667
766723564 0.8611 -0.437549
768209443 0.8606626666666667 -0.43679400000000007
769695322 0.83872 -0.44756866666666667
771181201 0.8562599999999999 -0.43580066666666667
772667080 0.854304 -0.4361486666666667
774152959 0.8510733333333333 -0.4353373333333333
775638838 0.8485683333333333 -0.4335176666666667
777124717 0.8910239999999999 -0.4575383333333333
778610596 0.8411833333333334 -0.43344699999999997
780096475 0.8368086666666666 -0.4332256666666667
781582354 0.8402673333333333 -0.43553
783068233 0.844164 -0.4382803333333333
784554112 0.845765 -0.440571
786039991 0.847244 -0.44242866666666664
787525870 0.8497896666666667 -0.44372033333333327
789011749 0.8511853333333335 -0.44628433333333334
790497628 0.8535946666666666 -0.4448543333333333
791983507 0.8516683333333334 -0.44787366666666667
793469386 0.8539146666666667 -0.4469636666666667
794955265 0.8547943333333334 -0.4468796666666666
796441144 0.8527460000000001 -0.4472956666666667
797927023 0.8523166666666665 -0.44688333333333335
799412902 0.8509603333333334 -0.44714800000000005
800898781 0.8494053333333333 -0.4466033333333333
802384660 0.847387 -0.4465693333333333
803870539 0.8454673333333332 -0.4435226666666667
805356418 0.8418726666666667 -0.44370133333333334
806842297 0.839842 -0.44171133333333334
808328176 0.8353193333333334 -0.44091233333333335
809814055 0.8315089999999999 -0.4397883333333334
811299934 0.833417 -0.4429796666666666
812785813 0.8360090000000001 -0.44522233333333333
814271692 0.8379306666666667 -0.4485666666666666
815757571 0.8402986666666666 -0.45226133333333335
817243450 0.8406359999999999 -0.453984
818729329 0.8436456666666666 -0.45548833333333333
820215208 0.8436096666666666 -0.4576456666666666
821701087 0.8446966666666667 -0.45851333333333333
823186966 0.8443010000000001 -0.45992133333333335
824672845 0.845435 -0.458742
826158724 0.8420139999999999 -0.463037
827644603 0.8420256666666668 -0.4625626666666667
829130482 0.840659 -0.4622543333333333
830616361 0.8409810000000001 -0.46123933333333333
832102240 0.8370753333333333 -0.46103133333333335
833588119 0.8332083333333333 -0.46191266666666664
835073998 0.8323753333333332 -0.46003599999999994
836559877 0.8281406666666666 -0.45873866666666663
838045756 0.8237803333333334 -0.45943533333333336
839531635 0.8192626666666666 -0.45879000000000003
841017514 0.821399 -0.45898533333333336
842503393 0.8231973333333333 -0.4626316666666666
843989272 0.8245613333333334 -0.46694433333333335
845475151 0.826642 -0.47049
846961030 0.8294653333333333 -0.47062566666666666
848446909 0.8303416666666666 -0.47368366666666667
849932788 0.8318896666666667 -0.47445866666666675
851418667 0.8337963333333334 -0.4743873333333333
852904546 0.8319343333333333 -0.4773893333333333
854390425 0.8327656666666666 -0.4775293333333333
855876304 0.8322443333333333 -0.47746933333333336
857362183 0.8307246666666668 -0.47780566666666663
858848062 0.831039 -0.4758416666666667
860333941 0.8286103333333332 -0.47530266666666665
861819820 0.8263626666666667 -0.47465833333333335
863305699 0.8249026666666667 -0.4736563333333333
864791578 0.8205353333333334 -0.47369799999999995
866277457 0.818075 -0.47182233333333334
867763336 0.814292 -0.47004533333333337
869249215 0.8096730000000001 -0.4692450000000001
870735094 0.8089209999999999 -0.4706456666666667
872220973 0.8106119999999999 -0.47348199999999996
873706852 0.8141893333333333 -0.4763043333333334
875192731 0.8151103333333335 -0.4802866666666667
876678610 0.8166516666666667 -0.481786
878164489 0.8188523333333334 -0.4840526666666667
879650368 0.820627 -0.485262
881136247 0.819544 -0.488418
882622126 0.8197770000000001 -0.4875053333333333
884108005 0.8222476666666667 -0.4879733333333333
885593884 0.8208263333333332 -0.48742066666666667
887079763 0.820413 -0.4877573333333334
888565642 0.819906 -0.48713633333333334
890051521 0.8157876666666666 -0.48859199999999997
891537400 0.816056 -0.48811166666666667
893023279 0.8134196666666668 -0.48624566666666663
894509158 0.8099259999999999 -0.4853963333333333
895995037 0.8092266666666666 -0.4823673333333333
897480916 0.8049253333333333 -0.480232
898966795 0.799907 -0.4788036666666667
900452674 0.7982433333333333 -0.47906033333333337
901938553 0.8010283333333333 -0.483173
903424432 0.8033006666666666 -0.4843279999999999
904910311 0.8066043333333334 -0.48607766666666663
906396190 0.8050546666666666 -0.493055
907882069 0.8062426666666668 -0.4936483333333333
909367948 0.8088143333333333 -0.494065
910853827 0.8088593333333334 -0.4960636666666667
912339706 0.8093253333333333 -0.4958933333333333
913825585 0.8108516666666666 -0.49506100000000003
915311464 0.808023 -0.4992096666666667
916797343 0.8093273333333334 -0.49707133333333325
918283222 0.8080106666666667 -0.49761666666666665
919769101 0.8069423333333333 -0.494221
921254980 0.8035183333333333 -0.4961086666666667
922740859 0.8017383333333332 -0.495446
924226738 0.8018283333333334 -0.49213100000000004
925712617 0.797072 -0.4925906666666666
927198496 0.7935483333333334 -0.4885093333333333
928684375 0.8322943333333334 -0.49366533333333334
930170254 0.7860320000000001 -0.4867166666666667
931656133 0.7898146666666667 -0.49108100000000005
933142012 0.7900713333333332 -0.49515333333333333
934627891 0.7927366666666668 -0.49662866666666666
936113770 0.7941936666666667 -0.49899133333333334
937599649 0.7956373333333334 -0.5007579999999999
939085528 0.7974323333333334 -0.5027873333333334
940571407 0.7987586666666667 -0.503845
942057286 0.7991646666666666 -0.5054266666666667
943543165 0.7995700000000001 -0.5057123333333333
945029044 0.7996176666666667 -0.5064006666666666
946514923 0.8011699999999999 -0.504705
948000802 0.8008096666666668 -0.505465
949486681 0.7992506666666667 -0.5035
950972560 0.7971900000000001 -0.5035986666666666
952458439 0.7955956666666667 -0.5022256666666668
953944318 0.794758 -0.500288
955430197 0.7918183333333334 -0.49830966666666665
956916076 0.787897 -0.49606733333333336
958401955 0.7857546666666666 -0.4951003333333333
959887834 0.781858 -0.4931166666666667
961373713 0.7841286666666667 -0.49636166666666665
962859592 0.7847879999999999 -0.49917066666666665
964345471 0.7857409999999999 -0.5018163333333333
965831350 0.7886836666666667 -0.5032413333333333
967317229 0.7882773333333333 -0.5069756666666666
968803108 0.7900756666666666 -0.5084126666666667
970288987 0.791508 -0.5088686666666666
971774866 0.7911549999999999 -0.5096016666666666
973260745 0.7761773333333334 -0.5243426666666667
974746624 0.7905276666666667 -0.5130316666666667
976232503 0.7907109999999999 -0.51307
977718382 0.7902680000000001 -0.5114283333333334
979204261 0.7890263333333333 -0.5123333333333333
980690140 0.787547 -0.5132233333333334
982176019 0.7864556666666666 -0.5114286666666666
983661898 0.7829783333333333 -0.5124529999999999
985147777 0.783081 -0.5071876666666667
986633656 0.778524 -0.5082183333333333
988119535 0.7758583333333333 -0.508054
989605414 0.7720956666666666 -0.505706
991091293 0.7740276666666667 -0.506106
992577172 0.7759396666666666 -0.5069199999999999
994063051 0.7753960000000001 -0.5129053333333334
995548930 0.7763046666666668 -0.5160776666666667
997034809 0.7775413333333333 -0.5161383333333333
998520688 0.7780566666666667 -0.5198713333333332
1000006567 0.7789313333333333 -0.5190586666666667
1001492446 0.7799656666666666 -0.5191739999999999
1002978325 0.779477 -0.5204106666666667
1004464204 0.7802843333333334 -0.5196999999999999
1005950083 0.7795013333333333 -0.5204019999999999
1007435962 0.7792813333333334 -0.519601
1008921841 0.7762866666666667 -0.5198713333333334
1010407720 0.7760569999999999 -0.5202446666666667
1011893599 0.77442 -0.5192133333333334
1013379478 0.7722846666666667 -0.5170026666666666
1014865357 0.7680413333333332 -0.5185219999999999
1016351236 0.7664366666666668 -0.5158923333333334
1017837115 0.7623666666666665 -0.5150419999999999
1019322994 0.7589976666666667 -0.5136676666666666
1020808873 0.7592626666666668 -0.5138446666666667
1022294752 0.7618276666666667 -0.5163239999999999
1023780631 0.7622956666666667 -0.5190133333333333
1025266510 0.7642116666666666 -0.521262
1026752389 0.763438 -0.5244643333333333
1028238268 0.7654573333333333 -0.5262466666666666
1029724147 0.7673220000000001 -0.5253226666666667
1031210026 0.7657983333333332 -0.5269343333333333
1032695905 0.76815 -0.525887
1034181784 0.7652963333333332 -0.5291536666666666
1035667663 0.7679953333333334 -0.5269356666666667
1037153542 0.7660576666666666 -0.5281276666666667
1038639421 0.7641166666666667 -0.5276926666666667
1040125300 0.7629496666666666 -0.5283443333333332
1041611179 0.7619276666666667 -0.5278616666666666
1043097058 0.7607066666666666 -0.5259976666666666
1044582937 0.7572903333333333 -0.5275013333333334
1046068816 0.7548156666666666 -0.524987
1047554695 0.7510216666666668 -0.5254386666666666
1049040574 0.7485013333333335 -0.5230606666666667
1050526453 0.7498843333333333 -0.522422
1052012332 0.753103 -0.5222513333333333
1053498211 0.7475719999999999 -0.5326223333333334
1054984090 0.75751 -0.5263326666666667
1056469969 0.750949 -0.536216
1057955848 0.7606043333333333 -0.5297140000000001
1059441727 0.7529239999999998 -0.539478
1060927606 0.7602173333333333 -0.5330133333333333
1062413485 0.7552933333333333 -0.5404286666666667
1063899364 0.7624253333333333 -0.5331406666666666
1065385243 0.7544596666666665 -0.5428540000000001
1066871122 0.761675 -0.534547
1068357001 0.752481 -0.5425263333333333
1069842880 0.7598193333333333 -0.5321413333333332
1071328759 0.7587579999999999 -0.532931
1072814638 0.7576899999999999 -0.5320636666666666
1074300517 0.7541743333333333 -0.5316106666666667
1075786396 0.7909836666666666 -0.5591373333333333
1077272275 0.7474433333333333 -0.531211
1078758154 0.7436833333333333 -0.529951
1080244033 0.7419756666666667 -0.5303233333333334
1081729912 0.7438923333333333 -0.5310923333333333
1083215791 0.7469133333333332 -0.5331053333333333
1084701670 0.7492259999999998 -0.5364236666666666
1086187549 0.7501846666666667 -0.5365316666666667
1087673428 0.7503753333333334 -0.5396386666666667
1089159307 0.7539246666666667 -0.5381983333333333
1090645186 0.7527886666666667 -0.5427923333333333
1092131065 0.7503226666666666 -0.5467643333333333
1093616944 0.7484636666666667 -0.5480433333333333
1095102823 0.7502656666666668 -0.5471633333333333
1096588702 0.7506193333333333 -0.5447646666666666
1098074581 0.7474783333333334 -0.5450676666666666
1099560460 0.7483343333333333 -0.5451203333333333
1101046339 0.7457143333333333 -0.542425
1102532218 0.7421606666666666 -0.5429523333333334
1104018097 0.7418446666666666 -0.5425249999999999
1105503976 0.7385583333333333 -0.5439043333333333
1106989855 0.7351546666666667 -0.5390336666666666
1108475734 0.7311236666666666 -0.5395203333333334
1109961613 0.7291279999999999 -0.535224
1111447492 0.730194 -0.5403196666666666
1112933371 0.7327806666666667 -0.543983
1114419250 0.7351683333333333 -0.5455473333333333
1115905129 0.736564 -0.547444
1117391008 0.7391763333333333 -0.5478016666666666
1118876887 0.7375183333333334 -0.5513703333333333
1120362766 0.7386563333333332 -0.5528616666666667
1121848645 0.7387463333333333 -0.5546460000000001
1123334524 0.740999 -0.553858
1124820403 0.7384080000000001 -0.5540423333333333
1126306282 0.7354493333333334 -0.5571866666666666
1127792161 0.7364166666666666 -0.5547496666666666
1129278040 0.7352116666666667 -0.558674
1130763919 0.7345766666666665 -0.5527253333333334
1132249798 0.73147 -0.555143
1133735677 0.7299993333333333 -0.553416
1135221556 0.7279973333333333 -0.5520943333333334
1136707435 0.7242723333333333 -0.5507493333333333
1138193314 0.7212166666666667 -0.549405
1139679193 0.7171666666666666 -0.5478223333333333
1141165072 0.7150836666666667 -0.5501336666666666
1142650951 0.72057 -0.5560813333333333
1144136830 0.7218583333333334 -0.556617
1145622709 0.7226016666666667 -0.5596956666666667
1147108588 0.7241233333333333 -0.5625396666666668
1148594467 0.7267089999999999 -0.5627906666666667
1150080346 0.7269283333333334 -0.5620203333333333
1151566225 0.7276906666666667 -0.563108
1153052104 0.7281306666666668 -0.5647083333333334
1154537983 0.7248743333333333 -0.567027
1156023862 0.7244733333333334 -0.5682296666666667
1157509741 0.726455 -0.5655383333333334
1158995620 0.7254993333333334 -0.5628656666666667
1160481499 0.7226243333333334 -0.5654636666666667
1161967378 0.7197096666666667 -0.5643243333333333
1163453257 0.7171446666666667 -0.5631393333333333
1164939136 0.7159963333333333 -0.559986
1166425015 0.711799 -0.559059
1167910894 0.7087499999999999 -0.5591103333333334
1169396773 0.7038593333333334 -0.559319
1170882652 0.7034003333333333 -0.558443
1172368531 0.7044693333333333 -0.5615086666666667
1173854410 0.7061946666666666 -0.5642483333333334
1175340289 0.709513 -0.5661563333333334
1176826168 0.7093210000000001 -0.5680246666666666
1178312047 0.7097950000000001 -0.5703243333333333
1179797926 0.7097026666666667 -0.5727333333333333
1181283805 0.7110013333333334 -0.5732516666666666
1182769684 0.7097316666666668 -0.5759293333333334
1184255563 0.7092563333333333 -0.5742566666666667
1185741442 0.7091123333333332 -0.5745026666666667
1187227321 0.7097443333333334 -0.5721630000000001
1188713200 0.7052253333333333 -0.5750320000000001
1190199079 0.704469 -0.5723606666666666
1191684958 0.7020496666666666 -0.5722773333333334
1193170837 0.6995036666666666 -0.5721853333333332
1194656716 0.696665 -0.5701183333333334
1196142595 0.6938493333333332 -0.5686076666666665
1197628474 0.6899493333333333 -0.566473
1199114353 0.6849249999999999 -0.5651046666666666
1200600232 0.6844123333333334 -0.5645246666666667
1202086111 0.6875453333333333 -0.567426
1203571990 0.6887693333333332 -0.571722
1205057869 0.6898336666666666 -0.574566
1206543748 0.6923903333333333 -0.5760813333333333
1208029627 0.6937013333333333 -0.5789673333333333
1209515506 0.6950686666666667 -0.5803583333333333
1211001385 0.6968856666666666 -0.5813766666666667
1212487264 0.6970689999999999 -0.5834579999999999
1213973143 0.6966813333333334 -0.5835443333333333
1215459022 0.6968563333333333 -0.58352
1216944901 0.6959773333333333 -0.5837546666666668
1218430780 0.6946660000000001 -0.5842299999999999
1219916659 0.6981873333333334 -0.5805146666666667
1221402538 0.695636 -0.5800363333333333
1222888417 0.690906 -0.5800693333333333
1224374296 0.6897350000000001 -0.5780396666666667
1225860175 0.6875746666666668 -0.576296
1227346054 0.6855600000000001 -0.5745973333333333
1228831933 0.6831863333333333 -0.5719736666666666
1230317812 0.6805693333333332 -0.5682106666666668
1231803691 0.6786546666666666 -0.5743243333333333
1233289570 0.68282 -0.576514
1234775449 0.6839253333333334 -0.5788146666666667
1236261328 0.6840546666666668 -0.5798966666666666
1237747207 0.6859383333333334 -0.5823280000000001
1239233086 0.686961 -0.5833309999999999
1240718965 0.6886953333333333 -0.582899
1242204844 0.6873746666666666 -0.58628
1243690723 0.6870090000000001 -0.5861536666666667
1245176602 0.6881426666666667 -0.5845023333333333
1246662481 0.6880623333333333 -0.5849663333333334
1248148360 0.686137 -0.5830000000000001
1249634239 0.6854089999999999 -0.5832343333333333
1251120118 0.6838206666666666 -0.5808713333333334
1252605997 0.6821646666666666 -0.578088
1254091876 0.6795293333333333 -0.576923
1255577755 0.678261 -0.5747099999999999
1257063634 0.674173 -0.5728773333333333
1258549513 0.6698770000000001 -0.5690233333333333
1260035392 0.6678450000000001 -0.5652616666666667
1261521271 0.6682636666666667 -0.56957
1263007150 0.6683923333333333 -0.5719786666666667
1264493029 0.6686096666666667 -0.5786916666666667
1265978908 0.669739 -0.578852
1267464787 0.6715939999999999 -0.5825033333333333
1268950666 0.6692726666666666 -0.5839656666666667
1270436545 0.6698936666666667 -0.5869953333333333
1271922424 0.6693106666666666 -0.5879703333333334
1273408303 0.6699113333333333 -0.5886786666666667
1274894182 0.668336 -0.5902476666666666
1276380061 0.6675610000000001 -0.5892883333333333
1277865940 0.6649506666666667 -0.589422
1279351819 0.665284 -0.5900063333333333
1280837698 0.6625869999999999 -0.5918766666666667
1282323577 0.6611066666666666 -0.5907946666666667
1283809456 0.6606983333333333 -0.5864723333333334
1285295335 0.6576206666666667 -0.587105
1286781214 0.654474 -0.5852529999999999
1288267093 0.6512656666666666 -0.5844256666666667
1289752972 0.6473559999999999 -0.581873
1291238851 0.6494163333333333 -0.5831903333333334
1292724730 0.6509386666666667 -0.5876603333333333
1294210609 0.652036 -0.5894306666666668
1295696488 0.6542133333333333 -0.5903656666666667
1297182367 0.6534156666666666 -0.5923556666666666
1298668246 0.656226 -0.5955293333333334
1300154125 0.6566483333333334 -0.596933
1301640004 0.655281 -0.5983623333333333
1303125883 0.6593636666666666 -0.594702
1304611762 0.6591026666666666 -0.5964306666666667
1306097641 0.6576369999999999 -0.5967736666666666
1307583520 0.6586866666666666 -0.5964703333333333
1309069399 0.6572973333333333 -0.5946123333333334
1310555278 0.6585966666666667 -0.595179
1312041157 0.6559906666666666 -0.5945853333333333
1313527036 0.65646 -0.5905400000000001
1315012915 0.6529336666666666 -0.5898063333333333
1316498794 0.6497940000000001 -0.5865623333333333
1317984673 0.6502276666666668 -0.5848303333333333
1319470552 0.6463016666666667 -0.5815583333333334
1320956431 0.6448783333333333 -0.5857926666666667
1322442310 0.6493813333333333 -0.587626
1323928189 0.6504973333333334 -0.5876936666666667
1325414068 0.6505873333333333 -0.590754
1326899947 0.6540433333333334 -0.5917783333333334
1328385826 0.6531466666666667 -0.5940116666666667
1329871705 0.6544583333333334 -0.5965509999999999
1331357584 0.6528083333333333 -0.6005386666666667
1332843463 0.6545363333333333 -0.5953463333333334
1334329342 0.6534816666666666 -0.6027643333333333
1335815221 0.652913 -0.6005946666666667
1337301100 0.6541256666666667 -0.5996163333333334
1338786979 0.6531826666666667 -0.6002443333333333
1340272858 0.6514593333333333 -0.5990350000000001
1341758737 0.6524913333333333 -0.5979383333333333
1343244616 0.6502336666666667 -0.5970380000000001
1344730495 0.6513733333333334 -0.5973613333333333
1346216374 0.6472803333333333 -0.5962636666666666
1347702253 0.644618 -0.5943443333333334
1349188132 0.6435766666666667 -0.5928616666666667
1350674011 0.6374793333333334 -0.595793
1352159890 0.6436796666666668 -0.5937
1353645769 0.6423793333333334 -0.5956493333333334
1355131648 0.641153 -0.599268
1356617527 0.643176 -0.599132
1358103406 0.6419579999999999 -0.6021193333333333
1359589285 0.642102 -0.5999266666666666
1361075164 0.6405689999999999 -0.604262
1362561043 0.6390220000000001 -0.6029646666666667
1364046922 0.6397056666666666 -0.6047256666666666
1365532801 0.6362503333333334 -0.604985
1367018680 0.6349513333333334 -0.6068923333333334
1368504559 0.6330096666666667 -0.606782
1369990438 0.6313856666666666 -0.6040976666666666
1371476317 0.6286176666666666 -0.6057153333333334
1372962196 0.6250896666666667 -0.6042853333333333
1374448075 0.624147 -0.6030786666666667
1375933954 0.6169133333333333 -0.6036273333333333
1377419833 0.6180103333333333 -0.6003763333333333
1378905712 0.6110646666666667 -0.6002816666666666
1380391591 0.6113930000000001 -0.600221
1381877470 0.612473 -0.602037
1383363349 0.6157046666666667 -0.6066113333333334
1384849228 0.6162003333333333 -0.6080526666666667
1386335107 0.6194996666666667 -0.6096403333333333
1387820986 0.6203966666666667 -0.6135183333333333
1389306865 0.62397 -0.610118
1390792744 0.6273446666666667 -0.6110753333333333
1392278623 0.6207906666666667 -0.6143133333333334
1393764502 0.6274336666666667 -0.6160166666666668
1395250381 0.6268593333333333 -0.6114783333333333
1396736260 0.629363 -0.6107730000000001
1398222139 0.6266116666666667 -0.611425
1399708018 0.6263763333333333 -0.6121053333333334
1401193897 0.624868 -0.612367
1402679776 0.6238856666666667 -0.6100156666666666
1404165655 0.6227133333333333 -0.60758
1405651534 0.6209123333333334 -0.6068996666666666
1407137413 0.6201836666666667 -0.6033266666666667
1408623292 0.6178180000000001 -0.602382
1410109171 0.6132856666666667 -0.6007456666666667
1411595050 0.6170446666666667 -0.6044306666666667
1413080929 0.621058 -0.6076133333333333
1414566808 0.6223776666666666 -0.6082749999999999
1416052687 0.624785 -0.6099216666666666
1417538566 0.6267729999999999 -0.6101216666666667
1419024445 0.6266223333333333 -0.6160113333333334
1420510324 0.627837 -0.6179466666666666
1421996203 0.6300563333333332 -0.6146916666666666
1423482082 0.6647216666666667 -0.621076
1424967961 0.6314289999999999 -0.6138383333333334
1426453840 0.6305143333333333 -0.6174543333333332
1427939719 0.6309239999999999 -0.615282
1429425598 0.6298366666666667 -0.6168083333333333
1430911477 0.6317506666666667 -0.6119993333333333
1432397356 0.6296149999999999 -0.6135326666666666
1433883235 0.6275956666666667 -0.6121526666666667
1435369114 0.6275333333333334 -0.611468
1436854993 0.6230950000000001 -0.6084146666666667
1438340872 0.6209713333333333 -0.6068656666666666
1439826751 0.6176596666666666 -0.6065269999999999
1441312630 0.6187543333333333 -0.6063890000000001
1442798509 0.6194243333333334 -0.6113183333333333
1444284388 0.624373 -0.6118693333333333
1445770267 0.6232893333333333 -0.6141493333333333
1447256146 0.6233133333333333 -0.614001
1448742025 0.6218456666666666 -0.616887
1450227904 0.6245813333333333 -0.6162443333333333
1451713783 0.6262446666666667 -0.6159606666666666
1453199662 0.624786 -0.6159893333333333
1454685541 0.6236683333333333 -0.6172413333333333
1456171420 0.6222916666666667 -0.6164516666666667
1457657299 0.6203066666666667 -0.617733
1459143178 0.6184890000000001 -0.6161036666666666
1460629057 0.6171776666666666 -0.614525
1462114936 0.6135423333333333 -0.6140506666666666
1463600815 0.6117643333333334 -0.6123316666666666
1465086694 0.609409 -0.6108656666666666
1466572573 0.6043946666666667 -0.610483
1468058452 0.6014879999999999 -0.6084456666666667
1469544331 0.5958726666666667 -0.6077983333333333
1471030210 0.5991703333333334 -0.6079876666666667
1472516089 0.5994643333333334 -0.612257
1474001968 0.6036653333333334 -0.6135143333333334
1475487847 0.6022273333333333 -0.6181956666666667
1476973726 0.6045016666666667 -0.61993
1478459605 0.6069373333333333 -0.620722
1479945484 0.6081276666666667 -0.6228803333333334
1481431363 0.6087193333333333 -0.6222553333333334
1482917242 0.608424 -0.62412
1484403121 0.6097323333333334 -0.622544
1485889000 0.6094883333333333 -0.6231976666666666
1487374879 0.60955 -0.6230003333333333
1488860758 0.608389 -0.6222296666666667
1490346637 0.6072693333333333 -0.6203816666666667
1491832516 0.605525 -0.6198580000000001
1493318395 0.6036100000000001 -0.6190273333333334
1494804274 0.6045806666666667 -0.6157053333333332
1496290153 0.5984140000000001 -0.6146663333333333
1497776032 0.5960366666666667 -0.6131786666666666
1499261911 0.593723 -0.6098463333333334
1500747790 0.590817 -0.6125083333333333
1502233669 0.594353 -0.6134923333333333
1503719548 0.5951473333333334 -0.6180966666666666
1505205427 0.5953496666666667 -0.6214593333333333
1506691306 0.5994166666666666 -0.621913
1508177185 0.596591 -0.6256533333333333
1509663064 0.5991963333333333 -0.6262966666666666
1511148943 0.5982226666666666 -0.628321
1512634822 0.599794 -0.6294636666666666
1514120701 0.5988883333333334 -0.6285036666666667
1515606580 0.6001286666666666 -0.6284420000000001
1517092459 0.5976716666666667 -0.6283126666666666
1518578338 0.5968743333333334 -0.6283340000000001
1520064217 0.602435 -0.6242026666666667
1521550096 0.5924553333333333 -0.6246866666666667
1523035975 0.5905373333333334 -0.6250266666666667
1524521854 0.584925 -0.62378
1526007733 0.5824586666666667 -0.6236343333333333
1527493612 0.6109666666666667 -0.6376700000000001
1528979491 0.576923 -0.6179723333333333
1530465370 0.5729783333333334 -0.6169363333333333
1531951249 0.5762146666666667 -0.6204226666666667
1533437128 0.5768683333333332 -0.625407
1534923007 0.5783073333333333 -0.6277499999999999
1536408886 0.5804796666666667 -0.6313236666666666
1537894765 0.5810983333333334 -0.630146
1539380644 0.5823273333333333 -0.6321583333333333
1540866523 0.583098 -0.6322803333333333
1542352402 0.5820316666666666 -0.632931
1543838281 0.5831793333333333 -0.6330453333333333
1545324160 0.5834666666666667 -0.633023
1546810039 0.5826006666666667 -0.6316193333333333
1548295918 0.582839 -0.6304636666666666
1549781797 0.5799796666666667 -0.630247
1551267676 0.5776466666666666 -0.6297846666666667
1552753555 0.5756076666666666 -0.6278113333333333
1554239434 0.574255 -0.625313
1555725313 0.5726246666666667 -0.6222266666666667
1557211192 0.5673 -0.6200246666666667
1558697071 0.5660366666666666 -0.6200036666666665
1560182950 0.5632473333333333 -0.6142876666666667
1561668829 0.5639116666666667 -0.618416
1563154708 0.5656466666666667 -0.6219116666666668
1564640587 0.5639073333333333 -0.6261723333333333
1566126466 0.565395 -0.6298643333333334
1567612345 0.5666043333333334 -0.6309236666666667
1569098224 0.5643683333333332 -0.6344623333333334
1570584103 0.5682063333333333 -0.6341043333333334
1572069982 0.5645403333333334 -0.6393813333333332
1573555861 0.5688933333333334 -0.635224
1575041740 0.5688643333333333 -0.6367776666666667
1576527619 0.5678276666666666 -0.6371923333333332
1578013498 0.5685406666666667 -0.6368689999999999
1579499377 0.565487 -0.6361663333333333
1580985256 0.5634426666666666 -0.637181
1582471135 0.5653609999999999 -0.6322603333333333
1583957014 0.5348576666666667 -0.6297366666666666
1585442893 0.5596726666666667 -0.6307703333333333
1586928772 0.558071 -0.628584
1588414651 0.5557313333333334 -0.6245916666666668
1589900530 0.5516423333333335 -0.6226506666666666
1591386409 0.5519143333333334 -0.6260123333333333
1592872288 0.5559206666666667 -0.6279823333333333
1594358167 0.5577553333333333 -0.6300516666666667
1595844046 0.550447 -0.6380863333333333
1597329925 0.5642746666666666 -0.6310889999999999
1598815804 0.552461 -0.64179
1600301683 0.5585866666666667 -0.638764
1601787562 0.5543993333333334 -0.642311
1603273441 0.5604483333333333 -0.640039
1604759320 0.5534766666666666 -0.644897
1606245199 0.5606326666666667 -0.638523
1607731078 0.5537863333333334 -0.6434593333333334
1609216957 0.561268 -0.636936
1610702836 0.550957 -0.6420656666666666
1612188715 0.5595076666666666 -0.6331616666666667
1613674594 0.5489913333333333 -0.6384883333333333
1615160473 0.549778 -0.6341416666666667
1616646352 0.5448890000000001 -0.6335976666666666
1618132231 0.5487796666666667 -0.6266163333333333
1619618110 0.5416313333333332 -0.6276630000000001
1621103989 0.5462593333333333 -0.6262490000000001
1622589868 0.540296 -0.6333976666666666
1624075747 0.5467486666666667 -0.6321376666666667
1625561626 0.543524 -0.6364169999999999
1627047505 0.549696 -0.6346416666666667
1628533384 0.5412103333333332 -0.643602
1630019263 0.5499843333333333 -0.639226
1631505142 0.5409 -0.646599
1632991021 0.5503306666666666 -0.6408656666666667
1634476900 0.5418423333333333 -0.6464326666666667
1635962779 0.5486056666666667 -0.6422256666666667
1637448658 0.538782 -0.6472296666666666
1638934537 0.546493 -0.6424083333333334
1640420416 0.5430173333333334 -0.6421143333333333
1641906295 0.5404646666666667 -0.6435196666666666
1643392174 0.5404643333333333 -0.6405773333333333
1644878053 0.536307 -0.6416536666666667
1646363932 0.5352743333333333 -0.6393796666666667
1647849811 0.5363283333333333 -0.634243
1649335690 0.5293163333333334 -0.6352126666666668
1650821569 0.5314686666666666 -0.634385
1652307448 0.5325283333333334 -0.6372196666666666
1653793327 0.5323656666666666 -0.6407660000000001
1655279206 0.5314713333333333 -0.6421760000000001
1656765085 0.5322290000000001 -0.6447636666666666
1658250964 0.5339286666666667 -0.643981
1659736843 0.5330719999999999 -0.6470266666666666
1661222722 0.5336693333333332 -0.6461199999999999
1662708601 0.5310553333333333 -0.6474723333333333
1664194480 0.5307746666666667 -0.6490436666666667
1665680359 0.5341106666666667 -0.6476553333333334
1667166238 0.5312956666666667 -0.647149
1668652117 0.5289833333333332 -0.6477073333333333
1670137996 0.528975 -0.6456686666666668
1671623875 0.5286543333333333 -0.6431490000000001
1673109754 0.5252386666666666 -0.644199
1674595633 0.5244783333333333 -0.6407766666666667
1676081512 0.522971 -0.6391703333333333
1677567391 0.5191233333333333 -0.634964
1679053270 0.5164426666666667 -0.6355736666666666
1680539149 0.5147776666666667 -0.634878
1682025028 0.5187073333333333 -0.6351566666666667
1683510907 0.5182233333333333 -0.640249
1684996786 0.5179726666666666 -0.6444166666666666
1686482665 0.5212133333333334 -0.6442633333333333
1687968544 0.5224283333333334 -0.6462483333333333
1689454423 0.524575 -0.646722
1690940302 0.524152 -0.6487453333333334
1692426181 0.5247856666666667 -0.6492373333333333
1693912060 0.5231313333333333 -0.651395
1695397939 0.5250483333333333 -0.649985
1696883818 0.525376 -0.6493053333333333
1698369697 0.5260676666666666 -0.64617
1699855576 0.5265243333333333 -0.6455246666666666
1701341455 0.5227306666666666 -0.6456986666666668
1702827334 0.5232786666666667 -0.644186
1704313213 0.5223893333333333 -0.6415546666666667
1705799092 0.5206006666666667 -0.6412263333333333
1707284971 0.5176573333333333 -0.6387793333333334
1708770850 0.514603 -0.6371673333333334
1710256729 0.5136456666666667 -0.6345673333333334
1711742608 0.51557 -0.6368326666666667
1713228487 0.5168876666666666 -0.6395036666666666
1714714366 0.516541 -0.6423186666666666
1716200245 0.51952 -0.6436056666666667
1717686124 0.5202789999999999 -0.6455626666666667
1719172003 0.5168296666666666 -0.6436446666666668
1720657882 0.5213056666666667 -0.646742
1722143761 0.5204300000000001 -0.646824
1723629640 0.5203886666666667 -0.6473646666666667
1725115519 0.5186336666666667 -0.6466473333333332
1726601398 0.5216660000000001 -0.6443150000000001
1728087277 0.5188166666666667 -0.6448429999999999
1729573156 0.5162623333333333 -0.6457790000000001
1731059035 0.5111016666666667 -0.6425196666666667
1732544914 0.5142893333333334 -0.6424763333333333
1734030793 0.5096379999999999 -0.639824
1735516672 0.509722 -0.6397713333333334
1737002551 0.5101053333333333 -0.638625
1738488430 0.5041993333333333 -0.6341466666666666
1739974309 0.5013633333333333 -0.6331143333333333
1741460188 0.5048603333333334 -0.6359783333333332
1742946067 0.5042976666666666 -0.638464
1744431946 0.5056496666666667 -0.6410413333333334
1745917825 0.5063076666666667 -0.6442220000000001
1747403704 0.5042566666666667 -0.647111
1748889583 0.5141780000000001 -0.645701
1750375462 0.5050373333333333 -0.6509243333333333
1751861341 0.5117443333333332 -0.646595
1753347220 0.5042116666666666 -0.6514163333333333
1754833099 0.5137223333333334 -0.6488396666666666
1756318978 0.5049130000000001 -0.652576
1757804857 0.5105970000000001 -0.6490796666666667
1759290736 0.5039003333333334 -0.6509903333333333
1760776615 0.5111720000000001 -0.6469396666666667
1762262494 0.5036569999999999 -0.6502823333333333
1763748373 0.510865 -0.6431133333333333
1765234252 0.4993646666666667 -0.6464633333333333
1766720131 0.505596 -0.6420516666666667
1768206010 0.4960166666666666 -0.6417766666666668
1769691889 0.5018343333333334 -0.63835
1771177768 0.493905 -0.6411316666666667
1772663647 0.49831833333333336 -0.642847
1774149526 0.4965573333333333 -0.6478266666666667
1775635405 0.5048469999999999 -0.6477580000000001
1777121284 0.498825 -0.6529026666666667
1778607163 0.51013 -0.6494646666666667
1780093042 0.5014106666666668 -0.6564943333333333
1781578921 0.5109173333333333 -0.651795
1783064800 0.501168 -0.6558526666666666
1784550679 0.5082963333333333 -0.6528816666666667
1786036558 0.5022316666666667 -0.6558456666666667
1787522437 0.5100243333333333 -0.6532183333333333
1789008316 0.5058643333333334 -0.6528026666666666
1790494195 0.5059176666666666 -0.649616
1791980074 0.5066786666666666 -0.6468156666666666
1793465953 0.504267 -0.6461283333333334
1794951832 0.502544 -0.6438643333333333
1796437711 0.5023073333333333 -0.6436216666666666
1797923590 0.49620400000000003 -0.6410423333333334
1799409469 0.49560066666666663 -0.6370713333333334
1800895348 0.49395866666666666 -0.6388526666666666
1802381227 0.4979716666666667 -0.6407250000000001
1803867106 0.4983043333333333 -0.64386
1805352985 0.501242 -0.6460923333333333
1806838864 0.49938733333333335 -0.6454743333333334
1808324743 0.49879133333333336 -0.650097
1809810622 0.504147 -0.6477656666666668
1811296501 0.5008393333333333 -0.6499233333333333
1812782380 0.5011530000000001 -0.650462
1814268259 0.4998633333333333 -0.6487249999999999
1815754138 0.497094 -0.6503283333333333
1817240017 0.49633 -0.650417
1818725896 0.49466699999999997 -0.6479670000000001
1820211775 0.4936943333333334 -0.6474803333333333
1821697654 0.49177999999999994 -0.646119
1823183533 0.4949303333333333 -0.6449213333333333
1824669412 0.4917593333333334 -0.6405280000000001
1826155291 0.5084646666666667 -0.6738346666666667
1827641170 0.48547199999999996 -0.6387556666666667
1829127049 0.481674 -0.6339453333333332
1830612928 0.48143733333333333 -0.632964
1832098807 0.48387033333333335 -0.6362666666666668
1833584686 0.484357 -0.6420943333333333
1835070565 0.4801566666666666 -0.645487
1836556444 0.4824616666666666 -0.645084
1838042323 0.48240833333333333 -0.648314
1839528202 0.4814093333333333 -0.6532746666666667
1841014081 0.48877366666666666 -0.6502709999999999
1842499960 0.486662 -0.6530773333333334
1843985839 0.488519 -0.6506856666666666
1845471718 0.4827403333333333 -0.6538613333333333
1846957597 0.4869936666666667 -0.651353
1848443476 0.48513266666666666 -0.6517556666666667
1849929355 0.48146533333333336 -0.649788
1851415234 0.4836863333333333 -0.6482209999999999
1852901113 0.4829366666666666 -0.647265
1854386992 0.48098900000000006 -0.6471376666666666
1855872871 0.47401866666666664 -0.6454890000000001
1857358750 0.4730276666666667 -0.6428303333333334
1858844629 0.4732016666666667 -0.6403923333333333
1860330508 0.4703193333333333 -0.6390683333333333
1861816387 0.4716133333333333 -0.6437970000000001
1863302266 0.474326 -0.644311
1864788145 0.4731726666666667 -0.6497196666666666
1866274024 0.4755753333333333 -0.6504903333333334
1867759903 0.47569799999999995 -0.6527293333333333
1869245782 0.47645133333333334 -0.6546543333333333
1870731661 0.47840433333333326 -0.6556513333333333
1872217540 0.47682566666666665 -0.6568839999999999
1873703419 0.47873800000000005 -0.656616
1875189298 0.4796643333333333 -0.6555086666666666
1876675177 0.47770833333333335 -0.6571476666666666
1878161056 0.48071366666666665 -0.6536396666666666
1879646935 0.47696133333333335 -0.6548790000000001
1881132814 0.478777 -0.6521343333333334
1882618693 0.47926399999999997 -0.6498156666666667
1884104572 0.4772166666666666 -0.6488309999999999
1885590451 0.47239133333333333 -0.6484909999999999
1887076330 0.4695926666666666 -0.6472060000000001
1888562209 0.4675336666666667 -0.6434013333333333
1890048088 0.46638666666666667 -0.6403246666666667
1891533967 0.46652733333333335 -0.6441896666666667
1893019846 0.46503500000000003 -0.646609
1894505725 0.4702053333333333 -0.6488816666666666
1895991604 0.46852866666666665 -0.6484413333333334
1897477483 0.4735576666666667 -0.651304
1898963362 0.472448 -0.6506153333333333
1900449241 0.47264466666666666 -0.6531163333333333
1901935120 0.47058 -0.6530056666666667
1903420999 0.47034166666666666 -0.653522
1904906878 0.4690446666666667 -0.6548593333333333
1906392757 0.4683196666666667 -0.6532343333333334
1907878636 0.4708826666666666 -0.650789
1909364515 0.46498733333333336 -0.6519386666666667
1910850394 0.469501 -0.6489546666666667
1912336273 0.4660743333333333 -0.64596
1913822152 0.4655663333333333 -0.6457989999999999
1915308031 0.462587 -0.6428006666666667
1916793910 0.46225333333333335 -0.6399003333333333
1918279789 0.45863499999999996 -0.6369936666666666
1919765668 0.45707366666666666 -0.6352093333333334
1921251547 0.455114 -0.6382486666666667
1922737426 0.45746266666666663 -0.6378986666666666
1924223305 0.4597246666666666 -0.641954
1925709184 0.459824 -0.645136
1927195063 0.4576546666666667 -0.646113
1928680942 0.4598853333333333 -0.648193
1930166821 0.4630476666666667 -0.649096
1931652700 0.45700433333333335 -0.6521013333333333
1933138579 0.4611156666666667 -0.651236
1934624458 0.456548 -0.6549593333333333
1936110337 0.4593946666666667 -0.6533140000000001
1937596216 0.4602223333333333 -0.6523556666666667
1939082095 0.45805433333333334 -0.6523676666666667
1940567974 0.45772133333333337 -0.652095
1942053853 0.45763499999999996 -0.6506946666666668
1943539732 0.45979400000000004 -0.6484103333333334
1945025611 0.45505999999999996 -0.6468826666666666
1946511490 0.44876833333333327 -0.6466233333333333
1947997369 0.4515086666666666 -0.6431913333333333
1949483248 0.44678833333333334 -0.641218
1950969127 0.4502483333333333 -0.6423496666666666
1952455006 0.44769 -0.6444546666666667
1953940885 0.44995399999999997 -0.6461979999999999
1955426764 0.4488130000000001 -0.6501466666666667
1956912643 0.44617900000000005 -0.6533406666666667
1958398522 0.44925733333333334 -0.6507686666666667
1959884401 0.450602 -0.6535173333333334
1961370280 0.4496623333333334 -0.654753
1962856159 0.4491973333333334 -0.6563826666666667
1964342038 0.45044733333333337 -0.6539653333333333
1965827917 0.44886766666666666 -0.653791
1967313796 0.45059566666666667 -0.6536793333333334
1968799675 0.46073366666666665 -0.6579476666666667
1970285554 0.44890266666666667 -0.6512169999999999
1971771433 0.44517333333333337 -0.6513146666666666
1973257312 0.446121 -0.647927
1974743191 0.441636 -0.6504016666666667
1976229070 0.4398396666666667 -0.6460066666666667
1977714949 0.443942 -0.6465986666666667
1979200828 0.43800599999999995 -0.6398306666666667
1980686707 0.43461066666666665 -0.6402723333333333
1982172586 0.434405 -0.643917
1983658465 0.43461833333333333 -0.6474463333333333
1985144344 0.43655366666666673 -0.650466
1986630223 0.43741500000000005 -0.6501936666666667
1988116102 0.4354776666666667 -0.6521493333333334
1989601981 0.427069 -0.658983
1991087860 0.4381536666666666 -0.6539133333333333
1992573739 0.43812466666666666 -0.6538976666666666
1994059618 0.43945133333333336 -0.6529606666666666
1995545497 0.43808800000000003 -0.6540796666666666
1997031376 0.4381983333333333 -0.6552366666666666
1998517255 0.4371693333333333 -0.654977
2000003134 0.4370346666666667 -0.6516963333333333
2001489013 0.43606666666666666 -0.6502786666666666
2002974892 0.4336043333333333 -0.6493696666666667
2004460771 0.43282399999999993 -0.6492779999999999
2005946650 0.4285773333333333 -0.6475093333333334
2007432529 0.43029266666666666 -0.6430319999999999
2008918408 0.4246833333333333 -0.642814
2010404287 0.422107 -0.6393786666666667
2011890166 0.424266 -0.643904
2013376045 0.4264776666666667 -0.6459903333333333
2014861924 0.42714366666666664 -0.649223
2016347803 0.42952666666666667 -0.6513843333333332
2017833682 0.4291426666666666 -0.651996
2019319561 0.4314166666666666 -0.651782
2020805440 0.39679899999999996 -0.6446753333333334
2022291319 0.43001633333333333 -0.655467
2023777198 0.4289673333333333 -0.6574136666666667
2025263077 0.4304333333333334 -0.6565820000000001
2026748956 0.429337 -0.6571186666666666
2028234835 0.43179866666666666 -0.6550786666666667
2029720714 0.42851900000000004 -0.6564070000000001
2031206593 0.449333 -0.654513
2032692472 0.42850366666666667 -0.6529003333333333
2034178351 0.4280903333333333 -0.6503596666666667
2035664230 0.424712 -0.6512859999999999
2037150109 0.423386 -0.647431
2038635988 0.4225933333333333 -0.6452243333333334
2040121867 0.42016800000000004 -0.6446753333333334
2041607746 0.42244333333333334 -0.6436853333333333
2043093625 0.4220616666666666 -0.6476726666666667
2044579504 0.42139533333333334 -0.6506313333333333
2046065383 0.42291266666666666 -0.6516173333333333
2047551262 0.42126633333333335 -0.6528703333333334
2049037141 0.42117200000000005 -0.6541980000000001
2050523020 0.42364 -0.6534766666666667
2052008899 0.42076933333333333 -0.6574443333333333
2053494778 0.42130533333333336 -0.6539466666666667
2054980657 0.42092900000000005 -0.6538043333333333
2056466536 0.4213576666666667 -0.654388
2057952415 0.41814599999999996 -0.6532186666666667
2059438294 0.42032633333333336 -0.6486916666666667
2060924173 0.41931999999999997 -0.6501336666666666
2062410052 0.414512 -0.6507379999999999
2063895931 0.41333333333333333 -0.6472926666666666
2065381810 0.40769266666666665 -0.6500306666666666
2066867689 0.4081976666666667 -0.6453920000000001
2068353568 0.40410499999999994 -0.6419036666666668
2069839447 0.40128733333333333 -0.6410636666666667
2071325326 0.403532 -0.642205
2072811205 0.40318800000000005 -0.6470686666666666
2074297084 0.405173 -0.6499536666666667
2075782963 0.40761566666666665 -0.6489283333333332
2077268842 0.4075343333333334 -0.6536436666666666
2078754721 0.41043 -0.6532079999999999
2080240600 0.4109366666666667 -0.6536136666666666
2081726479 0.40999566666666665 -0.656862
2083212358 0.412915 -0.6558806666666667
2084698237 0.41089833333333337 -0.6581506666666667
2086184116 0.41314366666666674 -0.6569116666666667
2087669995 0.412808 -0.6566709999999999
2089155874 0.41303533333333337 -0.654542
2090641753 0.41089133333333333 -0.6540106666666666
2092127632 0.41282233333333335 -0.6516796666666667
2093613511 0.4098996666666667 -0.65196
2095099390 0.40998599999999996 -0.6503083333333334
2096585269 0.4086723333333333 -0.6463003333333334
2098071148 0.4061943333333333 -0.6423353333333334
2099557027 0.4033583333333333 -0.6434933333333333
2101042906 0.40684899999999996 -0.6415943333333334
2102528785 0.40497133333333335 -0.6467866666666667
2104014664 0.40764566666666663 -0.6503666666666666
2105500543 0.40682766666666664 -0.6513813333333333
2106986422 0.407484 -0.6546416666666667
2108472301 0.4099526666666667 -0.6558086666666667
2109958180 0.4103676666666667 -0.6568366666666667
2111444059 0.41114866666666666 -0.6564653333333333
2112929938 0.410846 -0.6590223333333334
2114415817 0.4132913333333334 -0.657397
2115901696 0.411797 -0.6576326666666666
2117387575 0.40977100000000005 -0.6573766666666666
2118873454 0.4106803333333333 -0.656732
2120359333 0.41118266666666664 -0.655466
2121845212 0.4087343333333333 -0.653762
2123331091 0.40651333333333334 -0.6539556666666666
2124816970 0.40548066666666666 -0.6532460000000001
2126302849 0.40479233333333337 -0.6493853333333334
2127788728 0.40079033333333336 -0.6477116666666666
2129274607 0.4037393333333334 -0.644564
2130760486 0.40186900000000003 -0.6421703333333334
2132246365 0.40032033333333333 -0.6463899999999999
2133732244 0.39942133333333335 -0.6513373333333333
2135218123 0.4013256666666667 -0.6527566666666667
2136704002 0.4020613333333333 -0.654853
2138189881 0.4029036666666667 -0.6547879999999999
2139675760 0.400052 -0.6588643333333333
2141161639 0.40117633333333336 -0.6593573333333334
2142647518 0.40116966666666665 -0.6588073333333333
2144133397 0.4004113333333333 -0.66106
2145619276 0.3990753333333334 -0.660842
2147105155 0.39912300000000006 -0.6594173333333333
2148591034 0.3987576666666666 -0.6588763333333333
2150076913 0.3961403333333333 -0.6590409999999999
2151562792 0.3951753333333334 -0.6575116666666666
2153048671 0.3964786666666667 -0.6550346666666667
2154534550 0.39088366666666663 -0.6533753333333333
2156020429 0.39232266666666665 -0.6521213333333333
2157506308 0.3873853333333333 -0.6511933333333334
2158992187 0.385268 -0.646742
2160478066 0.38410933333333336 -0.6477976666666666
2161963945 0.38453966666666667 -0.6512726666666667
2163449824 0.384848 -0.654582
2164935703 0.38838233333333333 -0.6569326666666666
2166421582 0.38924699999999995 -0.657976
2167907461 0.3903123333333333 -0.6588453333333334
2169393340 0.38937599999999994 -0.6605223333333333
2170879219 0.39132533333333336 -0.660613
2172365098 0.390357 -0.661005
2173850977 0.3913506666666666 -0.6589893333333333
2175336856 0.389767 -0.6612330000000001
2176822735 0.389207 -0.6609950000000001
2178308614 0.39408133333333334 -0.6588143333333333
2179794493 0.3891196666666667 -0.6598480000000001
2181280372 0.38683700000000004 -0.6606059999999999
2182766251 0.3876026666666667 -0.6585206666666666
2184252130 0.3907583333333333 -0.6532586666666668
2185738009 0.3892076666666667 -0.652322
2187223888 0.38679700000000006 -0.649213
2188709767 0.38397433333333336 -0.6473906666666667
2190195646 0.381951 -0.6439136666666667
2191681525 0.38712433333333335 -0.6468873333333334
2193167404 0.38600799999999996 -0.6493296666666667
2194653283 0.38760600000000006 -0.6521576666666666
2196139162 0.3872883333333334 -0.652521
2197625041 0.39106099999999994 -0.6528193333333333
2199110920 0.3907076666666667 -0.6553209999999999
2200596799 0.3869386666666667 -0.6580023333333332
2202082678 0.389983 -0.6556003333333333
2203568557 0.39164099999999996 -0.6567903333333334
2205054436 0.38776866666666665 -0.6584693333333334
2206540315 0.38874733333333333 -0.660498
2208026194 0.37727333333333335 -0.642446
2209512073 0.3920646666666667 -0.6532113333333334
2210997952 0.39341766666666667 -0.6524046666666666
2212483831 0.388569 -0.6485023333333334
2213969710 0.38831299999999996 -0.6475256666666667
2215455589 0.39041733333333334 -0.6442253333333333
2216941468 0.387176 -0.6437006666666667
2218427347 0.38588200000000006 -0.638547
2219913226 0.38035033333333335 -0.6380293333333333
2221399105 0.3798546666666667 -0.6402983333333333
2222884984 0.3838106666666667 -0.64088
2224370863 0.3846906666666667 -0.6480483333333334
2225856742 0.38521299999999997 -0.647324
2227342621 0.380647 -0.6496846666666666
2228828500 0.3825443333333333 -0.6520936666666667
2230314379 0.3829533333333333 -0.6531226666666666
2231800258 0.38622566666666663 -0.6555243333333333
2233286137 0.3806453333333333 -0.6512189999999999
2234772016 0.383827 -0.6547043333333332
2236257895 0.3846773333333333 -0.654427
2237743774 0.38479899999999995 -0.6543336666666667
2239229653 0.384688 -0.653855
2240715532 0.3880046666666666 -0.6500013333333333
2242201411 0.379547 -0.6531999999999999
2243687290 0.3819506666666667 -0.6511663333333333
2245173169 0.379197 -0.6492343333333334
2246659048 0.37976800000000005 -0.645822
2248144927 0.3766883333333333 -0.644231
2249630806 0.3772683333333333 -0.643253
2251116685 0.378847 -0.6415913333333334
2252602564 0.37836866666666663 -0.645884
2254088443 0.37776066666666663 -0.647919
2255574322 0.3721426666666667 -0.6501239999999999
2257060201 0.37659133333333333 -0.6475906666666665
2258546080 0.37663866666666673 -0.6492463333333333
2260031959 0.37875533333333333 -0.6506316666666666
2261517838 0.37704733333333335 -0.6497643333333333
2263003717 0.3755113333333333 -0.6509386666666667
2264489596 0.37620733333333334 -0.6524493333333333
2265975475 0.3736906666666666 -0.6526693333333333
2267461354 0.376022 -0.6495669999999999
2268947233 0.37469233333333335 -0.6571343333333334
2270433112 0.36801733333333336 -0.6503003333333334
2271918991 0.37178300000000003 -0.6487656666666667
2273404870 0.3708913333333334 -0.647104
2274890749 0.36601 -0.6460946666666666
2276376628 0.3687303333333334 -0.642525
2277862507 0.36482233333333336 -0.6433156666666667
2279348386 0.36005833333333337 -0.639205
2280834265 0.3600666666666667 -0.641098
2282320144 0.35967566666666667 -0.6435273333333333
2283806023 0.36543333333333333 -0.644158
2285291902 0.36345200000000005 -0.6457763333333334
2286777781 0.36328333333333335 -0.6462696666666666
2288263660 0.3653026666666667 -0.646341
2289749539 0.36666933333333335 -0.6478763333333334
2291235418 0.3728923333333333 -0.6447249999999999
2292721297 0.36534400000000006 -0.6473183333333333
2294207176 0.3638323333333333 -0.647612
2295693055 0.36959933333333334 -0.6462773333333334
2297178934 0.36844066666666664 -0.6480273333333333
2298664813 0.368142 -0.6463016666666667
2300150692 0.36311166666666667 -0.6463776666666666
2301636571 0.3675743333333333 -0.643661
2303122450 0.36423033333333327 -0.6429493333333333
2304608329 0.363434 -0.6438046666666667
2306094208 0.363564 -0.639709
2307580087 0.35879466666666665 -0.6396706666666667
2309065966 0.3545576666666667 -0.6398696666666667
2310551845 0.35846433333333333 -0.6367736666666667
2312037724 0.36054766666666666 -0.6375793333333334
2313523603 0.3622366666666667 -0.6408606666666666
2315009482 0.364546 -0.64389
2316495361 0.36069466666666666 -0.6448796666666666
2317981240 0.36837600000000004 -0.6441223333333334
2319467119 0.36519166666666664 -0.648229
2320952998 0.36394566666666667 -0.6508723333333333
2322438877 0.36562900000000004 -0.653718
2323924756 0.36782633333333337 -0.6490146666666666
2325410635 0.3665063333333333 -0.6525993333333334
2326896514 0.3668926666666667 -0.649995
2328382393 0.37013066666666666 -0.6527759999999999
2329868272 0.3662206666666667 -0.6482706666666667
2331354151 0.3641933333333333 -0.6508950000000001
2332840030 0.364403 -0.6497566666666666
2334325909 0.36570133333333327 -0.646512
2335811788 0.3629183333333334 -0.646436
2337297667 0.365038 -0.6433450000000001
2338783546 0.36349133333333333 -0.6429956666666666
2340269425 0.35769333333333336 -0.6417630000000001
2341755304 0.3596023333333333 -0.6424886666666667
2343241183 0.3642196666666666 -0.6461290000000001
2344727062 0.361837 -0.6484843333333333
2346212941 0.35705133333333333 -0.651826
2347698820 0.36218533333333336 -0.6511323333333334
2349184699 0.3620113333333333 -0.6540863333333334
2350670578 0.36400066666666664 -0.6517623333333333
2352156457 0.3619763333333333 -0.6536263333333333
2353642336 0.36214166666666664 -0.6548693333333334
2355128215 0.35991166666666663 -0.656539
2356614094 0.36372566666666667 -0.6519929999999999
2358099973 0.36216033333333336 -0.652859
2359585852 0.3544523333333333 -0.6552636666666667
2361071731 0.35464866666666667 -0.6552426666666666
2362557610 0.35007866666666665 -0.6518553333333333
2364043489 0.34391499999999997 -0.6521863333333333
2365529368 0.34719733333333336 -0.6523523333333333
2367015247 0.3442093333333333 -0.6478426666666667
2368501126 0.3419366666666666 -0.6479846666666668
2369987005 0.3396423333333333 -0.6476653333333333
2371472884 0.34147533333333335 -0.6467713333333333
2372958763 0.3449123333333333 -0.6508063333333333
2374444642 0.34301133333333333 -0.6532979999999999
2375930521 0.34469466666666665 -0.6514866666666667
2377416400 0.3419046666666667 -0.6521353333333333
2378902279 0.34748466666666666 -0.6562769999999999
2380388158 0.3522876666666666 -0.655892
2381874037 0.3525396666666667 -0.6548153333333334
2383359916 0.346644 -0.6576609999999999
2384845795 0.349006 -0.6584656666666667
2386331674 0.3503956666666667 -0.6572276666666667
2387817553 0.3473203333333333 -0.6551163333333333
2389303432 0.3479196666666667 -0.6524800000000001
2390789311 0.34604433333333334 -0.6528876666666666
2392275190 0.3515006666666667 -0.6475753333333333
2393761069 0.3470336666666667 -0.648634
2395246948 0.34501166666666666 -0.6476289999999999
2396732827 0.3436866666666667 -0.641831
2398218706 0.341348 -0.6408026666666667
2399704585 0.33825866666666665 -0.6402473333333333
2401190464 0.33920666666666666 -0.6397223333333333
2402676343 0.34462733333333334 -0.6435933333333334
2404162222 0.34057000000000004 -0.6481243333333333
2405648101 0.3437046666666667 -0.6461156666666668
2407133980 0.33902600000000005 -0.6514829999999999
2408619859 0.34186033333333327 -0.6506543333333333
2410105738 0.344995 -0.6513079999999999
2411591617 0.34515633333333334 -0.652217
2413077496 0.33827266666666667 -0.6577766666666667
2414563375 0.3470973333333333 -0.6536936666666667
2416049254 0.3431756666666667 -0.6527120000000001
2417535133 0.340899 -0.6564803333333334
2419021012 0.3389976666666667 -0.6523693333333332
2420506891 0.34003866666666666 -0.6559006666666667
2421992770 0.338968 -0.653397
2423478649 0.3338746666666667 -0.6557083333333332
2424964528 0.3326816666666667 -0.6541009999999999
2426450407 0.3451566666666667 -0.644928
2427936286 0.337456 -0.6434333333333333
2429422165 0.32721700000000004 -0.652243
2430908044 0.32673833333333335 -0.6511446666666667
2432393923 0.3318466666666666 -0.6508053333333333
2433879802 0.33094433333333334 -0.654002
2435365681 0.3308356666666667 -0.656463
2436851560 0.33042599999999994 -0.6583709999999999
2438337439 0.333116 -0.653973
2439823318 0.33052 -0.6588790000000001
2441309197 0.3296523333333333 -0.6606193333333333
2442795076 0.33492266666666665 -0.6570456666666668
2444280955 0.33541166666666666 -0.656247
2445766834 0.33653200000000005 -0.6560156666666667
2447252713 0.331164 -0.6558186666666668
2448738592 0.3339356666666667 -0.6522966666666666
2450224471 0.331907 -0.652446
2451710350 0.32956633333333335 -0.6525806666666667
2453196229 0.3319906666666667 -0.6474183333333334
2454682108 0.328027 -0.6472906666666667
2456167987 0.3288986666666667 -0.6429306666666667
2457653866 0.32329500000000005 -0.6419193333333334
2459139745 0.32069466666666663 -0.6386346666666668
2460625624 0.3221036666666667 -0.639663
2462111503 0.3233223333333333 -0.6423663333333334
2463597382 0.323528 -0.6457203333333333
2465083261 0.3229343333333333 -0.6467776666666666
2466569140 0.32324733333333333 -0.6457013333333333
2468055019 0.325399 -0.6499056666666666
2469540898 0.32365099999999997 -0.650544
2471026777 0.3506723333333333 -0.6673033333333334
2472512656 0.324721 -0.649854
2473998535 0.32443466666666665 -0.6499823333333334
2475484414 0.32420000000000004 -0.6515723333333333
2476970293 0.325259 -0.6505196666666667
2478456172 0.31866500000000003 -0.6560469999999999
2479942051 0.32304 -0.6527193333333333
2481427930 0.3243276666666666 -0.6504833333333334
2482913809 0.32523833333333335 -0.6470126666666667
2484399688 0.3203793333333333 -0.6479003333333334
2485885567 0.320395 -0.6420273333333334
2487371446 0.31585066666666667 -0.6406873333333333
2488857325 0.3138043333333333 -0.6387263333333334
2490343204 0.317371 -0.6368520000000001
2491829083 0.3175953333333333 -0.643144
2493314962 0.3190486666666667 -0.6422913333333334
2494800841 0.316884 -0.6468443333333334
2496286720 0.32035600000000003 -0.6461020000000001
2497772599 0.3233116666666666 -0.6500723333333333
2499258478 0.3218546666666666 -0.6537963333333333
2500744357 0.32227433333333333 -0.651875
2502230236 0.32409200000000005 -0.6514173333333333
2503716115 0.3223296666666667 -0.654194
2505201994 0.324732 -0.6523093333333333
2506687873 0.327168 -0.6526303333333333
2508173752 0.32627 -0.6538073333333333
2509659631 0.32806399999999997 -0.6490946666666667
2511145510 0.3293203333333334 -0.6462026666666666
2512631389 0.3274283333333334 -0.6466956666666667
2514117268 0.32474933333333333 -0.644835
2515603147 0.3266596666666666 -0.6442653333333334
2517089026 0.321668 -0.643379
2518574905 0.32386299999999996 -0.6389926666666667
2520060784 0.3221636666666667 -0.6362903333333333
2521546663 0.32616233333333333 -0.637852
2523032542 0.322617 -0.6390276666666667
2524518421 0.3242853333333333 -0.6426763333333333
2526004300 0.3244626666666666 -0.6442836666666667
2527490179 0.32209933333333335 -0.6446016666666666
2528976058 0.31936166666666665 -0.6478576666666668
2530461937 0.32548 -0.6487233333333333
2531947816 0.3228436666666667 -0.6519553333333333
2533433695 0.324413 -0.6536836666666667
2534919574 0.32472033333333333 -0.6507893333333333
2536405453 0.3221013333333333 -0.6509173333333335
2537891332 0.32213299999999995 -0.6494886666666667
2539377211 0.3219903333333333 -0.649266
2540863090 0.32119233333333336 -0.6477403333333334
2542348969 0.3172546666666667 -0.6506679999999999
2543834848 0.31745333333333337 -0.6463703333333334
2545320727 0.3150173333333333 -0.6456919999999999
2546806606 0.31474266666666667 -0.6419143333333333
2548292485 0.31191366666666664 -0.6413783333333334
2549778364 0.31069599999999997 -0.639263
2551264243 0.3120673333333333 -0.6409746666666667
2552750122 0.30897166666666664 -0.644787
2554236001 0.31136 -0.647436
2555721880 0.3136003333333333 -0.6474093333333334
2557207759 0.31226666666666664 -0.6512623333333334
2558693638 0.313162 -0.6502876666666667
2560179517 0.31277133333333335 -0.6543963333333332
2561665396 0.31294099999999997 -0.655498
2563151275 0.3128666666666667 -0.6563463333333334
2564637154 0.311161 -0.6565453333333333
2566123033 0.31311266666666665 -0.656155
2567608912 0.3082296666666667 -0.6577126666666667
2569094791 0.30996033333333334 -0.6571349999999999
2570580670 0.30966699999999997 -0.6552813333333334
2572066549 0.3106163333333333 -0.6558856666666667
2573552428 0.3083496666666667 -0.655514
2575038307 0.301054 -0.64525
2576524186 0.3056136666666667 -0.6523500000000001
2578010065 0.298796 -0.6535070000000001
2579495944 0.30328099999999997 -0.6510966666666667
2580981823 0.305094 -0.6491030000000001
2582467702 0.30245266666666665 -0.6494283333333333
2583953581 0.305206 -0.650187
2585439460 0.302176 -0.6479286666666667
2586925339 0.30522266666666664 -0.6525650000000001
2588411218 0.30604766666666666 -0.6493760000000001
2589897097 0.30484833333333333 -0.6525470000000001
2591382976 0.304293 -0.6483553333333333
2592868855 0.3101146666666667 -0.6504006666666666
2594354734 0.30517333333333335 -0.6486413333333333
2595840613 0.30325966666666665 -0.6457646666666667
2597326492 0.3068356666666667 -0.6441110000000001
2598812371 0.3008496666666667 -0.6420003333333333
2600298250 0.30174000000000006 -0.6385299999999999
2601784129 0.308231 -0.6386683333333333
2603270008 0.29915200000000003 -0.635628
2604755887 0.3081543333333333 -0.6350026666666667
2606241766 0.3016923333333333 -0.6310700000000001
2607727645 0.3012076666666667 -0.6318303333333333
2609213524 0.2973523333333334 -0.6269196666666667
2610699403 0.295351 -0.6238596666666667
2612185282 0.29598399999999997 -0.6283153333333332
2613671161 0.2988326666666667 -0.629104
2615157040 0.29652300000000004 -0.6318636666666667
2616642919 0.29660966666666666 -0.6339106666666666
2618128798 0.29939 -0.6360779999999999
2619614677 0.29958666666666667 -0.6358013333333333
2621100556 0.3034593333333333 -0.6365196666666667
2622586435 0.29998800000000003 -0.6368146666666666
2624072314 0.29724 -0.6368716666666666
2625558193 0.297618 -0.6337793333333334
2627044072 0.29594633333333337 -0.6383876666666667
2628529951 0.299367 -0.6411643333333333
2630015830 0.2988456666666666 -0.636571
2631501709 0.29794766666666667 -0.6323500000000001
2632987588 0.295259 -0.631217
2634473467 0.31509333333333334 -0.6542526666666667
2635959346 0.29162133333333334 -0.6287163333333333
2637445225 0.2923213333333334 -0.6280450000000001
2638931104 0.28534966666666667 -0.6247539999999999
2640416983 0.2915546666666667 -0.626129
2641902862 0.28887666666666667 -0.6327053333333333
2643388741 0.2878096666666667 -0.6309916666666667
2644874620 0.2958053333333333 -0.634754
2646360499 0.2892766666666667 -0.6366106666666667
2647846378 0.290008 -0.6394656666666666
2649332257 0.2903506666666667 -0.6427900000000001
2650818136 0.28988533333333333 -0.63937
2652304015 0.2963193333333333 -0.6416636666666667
2653789894 0.2936606666666666 -0.6411343333333334
2655275773 0.2921323333333334 -0.6413076666666667
2656761652 0.293234 -0.6450986666666666
2658247531 0.2911053333333333 -0.6433946666666667
2659733410 0.2935986666666666 -0.6456513333333334
2661219289 0.2886166666666667 -0.643531
2662705168 0.290372 -0.6436126666666666
2664191047 0.29046066666666664 -0.6441140000000001
2665676926 0.291833 -0.643371
2667162805 0.28705 -0.6438623333333333
2668648684 0.289687 -0.6428576666666667
2670134563 0.2782763333333333 -0.6375356666666666
2671620442 0.28895000000000004 -0.6423403333333334
2673106321 0.2865296666666666 -0.640228
2674592200 0.292022 -0.6414386666666667
2676078079 0.29338333333333333 -0.6416573333333333
2677563958 0.2934886666666667 -0.6448566666666667
2679049837 0.283302 -0.6467163333333333
2680535716 0.28973266666666664 -0.6437386666666667
2682021595 0.292034 -0.6485310000000001
2683507474 0.29398833333333335 -0.646571
2684993353 0.290435 -0.6418606666666667
2686479232 0.292804 -0.6446603333333333
2687965111 0.2917653333333333 -0.641041
2689450990 0.292386 -0.643437
2690936869 0.295664 -0.6403246666666667
2692422748 0.2992676666666667 -0.63894
2693908627 0.291575 -0.6377113333333333
2695394506 0.2956816666666667 -0.6339473333333334
2696880385 0.28891533333333336 -0.631834
2698366264 0.292443 -0.6296836666666668
2699852143 0.29037433333333335 -0.6258319999999999
2701338022 0.285084 -0.6278176666666667
2702823901 0.28729 -0.629234
2704309780 0.291355 -0.6312526666666667
2705795659 0.29538366666666666 -0.633593
2707281538 0.29618000000000005 -0.633502
2708767417 0.29663 -0.6373800000000001
2710253296 0.2931336666666667 -0.6350103333333333
2711739175 0.29586233333333334 -0.6360083333333333
2713225054 0.2981593333333334 -0.635939
2714710933 0.30023666666666665 -0.633207
2716196812 0.30935066666666666 -0.6343233333333332
2717682691 0.29914666666666667 -0.6334786666666666
2719168570 0.291476 -0.632713
2720654449 0.283823 -0.630524
2722140328 0.3014236666666667 -0.6280463333333333
2723626207 0.290531 -0.628037
2725112086 0.29693299999999995 -0.625289
2726597965 0.29439 -0.6229336666666666
2728083844 0.289244 -0.618121
2729569723 0.2902403333333333 -0.6164189999999999
2731055602 0.28603966666666664 -0.6196086666666666
2732541481 0.287089 -0.6228546666666667
2734027360 0.29141100000000003 -0.6246906666666666
2735513239 0.3038693333333333 -0.6234923333333334
2736999118 0.286067 -0.633375
2738484997 0.287926 -0.6359546666666667
2739970876 0.2855176666666666 -0.6367696666666666
2741456755 0.287857 -0.6380976666666667
2742942634 0.28753233333333333 -0.6386736666666667
2744428513 0.28282233333333334 -0.6421199999999999
2745914392 0.28672433333333336 -0.6433416666666667
2747400271 0.275206 -0.6483843333333333
2748886150 0.2817426666666667 -0.6467803333333334
2750372029 0.2823116666666667 -0.6453993333333333
2751857908 0.2766516666666667 -0.6483766666666666
2753343787 0.2818423333333333 -0.6449283333333333
2754829666 0.2763896666666667 -0.6475940000000001
2756315545 0.27675066666666664 -0.6462736666666667
2757801424 0.27057400000000004 -0.6488253333333334
2759287303 0.27125166666666667 -0.6438733333333334
2760773182 0.27565766666666663 -0.6432946666666667
2762259061 0.2701483333333333 -0.6492519999999999
2763744940 0.27706200000000003 -0.648583
2765230819 0.27868 -0.650302
2766716698 0.27745099999999995 -0.6499373333333333
2768202577 0.28005433333333335 -0.6506443333333333
2769688456 0.2775166666666667 -0.657104
2771174335 0.2794643333333333 -0.657027
2772660214 0.27736 -0.6592116666666666
2774146093 0.28125833333333333 -0.6569286666666666
2775631972 0.28277166666666664 -0.6540713333333333
2777117851 0.279539 -0.654247
2778603730 0.284858 -0.651052
2780089609 0.28789133333333333 -0.65143
2781575488 0.2870256666666667 -0.648542
2783061367 0.2816543333333333 -0.6507593333333334
2784547246 0.2846013333333333 -0.6459556666666667
2786033125 0.28196466666666664 -0.6449746666666667
2787519004 0.276424 -0.6420943333333333
2789004883 0.2710156666666667 -0.6429836666666666
2790490762 0.28144433333333335 -0.6358943333333333
2791976641 0.27587066666666665 -0.6393253333333333
2793462520 0.2783043333333333 -0.6434100000000001
2794948399 0.2821533333333333 -0.6390063333333333
2796434278 0.2758906666666667 -0.6436649999999999
2797920157 0.2772396666666666 -0.6469033333333334
2799406036 0.278774 -0.646008
2800891915 0.2782823333333333 -0.6487393333333333
2802377794 0.2771073333333333 -0.6510376666666666
2803863673 0.276273 -0.6503519999999999
2805349552 0.276127 -0.6509463333333333
2806835431 0.27996533333333334 -0.6483296666666667
2808321310 0.28150366666666665 -0.651245
2809807189 0.27168533333333333 -0.6494633333333333
2811293068 0.2765336666666667 -0.64953
2812778947 0.2776996666666666 -0.6430256666666666
2814264826 0.27424999999999994 -0.6456433333333333
2815750705 0.268669 -0.6442366666666667
2817236584 0.26783799999999996 -0.6486343333333333
2818722463 0.273028 -0.639306
2820208342 0.2688316666666667 -0.635513
2821694221 0.278521 -0.6409229999999999
2823180100 0.27172166666666664 -0.6461903333333333
2824665979 0.27569133333333334 -0.6475223333333334
2826151858 0.26608666666666664 -0.6467196666666667
2827637737 0.2637983333333333 -0.6466933333333333
2829123616 0.26233766666666664 -0.6511006666666667
2830609495 0.27067766666666665 -0.6498966666666667
2832095374 0.27626599999999996 -0.6537523333333333
2833581253 0.274507 -0.6474263333333333
2835067132 0.2718956666666667 -0.6458940000000001
2836553011 0.2716233333333333 -0.6476366666666666
2838038890 0.2695963333333333 -0.6464533333333334
2839524769 0.26956433333333335 -0.6463583333333333
2841010648 0.2706016666666667 -0.641121
2842496527 0.265955 -0.6328866666666667
2843982406 0.26630266666666663 -0.6309336666666666
2845468285 0.270609 -0.635017
2846954164 0.26109566666666667 -0.6312239999999999
2848440043 0.25652966666666666 -0.6303300000000001
2849925922 0.25734433333333334 -0.617699
2851411801 0.2600826666666667 -0.6226039999999999
2852897680 0.263419 -0.622232
2854383559 0.26289566666666664 -0.6272099999999999
2855869438 0.2610153333333334 -0.632305
2857355317 0.2649056666666667 -0.6275063333333333
2858841196 0.268441 -0.6309049999999999
2860327075 0.27008499999999996 -0.6364406666666668
2861812954 0.267697 -0.6321726666666666
2863298833 0.2681006666666667 -0.6328403333333333
2864784712 0.2696053333333333 -0.6330366666666667
2866270591 0.2656536666666667 -0.6343776666666666
2867756470 0.24337700000000004 -0.6265593333333334
2869242349 0.269017 -0.6319936666666667
2870728228 0.27481566666666674 -0.629832
2872214107 0.26841766666666667 -0.6309943333333333
2873699986 0.27072466666666667 -0.6250783333333333
2875185865 0.262371 -0.6218546666666667
2876671744 0.266727 -0.6219906666666667
2878157623 0.2673743333333333 -0.618684
2879643502 0.2633503333333333 -0.6151496666666667
2881129381 0.26485899999999996 -0.6214566666666667
2882615260 0.26198666666666665 -0.6233456666666667
2884101139 0.2667486666666667 -0.6258130000000001
2885587018 0.2652126666666667 -0.6227296666666667
2887072897 0.26288666666666666 -0.6262526666666667
2888558776 0.267895 -0.6271696666666666
2890044655 0.26769 -0.6292719999999999
2891530534 0.27006833333333335 -0.6305856666666667
2893016413 0.26983 -0.630014
2894502292 0.2667346666666667 -0.6328326666666667
2895988171 0.268801 -0.6306296666666666
2897474050 0.26398666666666665 -0.6315446666666666
2898959929 0.264966 -0.6297213333333334
2900445808 0.2648546666666666 -0.6287136666666667
2901931687 0.2640906666666667 -0.6271783333333333
2903417566 0.26588733333333336 -0.627492
2904903445 0.26416133333333336 -0.6254856666666666
2906389324 0.26130366666666666 -0.626317
2907875203 0.26253366666666667 -0.624098
2909361082 0.2625123333333333 -0.621485
2910846961 0.26226900000000003 -0.6213126666666667
2912332840 0.2607196666666667 -0.6248276666666667
2913818719 0.25927933333333336 -0.6269680000000001
2915304598 0.26046 -0.6279563333333333
2916790477 0.25960099999999997 -0.6300876666666667
2918276356 0.26074966666666666 -0.631066
2919762235 0.2599306666666667 -0.6329053333333333
2921248114 0.24856833333333336 -0.633816
2922733993 0.2563683333333333 -0.6330473333333333
2924219872 0.2550856666666667 -0.6338596666666666
2925705751 0.2541386666666667 -0.6353286666666667
2927191630 0.2557553333333334 -0.6328813333333333
2928677509 0.25342533333333334 -0.6342046666666666
2930163388 0.254086 -0.631993
2931649267 0.25020366666666666 -0.632254
2933135146 0.24798066666666665 -0.633518
2934621025 0.2516593333333333 -0.6293976666666666
2936106904 0.24582400000000001 -0.6301746666666667
2937592783 0.24581566666666665 -0.6277646666666666
2939078662 0.24118399999999998 -0.6266156666666666
2940564541 0.241393 -0.6273240000000001
2942050420 0.24289533333333332 -0.6279073333333334
2943536299 0.24691900000000003 -0.6285519999999999
2945022178 0.24745466666666668 -0.6314283333333334
2946508057 0.24431133333333332 -0.633572
2947993936 0.24536133333333332 -0.6343196666666667
2949479815 0.24617133333333333 -0.6337963333333333
2950965694 0.24659833333333334 -0.6365036666666667
2952451573 0.247302 -0.6356310000000001
2953937452 0.24790633333333334 -0.6337363333333333
2955423331 0.24836199999999997 -0.6361953333333333
2956909210 0.24950033333333332 -0.634377
2958395089 0.247862 -0.6332646666666667
2959880968 0.24737333333333333 -0.6320266666666666
2961366847 0.24690366666666666 -0.6316160000000001
2962852726 0.24986233333333333 -0.628023
2964338605 0.24860766666666664 -0.6265493333333333
2965824484 0.24865533333333334 -0.6249009999999999
2967310363 0.24709566666666669 -0.6223256666666667
2968796242 0.24505533333333332 -0.6182246666666666
2970282121 0.24339566666666665 -0.6188006666666667
2971768000 0.24279833333333334 -0.618602
2973253879 0.24457700000000002 -0.6209216666666667
2974739758 0.24939199999999997 -0.620896
2976225637 0.247807 -0.6244823333333334
2977711516 0.24763833333333332 -0.6242546666666667
2979197395 0.246884 -0.625717
2980683274 0.24705333333333335 -0.6250343333333332
2982169153 0.24554166666666669 -0.6262123333333333
2983655032 0.24715733333333334 -0.6239173333333333
2985140911 0.24841833333333332 -0.6262453333333333
2986626790 0.24859 -0.6236923333333334
2988112669 0.24965733333333331 -0.6244643333333334
2989598548 0.24751833333333337 -0.6213253333333334
2991084427 0.249039 -0.6200476666666667
2992570306 0.24773433333333336 -0.616682
2994056185 0.24443066666666668 -0.6140723333333333
2995542064 0.246428 -0.61349
2997027943 0.244854 -0.611989
2998513822 0.24334966666666666 -0.6094126666666667
2999999701 0.24401033333333336 -0.6051803333333333
