# HZ S RI R 50
10000 1.728508 -0.65182
1495879 -0.390253 0.74833
2981758 -0.243901 0.71683
4467637 -0.077171 0.469227
5953516 -0.01006 0.345184
7439395 0.017029 0.269539
8925274 0.47462 -0.163253
10411153 0.345729 -0.142297
11897032 0.263397 -0.127817
13382911 0.209549 -0.116488
14868790 0.170362 -0.107354
16354669 0.16304 -0.085226
17840548 0.118758 -0.093676
19326427 0.101189 -0.088083
20812306 0.086784 -0.083344
22298185 0.074869 -0.078968
23784064 0.064897 -0.075415
25269943 0.056622 -0.072043
26755822 0.049734 -0.069173
28241701 0.043694 -0.06654
29727580 0.03822 -0.064014
31213459 0.037049 -0.066485
32699338 0.036686 -0.070579
34185217 0.036432 -0.074603
35671096 0.035289 -0.079829
37156975 0.033141 -0.085744
38642854 0.030864 -0.092058
40128733 0.02569 -0.099911
41614612 0.022913 -0.107757
43100491 0.013945 -0.118296
44586370 0.003187 -0.131847
46072249 -0.016742 -0.149195
47558128 -0.043615 -0.175665
49044007 -0.088793 -0.219148
50529886 -0.167293 -0.316232
52015765 -0.358743 -0.58839
53501644 0.120074 -1.707043
54987523 1.232975 -0.533325
56473402 0.887942 -0.190456
57959281 0.763866 -0.130274
59445160 0.753024 -0.082348
60931039 0.771241 -0.057394
62416918 0.77344 -0.064625
63902797 0.776456 -0.072172
65388676 0.776734 -0.080058
66874555 0.779922 -0.078056
68360434 0.771474 -0.141906
69846313 0.78524 -0.060947
71332192 0.786662 -0.057785
72818071 0.782411 -0.093823
74303950 0.786871 -0.085646
75789829 0.788921 -0.034172
77275708 0.788879 -0.043104
78761587 0.788106 -0.038912
80247466 0.776118 -0.128095
81733345 0.781254 -0.090452
83219224 0.777449 -0.09877
84705103 0.772436 -0.120155
86190982 0.780351 -0.025827
87676861 0.767144 -0.115431
89162740 0.768752 -0.095076
90648619 0.764279 -0.111526
92134498 0.767526 -0.111215
93620377 0.773627 -0.086266
95106256 0.773129 -0.107999
96592135 0.775452 -0.108777
98078014 0.777258 -0.104912
99563893 0.781259 -0.104132
101049772 0.780689 -0.11426
102535651 0.780066 -0.116859
104021530 0.778879 -0.116717
105507409 0.780312 -0.118809
106993288 0.779758 -0.119636
108479167 0.780119 -0.120333
109965046 0.77638 -0.121414
111450925 0.777119 -0.123857
112936804 0.774567 -0.123688
114422683 0.770811 -0.125164
115908562 0.770622 -0.126038
117394441 0.766392 -0.1257
118880320 0.762292 -0.128184
120366199 0.76135 -0.130688
121852078 0.764188 -0.132692
123337957 0.767716 -0.134911
124823836 0.770223 -0.138969
126309715 0.773537 -0.137502
127795594 0.7772 -0.140983
129281473 0.778533 -0.142374
130767352 0.780107 -0.143753
132253231 0.781715 -0.144003
133739110 0.782828 -0.144029
135224989 0.769799 -0.152847
136710868 0.770048 -0.154434
138196747 0.769288 -0.155362
139682626 0.769021 -0.15607
141168505 0.76841 -0.15635
142654384 0.767322 -0.157642
144140263 0.765163 -0.157644
145626142 0.762757 -0.158684
147112021 0.76066 -0.159345
148597900 0.757967 -0.159783
150083779 0.754398 -0.161694
151569658 0.756981 -0.163563
153055537 0.75848 -0.166256
154541416 0.761922 -0.167314
156027295 0.764194 -0.16935
157513174 0.763881 -0.170289
158999053 0.767464 -0.172464
160484932 0.766721 -0.17516
161970811 0.767853 -0.176697
163456690 0.767843 -0.176896
164942569 0.768901 -0.178696
166428448 0.768604 -0.177969
167914327 0.766794 -0.180863
169400206 0.765955 -0.181665
170886085 0.775273 -0.1565
172371964 0.762353 -0.184487
173857843 0.759531 -0.185575
175343722 0.757376 -0.186506
176829601 0.753101 -0.187529
178315480 0.749562 -0.188045
179801359 0.745196 -0.191044
181287238 0.747574 -0.193277
182773117 0.751898 -0.194693
184258996 0.752772 -0.197571
185744875 0.75551 -0.198662
187230754 0.756606 -0.199928
188716633 0.758056 -0.203304
190202512 0.759582 -0.204474
191688391 0.759974 -0.205905
193174270 0.761693 -0.207639
194660149 0.760341 -0.209575
196146028 0.76013 -0.210116
197631907 0.75998 -0.210136
199117786 0.757224 -0.212069
200603665 0.755607 -0.213853
202089544 0.753606 -0.21398
203575423 0.751286 -0.216068
205061302 0.747779 -0.217118
206547181 0.744271 -0.216926
208033060 0.741927 -0.218249
209518939 0.737181 -0.220988
211004818 0.738127 -0.221174
212490697 0.741942 -0.225501
213976576 0.7448 -0.226644
215462455 0.746836 -0.22901
216948334 0.749262 -0.230996
218434213 0.751091 -0.232974
219920092 0.751552 -0.23501
221405971 0.752262 -0.23674
222891850 0.752837 -0.238338
224377729 0.75272 -0.238867
225863608 0.75177 -0.238942
227349487 0.75206 -0.241991
228835366 0.749285 -0.243137
230321245 0.747992 -0.243555
231807124 0.745015 -0.245907
233293003 0.74234 -0.24633
234778882 0.739584 -0.245509
236264761 0.736663 -0.247478
237750640 0.7332 -0.249204
239236519 0.72856 -0.249415
240722398 0.726874 -0.251486
242208277 0.730214 -0.254883
243694156 0.733737 -0.257921
245180035 0.736063 -0.259454
246665914 0.737935 -0.260937
248151793 0.740402 -0.263837
249637672 0.741098 -0.266501
251123551 0.741901 -0.268327
252609430 0.742227 -0.269996
254095309 0.742877 -0.27002
255581188 0.742391 -0.272439
257067067 0.741068 -0.272846
258552946 0.73985 -0.274412
260038825 0.738859 -0.273786
261524704 0.735514 -0.275654
263010583 0.732985 -0.27715
264496462 0.729451 -0.278137
265982341 0.726783 -0.276907
267468220 0.722264 -0.278689
268954099 0.717666 -0.279728
270439978 0.715859 -0.280545
271925857 0.717977 -0.2842
273411736 0.721979 -0.287557
274897615 0.722768 -0.289853
276383494 0.726206 -0.292345
277869373 0.727361 -0.29343
279355252 0.729033 -0.296666
280841131 0.729897 -0.297934
282327010 0.730527 -0.29866
283812889 0.729912 -0.298904
285298768 0.729917 -0.302061
286784647 0.728473 -0.302017
288270526 0.727913 -0.30328
289756405 0.727611 -0.303997
291242284 0.722938 -0.304159
292728163 0.720064 -0.3049
294214042 0.717265 -0.30583
295699921 0.714127 -0.305813
297185800 0.709753 -0.306324
298671679 0.70566 -0.305901
300157558 0.701779 -0.306861
301643437 0.703564 -0.310407
303129316 0.705846 -0.311708
304615195 0.709289 -0.316377
306101074 0.710477 -0.318289
307586953 0.711622 -0.320915
309072832 0.713442 -0.323285
310558711 0.714563 -0.324903
312044590 0.715359 -0.32711
313530469 0.715698 -0.325566
315016348 0.712538 -0.328748
316502227 0.714356 -0.329356
317988106 0.713307 -0.330016
319473985 0.623349 -0.342875
320959864 0.709935 -0.329969
322445743 0.707017 -0.332217
323931622 0.705714 -0.33153
325417501 0.700764 -0.329943
326903380 0.697996 -0.329947
328389259 0.693845 -0.331882
329875138 0.688283 -0.330183
331361017 0.690332 -0.332919
332846896 0.693014 -0.337691
334332775 0.695438 -0.340826
335818654 0.696774 -0.342063
337304533 0.697242 -0.345812
338790412 0.699943 -0.34942
340276291 0.69986 -0.351551
341762170 0.699976 -0.35217
343248049 0.702301 -0.354285
344733928 0.700446 -0.355936
346219807 0.699749 -0.357031
347705686 0.69919 -0.358453
349191565 0.697468 -0.357593
350677444 0.695665 -0.35901
352163323 0.69385 -0.358513
353649202 0.692031 -0.359018
355135081 0.690237 -0.358281
356620960 0.684903 -0.360039
358106839 0.680621 -0.358634
359592718 0.677202 -0.357
361078597 0.678088 -0.361607
362564476 0.678704 -0.36516
364050355 0.68161 -0.367541
365536234 0.68357 -0.370862
367022113 0.683645 -0.3739
368507992 0.684407 -0.376613
369993871 0.684597 -0.377359
371479750 0.68582 -0.379875
372965629 0.685137 -0.382107
374451508 0.684594 -0.383874
375937387 0.684895 -0.38242
377423266 0.683724 -0.38446
378909145 0.682535 -0.384643
380395024 0.680667 -0.386038
381880903 0.678195 -0.385956
383366782 0.676469 -0.386276
384852661 0.672527 -0.386338
386338540 0.669833 -0.38621
387824419 0.66541 -0.38547
389310298 0.662564 -0.384616
390796177 0.660446 -0.387185
392282056 0.663151 -0.389968
393767935 0.663796 -0.393849
395253814 0.665718 -0.396496
396739693 0.667913 -0.398933
398225572 0.667677 -0.401236
399711451 0.669207 -0.403249
401197330 0.669836 -0.405859
402683209 0.670298 -0.406744
404169088 0.669081 -0.407491
405654967 0.670483 -0.409269
407140846 0.669345 -0.409864
408626725 0.666262 -0.410198
410112604 0.663966 -0.410348
411598483 0.664928 -0.410305
413084362 0.661511 -0.410632
414570241 0.657604 -0.410419
416056120 0.655716 -0.408793
417541999 0.652607 -0.407861
419027878 0.648584 -0.40839
420513757 0.64561 -0.408876
421999636 0.648885 -0.412775
423485515 0.649254 -0.416784
424971394 0.650644 -0.419311
426457273 0.652255 -0.420736
427943152 0.652552 -0.424044
429429031 0.653316 -0.425131
430914910 0.653473 -0.426251
432400789 0.651953 -0.429028
433886668 0.65534 -0.430273
435372547 0.653267 -0.43073
436858426 0.651389 -0.431706
438344305 0.650523 -0.430952
439830184 0.649025 -0.432246
441316063 0.648658 -0.430865
442801942 0.644234 -0.432203
444287821 0.641572 -0.433657
445773700 0.638213 -0.432332
447259579 0.635401 -0.432275
448745458 0.631762 -0.431263
450231337 0.629203 -0.43005
451717216 0.631127 -0.434497
453203095 0.631142 -0.438503
454688974 0.632435 -0.440937
456174853 0.634925 -0.442111
457660732 0.63629 -0.446645
459146611 0.635347 -0.447018
460632490 0.635405 -0.449093
462118369 0.636928 -0.450542
463604248 0.638125 -0.453296
465090127 0.636473 -0.452657
466576006 0.63505 -0.454415
468061885 0.634434 -0.45442
469547764 0.633269 -0.454037
471033643 0.630874 -0.454372
472519522 0.628331 -0.456115
474005401 0.625507 -0.454819
475491280 0.623513 -0.453594
476977159 0.621256 -0.452771
478463038 0.616131 -0.453382
479948917 0.61194 -0.453376
481434796 0.614929 -0.455329
482920675 0.614299 -0.460103
484406554 0.617303 -0.463064
485892433 0.617924 -0.464943
487378312 0.621401 -0.46696
488864191 0.620926 -0.46858
490350070 0.62008 -0.470608
491835949 0.620545 -0.475003
493321828 0.620883 -0.47441
494807707 0.62105 -0.474849
496293586 0.619204 -0.476451
497779465 0.617628 -0.477773
499265344 0.61631 -0.476532
500751223 0.614143 -0.476391
502237102 0.611087 -0.477404
503722981 0.610696 -0.476258
505208860 0.607367 -0.474477
506694739 0.603262 -0.474703
508180618 0.600125 -0.47499
509666497 0.595016 -0.474364
511152376 0.596583 -0.476037
512638255 0.596799 -0.480491
514124134 0.600137 -0.483847
515610013 0.601744 -0.486072
517095892 0.602699 -0.489126
518581771 0.601806 -0.491124
520067650 0.601397 -0.493558
521553529 0.602805 -0.494765
523039408 0.60185 -0.494949
524525287 0.603448 -0.497313
526011166 0.602223 -0.496693
527497045 0.599895 -0.498317
528982924 0.599848 -0.496547
530468803 0.597875 -0.496374
531954682 0.595317 -0.495929
533440561 0.592736 -0.496105
534926440 0.589706 -0.496601
536412319 0.586048 -0.49516
537898198 0.582199 -0.494969
539384077 0.578772 -0.493315
540869956 0.577445 -0.495404
542355835 0.579241 -0.497613
543841714 0.579402 -0.502617
545327593 0.581101 -0.504097
546813472 0.582531 -0.505957
548299351 0.582752 -0.508739
549785230 0.58305 -0.512238
551271109 0.584391 -0.513045
552756988 0.58418 -0.512787
554242867 0.58459 -0.513545
555728746 0.582709 -0.514923
557214625 0.580604 -0.515107
558700504 0.580111 -0.51465
560186383 0.576948 -0.514509
561672262 0.576027 -0.512246
563158141 0.572941 -0.512245
564644020 0.57039 -0.513166
566129899 0.565756 -0.510673
567615778 0.561836 -0.510149
569101657 0.559291 -0.509611
570587536 0.557411 -0.509531
572073415 0.558049 -0.513306
573559294 0.559741 -0.517404
575045173 0.561213 -0.519876
576531052 0.562243 -0.524538
578016931 0.563238 -0.526853
579502810 0.563573 -0.529612
580988689 0.56345 -0.532188
582474568 0.563556 -0.536174
583960447 0.562666 -0.536008
585446326 0.562766 -0.537094
586932205 0.562207 -0.536062
588418084 0.56105 -0.537469
589903963 0.558943 -0.538978
591389842 0.558028 -0.539105
592875721 0.555728 -0.538807
594361600 0.55263 -0.537818
595847479 0.550924 -0.536043
597333358 0.547301 -0.5351
598819237 0.54488 -0.534608
600305116 0.540183 -0.534346
601790995 0.542606 -0.538138
603276874 0.542255 -0.543914
604762753 0.544755 -0.545268
606248632 0.54593 -0.547636
607734511 0.544559 -0.552068
609220390 0.546736 -0.552649
610706269 0.545542 -0.553619
612192148 0.547777 -0.554593
613678027 0.545984 -0.556711
615163906 0.546204 -0.557095
616649785 0.54354 -0.557396
618135664 0.541165 -0.557658
619621543 0.541127 -0.554174
621107422 0.540313 -0.555795
622593301 0.539497 -0.554984
624079180 0.532665 -0.556108
625565059 0.532123 -0.553617
627050938 0.531138 -0.550855
628536817 0.525531 -0.550292
630022696 0.522685 -0.54947
631508575 0.523029 -0.553079
632994454 0.520287 -0.555173
634480333 0.524936 -0.559965
635966212 0.524629 -0.562403
637452091 0.523564 -0.563064
638937970 0.52404 -0.565342
640423849 0.524038 -0.566747
641909728 0.5231 -0.56948
643395607 0.523711 -0.569205
644881486 0.52051 -0.569971
646367365 0.518734 -0.569508
647853244 0.517193 -0.571191
649339123 0.51475 -0.570277
650825002 0.516025 -0.569593
652310881 0.511853 -0.56902
653796760 0.509567 -0.569572
655282639 0.504932 -0.566679
656768518 0.500702 -0.567802
658254397 0.500989 -0.562308
659740276 0.496759 -0.563308
661226155 0.495886 -0.565033
662712034 0.496665 -0.570044
664197913 0.497429 -0.572026
665683792 0.494945 -0.576975
667169671 0.494985 -0.581271
668655550 0.495399 -0.58281
670141429 0.496979 -0.585358
671627308 0.495918 -0.586706
673113187 0.493388 -0.589774
674599066 0.495537 -0.588887
676084945 0.494763 -0.591574
677570824 0.493167 -0.592803
679056703 0.489332 -0.593912
680542582 0.489138 -0.592501
682028461 0.48757 -0.592267
683514340 0.485415 -0.592223
685000219 0.481971 -0.591939
686486098 0.481369 -0.590437
687971977 0.479661 -0.589445
689457856 0.475753 -0.588846
690943735 0.474882 -0.590466
692429614 0.477977 -0.593922
693915493 0.478539 -0.597838
695401372 0.481253 -0.598674
696887251 0.482184 -0.600038
698373130 0.482188 -0.6039
699859009 0.484485 -0.605194
701344888 0.482058 -0.607911
702830767 0.484865 -0.605558
704316646 0.483598 -0.607012
705802525 0.484426 -0.607646
707288404 0.481909 -0.606915
708774283 0.484227 -0.607475
710260162 0.480634 -0.604837
711746041 0.482193 -0.605856
713231920 0.480229 -0.602505
714717799 0.48001 -0.60058
716203678 0.473432 -0.597156
717689557 0.472982 -0.595829
719175436 0.469128 -0.593119
720661315 0.468531 -0.594647
722147194 0.468824 -0.598069
723633073 0.469635 -0.602225
725118952 0.469762 -0.60312
726604831 0.469663 -0.606391
728090710 0.471301 -0.608467
729576589 0.470076 -0.610127
731062468 0.472827 -0.611032
732548347 0.47152 -0.612722
734034226 0.469527 -0.614416
735520105 0.471513 -0.614
737005984 0.46995 -0.614485
738491863 0.469167 -0.614119
739977742 0.467506 -0.614894
741463621 0.466388 -0.611959
742949500 0.464713 -0.610803
744435379 0.462066 -0.610443
745921258 0.458268 -0.608872
747407137 0.454374 -0.607343
748893016 0.451768 -0.605043
750378895 0.451315 -0.604065
751864774 0.448509 -0.610334
753350653 0.450073 -0.613105
754836532 0.450359 -0.614944
756322411 0.44929 -0.618847
757808290 0.450543 -0.619943
759294169 0.450526 -0.623268
760780048 0.44884 -0.62476
762265927 0.449282 -0.625277
763751806 0.447416 -0.628019
765237685 0.447108 -0.626403
766723564 0.447367 -0.626907
768209443 0.44694 -0.626419
769695322 0.444507 -0.627324
771181201 0.440348 -0.62855
772667080 0.44034 -0.625742
774152959 0.436652 -0.623933
775638838 0.431541 -0.62403
777124717 0.43179 -0.620204
778610596 0.427644 -0.620391
780096475 0.424929 -0.619497
781582354 0.425328 -0.622665
783068233 0.427158 -0.625733
784554112 0.430052 -0.628047
786039991 0.427779 -0.630304
787525870 0.427584 -0.635569
789011749 0.426208 -0.639124
790497628 0.431439 -0.637507
791983507 0.431747 -0.640614
793469386 0.430087 -0.641041
794955265 0.429366 -0.641662
796441144 0.429187 -0.641538
797927023 0.429595 -0.641046
799412902 0.425179 -0.640893
800898781 0.428903 -0.638584
802384660 0.424222 -0.639618
803870539 0.42315 -0.638758
805356418 0.417986 -0.636256
806842297 0.415946 -0.635454
808328176 0.414055 -0.632018
809814055 0.411729 -0.629163
811299934 0.410552 -0.632994
812785813 0.41214 -0.636465
814271692 0.413238 -0.640435
815757571 0.411676 -0.640225
817243450 0.413035 -0.643234
818729329 0.412096 -0.648868
820215208 0.410594 -0.650403
821701087 0.411716 -0.652492
823186966 0.410977 -0.652714
824672845 0.41255 -0.652797
826158724 0.409215 -0.653447
827644603 0.407864 -0.653232
829130482 0.409524 -0.652513
830616361 0.405236 -0.650411
832102240 0.406501 -0.649817
833588119 0.404331 -0.647289
835073998 0.402441 -0.645001
836559877 0.398538 -0.643588
838045756 0.396737 -0.64325
839531635 0.394543 -0.638769
841017514 0.394279 -0.641359
842503393 0.393911 -0.644747
843989272 0.392915 -0.648452
845475151 0.392699 -0.652275
846961030 0.389634 -0.653745
848446909 0.39434 -0.659313
849932788 0.392005 -0.659584
851418667 0.390559 -0.663722
852904546 0.391458 -0.664304
854390425 0.394719 -0.664572
855876304 0.389529 -0.6667
857362183 0.389467 -0.6657
858848062 0.391423 -0.664391
860333941 0.385279 -0.667239
861819820 0.385117 -0.664343
863305699 0.382901 -0.662909
864791578 0.382573 -0.661347
866277457 0.382009 -0.660563
867763336 0.381689 -0.658102
869249215 0.375617 -0.655685
870735094 0.378189 -0.655384
872220973 0.373027 -0.659927
873706852 0.375297 -0.662064
875192731 0.373172 -0.667439
876678610 0.375529 -0.669191
878164489 0.374473 -0.67116
879650368 0.372636 -0.672531
881136247 0.372617 -0.675787
882622126 0.372779 -0.677034
884108005 0.373765 -0.677237
885593884 0.370513 -0.677373
887079763 0.370681 -0.67857
888565642 0.36872 -0.678802
890051521 0.368526 -0.676432
891537400 0.367954 -0.676865
893023279 0.36625 -0.675017
894509158 0.363001 -0.672601
895995037 0.363811 -0.672012
897480916 0.359907 -0.670143
898966795 0.359247 -0.665191
900452674 0.356734 -0.667036
901938553 0.354835 -0.669616
903424432 0.355788 -0.672688
904910311 0.355593 -0.672436
906396190 0.354676 -0.677156
907882069 0.354265 -0.681651
909367948 0.357226 -0.679761
910853827 0.356515 -0.679129
912339706 0.354328 -0.682584
913825585 0.356517 -0.683874
915311464 0.35461 -0.684379
916797343 0.35414 -0.682853
918283222 0.352153 -0.679341
919769101 0.352222 -0.681668
921254980 0.349062 -0.680514
922740859 0.34989 -0.680362
924226738 0.346331 -0.67788
925712617 0.346778 -0.674556
927198496 0.345029 -0.67051
928684375 0.339235 -0.670218
930170254 0.340621 -0.667775
931656133 0.340132 -0.671736
933142012 0.338813 -0.674154
934627891 0.339056 -0.677887
936113770 0.338887 -0.680397
937599649 0.338343 -0.681834
939085528 0.338586 -0.684325
940571407 0.33688 -0.685067
942057286 0.337442 -0.686986
943543165 0.339337 -0.686395
945029044 0.336344 -0.687924
946514923 0.335089 -0.687022
948000802 0.334059 -0.68925
949486681 0.334997 -0.687306
950972560 0.332624 -0.687135
952458439 0.332773 -0.684803
953944318 0.331002 -0.684051
955430197 0.326961 -0.682435
956916076 0.326106 -0.680458
958401955 0.325013 -0.67809
959887834 0.322384 -0.676339
961373713 0.325021 -0.678596
962859592 0.322422 -0.682142
964345471 0.324823 -0.685091
965831350 0.322007 -0.687647
967317229 0.321898 -0.690377
968803108 0.324568 -0.690319
970288987 0.322611 -0.69391
971774866 0.324463 -0.694205
973260745 0.324061 -0.695472
974746624 0.321808 -0.695449
976232503 0.320637 -0.69644
977718382 0.321674 -0.695341
979204261 0.31798 -0.695616
980690140 0.317596 -0.694634
982176019 0.317798 -0.692082
983661898 0.314404 -0.691162
985147777 0.314642 -0.690659
986633656 0.310923 -0.688471
988119535 0.311043 -0.683683
989605414 0.308981 -0.682564
991091293 0.307983 -0.682013
992577172 0.307962 -0.687049
994063051 0.306311 -0.690508
995548930 0.306527 -0.693652
997034809 0.307852 -0.695011
998520688 0.308926 -0.696094
1000006567 0.307468 -0.698306
1001492446 0.307653 -0.699612
1002978325 0.305716 -0.701853
1004464204 0.305738 -0.699808
1005950083 0.30338 -0.70158
1007435962 0.30255 -0.700314
1008921841 0.304061 -0.699469
1010407720 0.297854 -0.698861
1011893599 0.298525 -0.698156
1013379478 0.297612 -0.696911
1014865357 0.296024 -0.693481
1016351236 0.292283 -0.692604
1017837115 0.290047 -0.69247
1019322994 0.286599 -0.687974
1020808873 0.285705 -0.689557
1022294752 0.284738 -0.692553
1023780631 0.285792 -0.69486
1025266510 0.286526 -0.699852
1026752389 0.288249 -0.699948
1028238268 0.282293 -0.703696
1029724147 0.28533 -0.707211
1031210026 0.284063 -0.707048
1032695905 0.285137 -0.707713
1034181784 0.283667 -0.709949
1035667663 0.283126 -0.71021
1037153542 0.281376 -0.710703
1038639421 0.283471 -0.710729
1040125300 0.280044 -0.708618
1041611179 0.277859 -0.70915
1043097058 0.276676 -0.70779
1044582937 0.27457 -0.704881
1046068816 0.271214 -0.702436
1047554695 0.27268 -0.700242
1049040574 0.269535 -0.698225
1050526453 0.265995 -0.698315
1052012332 0.270398 -0.701506
1053498211 0.267076 -0.705579
1054984090 0.27003 -0.706963
1056469969 0.270628 -0.711728
1057955848 0.269745 -0.711852
1059441727 0.264776 -0.716076
1060927606 0.269458 -0.715314
1062413485 0.268408 -0.716739
1063899364 0.270254 -0.716824
1065385243 0.269207 -0.716983
1066871122 0.270602 -0.716411
1068357001 0.270303 -0.716929
1069842880 0.271231 -0.715343
1071328759 0.264759 -0.712182
1072814638 0.264457 -0.711552
1074300517 0.263256 -0.708602
1075786396 0.263494 -0.706052
1077272275 0.262612 -0.703116
1078758154 0.258422 -0.699944
1080244033 0.255941 -0.699251
1081729912 0.255551 -0.701879
1083215791 0.259319 -0.705974
1084701670 0.256362 -0.707811
1086187549 0.25412 -0.710768
1087673428 0.253688 -0.711778
1089159307 0.256603 -0.714032
1090645186 0.254948 -0.71606
1092131065 0.253621 -0.716422
1093616944 0.25329 -0.717971
1095102823 0.254382 -0.717095
1096588702 0.25332 -0.7161
1098074581 0.250707 -0.715189
1099560460 0.249625 -0.713511
1101046339 0.248455 -0.714044
1102532218 0.248737 -0.711442
1104018097 0.247246 -0.708076
1105503976 0.245718 -0.705861
1106989855 0.242873 -0.701904
1108475734 0.241193 -0.700376
1109961613 0.235773 -0.698458
1111447492 0.237354 -0.701875
1112933371 0.237636 -0.704368
1114419250 0.240121 -0.706029
1115905129 0.235034 -0.712525
1117391008 0.237591 -0.713201
1118876887 0.234457 -0.718738
1120362766 0.236036 -0.717994
1121848645 0.238137 -0.717807
1123334524 0.236641 -0.721097
1124820403 0.236111 -0.720599
1126306282 0.23386 -0.720757
1127792161 0.232853 -0.72181
1129278040 0.234666 -0.721279
1130763919 0.233773 -0.720712
1132249798 0.234775 -0.718691
1133735677 0.232195 -0.71686
1135221556 0.230515 -0.713878
1136707435 0.226792 -0.710977
1138193314 0.226167 -0.707805
1139679193 0.223478 -0.707376
1141165072 0.22461 -0.709564
1142650951 0.224777 -0.710279
1144136830 0.224099 -0.713927
1145622709 0.222733 -0.718236
1147108588 0.221017 -0.721053
1148594467 0.22121 -0.72057
1150080346 0.219859 -0.722139
1151566225 0.219078 -0.725545
1153052104 0.217129 -0.726123
1154537983 0.216405 -0.723986
1156023862 0.214964 -0.727496
1157509741 0.215613 -0.724071
1158995620 0.211987 -0.724639
1160481499 0.213628 -0.722822
1161967378 0.20822 -0.721921
1163453257 0.211822 -0.719103
1164939136 0.208778 -0.719865
1166425015 0.203869 -0.71654
1167910894 0.203455 -0.713247
1169396773 0.20406 -0.709141
1170882652 0.203123 -0.711996
1172368531 0.200748 -0.714615
1173854410 0.204455 -0.717708
1175340289 0.204181 -0.719693
1176826168 0.200651 -0.720599
1178312047 0.196646 -0.723945
1179797926 0.202857 -0.724792
1181283805 0.198481 -0.729342
1182769684 0.195734 -0.730346
1184255563 0.197969 -0.728689
1185741442 0.200529 -0.727978
1187227321 0.199584 -0.72609
1188713200 0.199827 -0.728267
1190199079 0.197699 -0.727391
1191684958 0.193005 -0.725829
1193170837 0.19483 -0.724488
1194656716 0.193264 -0.720627
1196142595 0.193581 -0.716807
1197628474 0.195269 -0.713993
1199114353 0.193561 -0.711136
1200600232 0.188464 -0.711422
1202086111 0.189569 -0.7146
1203571990 0.189103 -0.717006
1205057869 0.187687 -0.72102
1206543748 0.187795 -0.720862
1208029627 0.192988 -0.726059
1209515506 0.187013 -0.72584
1211001385 0.186313 -0.726615
1212487264 0.184246 -0.725878
1213973143 0.183814 -0.726979
1215459022 0.183812 -0.728655
1216944901 0.190526 -0.724618
1218430780 0.1864 -0.725687
1219916659 0.178629 -0.728934
1221402538 0.178535 -0.725343
1222888417 0.178364 -0.727212
1224374296 0.180771 -0.726247
1225860175 0.179448 -0.722332
1227346054 0.181873 -0.716293
1228831933 0.178759 -0.71176
1230317812 0.173595 -0.713695
1231803691 0.174583 -0.716985
1233289570 0.141117 -0.71681
1234775449 0.175148 -0.722383
1236261328 0.17603 -0.72452
1237747207 0.176373 -0.726901
1239233086 0.142428 -0.723024
1240718965 0.179644 -0.729304
1242204844 0.181705 -0.730265
1243690723 0.177407 -0.731978
1245176602 0.178139 -0.733458
1246662481 0.181733 -0.730127
1248148360 0.18257 -0.730588
1249634239 0.181262 -0.728919
1251120118 0.182415 -0.725696
1252605997 0.183067 -0.724975
1254091876 0.182904 -0.724274
1255577755 0.184026 -0.719006
1257063634 0.182104 -0.721932
1258549513 0.179379 -0.720151
1260035392 0.179815 -0.715647
1261521271 0.176539 -0.714737
1263007150 0.177444 -0.717242
1264493029 0.178166 -0.722748
1265978908 0.173137 -0.722674
1267464787 0.175705 -0.725586
1268950666 0.171361 -0.727599
1270436545 0.173238 -0.72747
1271922424 0.172 -0.726642
1273408303 0.190045 -0.731148
1274894182 0.168485 -0.731552
1276380061 0.170455 -0.729251
1277865940 0.171391 -0.730894
1279351819 0.15924 -0.729752
1280837698 0.165995 -0.728141
1282323577 0.164039 -0.727269
1283809456 0.161617 -0.72687
1285295335 0.155557 -0.723657
1286781214 0.154145 -0.722696
1288267093 0.153552 -0.719795
1289752972 0.150301 -0.718169
1291238851 0.150589 -0.718627
1292724730 0.147224 -0.721719
1294210609 0.151403 -0.723641
1295696488 0.148946 -0.726223
1297182367 0.149247 -0.728483
1298668246 0.147709 -0.727833
1300154125 0.146001 -0.728623
1301640004 0.150436 -0.729404
1303125883 0.145729 -0.730292
1304611762 0.148238 -0.729919
1306097641 0.146549 -0.728759
1307583520 0.148514 -0.727904
1309069399 0.14621 -0.726658
1310555278 0.14004 -0.723292
1312041157 0.14276 -0.722626
1313527036 0.137686 -0.720339
1315012915 0.137314 -0.717985
1316498794 0.133434 -0.714743
1317984673 0.134457 -0.71216
1319470552 0.131549 -0.710566
1320956431 0.132636 -0.711314
1322442310 0.130937 -0.714933
1323928189 0.128945 -0.718392
1325414068 0.12896 -0.723609
1326899947 0.131508 -0.724235
1328385826 0.130682 -0.728364
1329871705 0.134734 -0.729106
1331357584 0.132545 -0.733251
1332843463 0.136733 -0.732743
1334329342 0.135879 -0.735184
1335815221 0.136621 -0.73443
1337301100 0.13611 -0.735373
1338786979 0.134888 -0.735249
1340272858 0.13073 -0.735587
1341758737 0.136673 -0.73266
1343244616 0.133697 -0.730757
1344730495 0.11319 -0.729554
1346216374 0.146579 -0.72762
1347702253 0.119839 -0.725444
1349188132 0.143463 -0.72174
1350674011 0.131301 -0.722825
1352159890 0.129209 -0.725853
1353645769 0.130573 -0.727445
1355131648 0.131348 -0.731684
1356617527 0.12968 -0.736198
1358103406 0.126621 -0.739192
1359589285 0.131095 -0.743629
1361075164 0.127383 -0.742449
1362561043 0.130918 -0.743891
1364046922 0.130943 -0.744167
1365532801 0.129359 -0.745885
1367018680 0.124821 -0.744557
1368504559 0.125814 -0.743325
1369990438 0.08508 -0.720349
1371476317 0.12715 -0.741491
1372962196 0.12413 -0.740769
1374448075 0.123904 -0.739074
1375933954 0.122483 -0.736546
1377419833 0.124755 -0.731476
1378905712 0.120349 -0.728098
1380391591 0.121112 -0.728564
1381877470 0.115942 -0.729162
1383363349 0.11624 -0.736749
1384849228 0.116314 -0.737614
1386335107 0.118421 -0.742388
1387820986 0.117434 -0.739415
1389306865 0.113222 -0.745449
1390792744 0.114877 -0.749025
1392278623 0.114059 -0.746381
1393764502 0.118512 -0.748613
1395250381 0.117099 -0.748175
1396736260 0.11517 -0.747401
1398222139 0.116852 -0.746948
1399708018 0.11577 -0.74366
1401193897 0.112839 -0.740299
1402679776 0.112616 -0.737183
1404165655 0.11041 -0.737143
1405651534 0.111102 -0.734779
1407137413 0.112587 -0.728584
1408623292 0.105942 -0.727612
1410109171 0.109353 -0.72266
1411595050 0.110905 -0.724863
1413080929 0.107827 -0.730861
1414566808 0.099587 -0.732395
1416052687 0.101043 -0.734209
1417538566 0.098494 -0.741547
1419024445 0.104762 -0.741989
1420510324 0.101261 -0.7455
1421996203 0.09701 -0.745901
1423482082 0.129448 -0.748365
1424967961 0.097954 -0.75233
1426453840 0.100811 -0.748564
1427939719 0.101866 -0.748059
1429425598 0.100615 -0.745561
1430911477 0.101177 -0.745342
1432397356 0.101407 -0.74484
1433883235 0.093655 -0.740748
1435369114 0.100377 -0.738289
1436854993 0.10079 -0.733829
1438340872 0.097824 -0.733051
1439826751 0.097378 -0.73104
1441312630 0.093645 -0.732451
1442798509 0.096825 -0.73392
1444284388 0.094763 -0.738174
1445770267 0.09611 -0.74283
1447256146 0.09315 -0.742958
1448742025 0.094386 -0.745376
1450227904 0.091717 -0.748074
1451713783 0.093896 -0.747101
1453199662 0.089799 -0.750011
1454685541 0.092944 -0.748929
1456171420 0.093974 -0.747205
1457657299 0.089319 -0.747847
1459143178 0.092972 -0.746388
1460629057 0.091101 -0.743881
1462114936 0.090366 -0.741781
1463600815 0.092952 -0.737066
1465086694 0.087022 -0.735957
1466572573 0.089991 -0.731886
1468058452 0.088948 -0.727381
1469544331 0.089081 -0.722489
1471030210 0.087542 -0.724547
1472516089 0.084383 -0.728218
1474001968 0.081753 -0.731414
1475487847 0.084707 -0.733706
1476973726 0.081788 -0.738177
1478459605 0.081051 -0.738879
1479945484 0.081792 -0.740996
1481431363 0.080025 -0.742638
1482917242 0.077081 -0.743984
1484403121 0.076016 -0.745141
1485889000 0.077454 -0.746895
1487374879 0.079053 -0.744961
1488860758 0.078825 -0.743494
1490346637 0.077825 -0.743833
1491832516 0.076905 -0.742866
1493318395 0.078515 -0.739547
1494804274 0.08006 -0.736599
1496290153 0.080256 -0.73428
1497776032 0.076877 -0.731087
1499261911 0.075036 -0.726237
1500747790 0.071776 -0.728639
1502233669 0.072187 -0.731007
1503719548 0.067904 -0.734086
1505205427 0.073425 -0.735326
1506691306 0.072532 -0.737602
1508177185 0.070957 -0.741278
1509663064 0.072648 -0.742663
1511148943 0.069132 -0.743834
1512634822 0.066548 -0.746053
1514120701 0.07219 -0.74406
1515606580 0.072593 -0.742999
1517092459 0.074686 -0.742576
1518578338 0.067984 -0.743325
1520064217 0.065166 -0.739942
1521550096 0.073906 -0.737286
1523035975 0.069737 -0.737319
1524521854 0.065648 -0.734646
1526007733 0.064466 -0.734196
1527493612 0.082112 -0.727849
1528979491 0.08132 -0.727713
1530465370 0.083763 -0.722623
1531951249 0.079518 -0.727822
1533437128 0.074818 -0.731462
1534923007 0.075172 -0.734542
1536408886 0.071994 -0.735807
1537894765 0.070656 -0.738096
1539380644 0.068869 -0.739296
1540866523 0.071867 -0.740529
1542352402 0.070895 -0.740996
1543838281 0.072515 -0.740329
1545324160 0.068805 -0.741118
1546810039 0.067259 -0.743189
1548295918 0.04343 -0.738142
1549781797 0.072193 -0.738122
1551267676 0.038414 -0.735013
1552753555 0.067843 -0.736529
1554239434 0.037879 -0.731174
1555725313 0.061488 -0.732365
1557211192 0.034311 -0.725968
1558697071 0.065824 -0.7306
1560182950 0.03305 -0.720606
1561668829 0.056263 -0.727134
1563154708 0.030767 -0.725977
1564640587 0.062053 -0.731493
1566126466 0.033357 -0.732531
1567612345 0.060657 -0.738966
1569098224 0.032255 -0.734625
1570584103 0.060502 -0.740511
1572069982 0.033107 -0.738083
1573555861 0.070774 -0.742745
1575041740 0.041965 -0.74036
1576527619 0.041309 -0.742314
1578013498 0.042824 -0.737179
1579499377 0.046671 -0.738484
1580985256 0.050897 -0.737223
1582471135 0.047435 -0.737945
1583957014 0.045793 -0.735182
1585442893 0.042382 -0.732667
1586928772 0.041915 -0.726375
1588414651 0.039955 -0.723542
1589900530 0.044423 -0.72339
1591386409 0.042447 -0.726265
1592872288 0.039602 -0.729661
1594358167 0.036927 -0.732983
1595844046 0.039819 -0.734395
1597329925 0.039157 -0.738803
1598815804 0.040481 -0.740412
1600301683 0.044319 -0.741495
1601787562 0.037823 -0.740813
1603273441 0.041389 -0.742556
1604759320 0.045193 -0.745222
1606245199 0.036473 -0.744864
1607731078 0.041926 -0.744022
1609216957 0.036679 -0.743358
1610702836 0.03947 -0.741159
1612188715 0.04458 -0.740984
1613674594 0.039855 -0.737983
1615160473 0.03866 -0.736081
1616646352 0.036296 -0.735443
1618132231 0.036167 -0.729923
1619618110 0.034181 -0.726631
1621103989 0.029307 -0.729907
1622589868 0.036373 -0.731654
1624075747 0.034865 -0.733875
1625561626 0.032232 -0.738175
1627047505 0.028082 -0.740924
1628533384 0.031834 -0.740874
1630019263 0.035023 -0.743584
1631505142 0.033185 -0.744127
1632991021 0.034451 -0.747062
1634476900 0.03273 -0.746897
1635962779 0.029856 -0.745893
1637448658 0.031341 -0.74359
1638934537 0.031977 -0.745068
1640420416 0.03148 -0.74233
1641906295 0.031046 -0.740617
1643392174 0.026643 -0.736655
1644878053 0.029228 -0.733466
1646363932 0.027158 -0.730017
1647849811 0.024571 -0.72811
1649335690 0.02336 -0.723922
1650821569 0.027182 -0.724979
1652307448 0.021538 -0.72663
1653793327 0.021402 -0.731493
1655279206 0.02124 -0.734008
1656765085 0.021471 -0.737348
1658250964 0.020198 -0.738302
1659736843 0.018508 -0.74162
1661222722 0.016703 -0.743339
1662708601 0.022698 -0.742507
1664194480 0.021824 -0.74452
1665680359 0.023485 -0.744197
1667166238 0.020486 -0.742436
1668652117 0.019425 -0.742648
1670137996 0.019463 -0.738636
1671623875 0.019381 -0.738011
1673109754 0.016735 -0.734495
1674595633 0.018651 -0.735379
1676081512 0.014781 -0.730388
1677567391 0.015301 -0.725369
1679053270 0.017645 -0.72371
1680539149 0.016067 -0.71908
1682025028 0.011985 -0.725906
1683510907 0.014799 -0.729044
1684996786 0.011017 -0.731055
1686482665 0.010046 -0.736503
1687968544 0.009701 -0.738393
1689454423 0.007596 -0.739817
1690940302 0.014558 -0.739471
1692426181 0.01001 -0.742028
1693912060 0.012585 -0.743695
1695397939 0.012866 -0.742927
1696883818 0.009802 -0.742887
1698369697 0.015067 -0.742491
1699855576 0.011394 -0.738936
1701341455 0.011578 -0.737838
1702827334 0.012548 -0.733653
1704313213 0.00459 -0.731976
1705799092 0.008743 -0.727999
1707284971 0.003579 -0.727791
1708770850 0.009114 -0.722027
1710256729 0.014838 -0.720529
1711742608 0.007723 -0.722098
1713228487 0.005303 -0.725955
1714714366 -0.001184 -0.733021
1716200245 0.005467 -0.735466
1717686124 0.001649 -0.735576
1719172003 0.006006 -0.739473
1720657882 0.001322 -0.742932
1722143761 0.001423 -0.744248
1723629640 0.002382 -0.743058
1725115519 0.008351 -0.74383
1726601398 0.001128 -0.74786
1728087277 0.000707 -0.745587
1729573156 0.003515 -0.742735
1731059035 0.004009 -0.744019
1732544914 0.004371 -0.74061
1734030793 0.00051 -0.738266
1735516672 0.006924 -0.732883
1737002551 0.002043 -0.732243
1738488430 -0.006141 -0.729092
1739974309 0.005766 -0.722378
1741460188 0.001708 -0.731861
1742946067 -0.004169 -0.731666
1744431946 0.001367 -0.734318
1745917825 -0.002322 -0.733352
1747403704 -0.004858 -0.7406
1748889583 -0.002963 -0.742615
1750375462 -0.004064 -0.743571
1751861341 -0.006005 -0.743588
1753347220 -0.004006 -0.748186
1754833099 -0.004355 -0.748057
1756318978 -0.008705 -0.747289
1757804857 -0.011791 -0.745207
1759290736 -0.008326 -0.746997
1760776615 -0.007203 -0.746462
1762262494 -0.007779 -0.742916
1763748373 -0.007741 -0.735191
1765234252 -0.009128 -0.73781
1766720131 -0.009086 -0.732048
1768206010 -0.008677 -0.731473
1769691889 -0.007658 -0.72628
1771177768 -0.010055 -0.72648
1772663647 -0.010193 -0.731082
1774149526 -0.011393 -0.733319
1775635405 -0.014328 -0.736115
1777121284 -0.014987 -0.738212
1778607163 -0.015957 -0.742136
1780093042 -0.021194 -0.739267
1781578921 -0.015963 -0.74076
1783064800 -0.017036 -0.740298
1784550679 -0.015361 -0.741516
1786036558 -0.025135 -0.737408
1787522437 -0.024017 -0.738152
1789008316 -0.023582 -0.738649
1790494195 -0.021116 -0.736215
1791980074 -0.016806 -0.735469
1793465953 -0.022702 -0.728246
1794951832 -0.018813 -0.73019
1796437711 -0.024074 -0.722755
1797923590 -0.025891 -0.72168
1799409469 -0.023515 -0.717782
1800895348 -0.027542 -0.719194
1802381227 -0.028572 -0.720096
1803867106 -0.028492 -0.722531
1805352985 -0.032334 -0.729586
1806838864 -0.024846 -0.732386
1808324743 -0.027648 -0.732532
1809810622 -0.031204 -0.7374
1811296501 -0.030242 -0.733519
1812782380 -0.036174 -0.734698
1814268259 -0.034568 -0.738559
1815754138 -0.03646 -0.737314
1817240017 -0.028092 -0.739615
1818725896 -0.027701 -0.737115
1820211775 -0.059997 -0.73131
1821697654 -0.034807 -0.735567
1823183533 -0.034259 -0.732527
1824669412 -0.033353 -0.729997
1826155291 -0.030132 -0.724213
1827641170 -0.031453 -0.728378
1829127049 -0.031246 -0.714967
1830612928 -0.033775 -0.720288
1832098807 -0.028367 -0.722815
1833584686 -0.035208 -0.726421
1835070565 -0.037587 -0.732695
1836556444 -0.033087 -0.730923
1838042323 -0.039253 -0.733389
1839528202 -0.037179 -0.735515
1841014081 -0.035045 -0.735249
1842499960 -0.042746 -0.735251
1843985839 -0.042712 -0.738226
1845471718 -0.046542 -0.738376
1846957597 -0.042769 -0.73724
1848443476 -0.040516 -0.733752
1849929355 -0.037124 -0.735318
1851415234 -0.03919 -0.732858
1852901113 -0.038553 -0.731128
1854386992 -0.053321 -0.730508
1855872871 -0.041701 -0.725789
1857358750 -0.042472 -0.720938
1858844629 -0.038485 -0.717619
1860330508 -0.046392 -0.716237
1861816387 -0.051746 -0.718329
1863302266 -0.046649 -0.721651
1864788145 -0.042502 -0.725204
1866274024 -0.048815 -0.727001
1867759903 -0.042255 -0.730024
1869245782 -0.044331 -0.730309
1870731661 -0.050007 -0.734655
1872217540 -0.042599 -0.735396
1873703419 -0.048628 -0.740008
1875189298 -0.048256 -0.732909
1876675177 -0.049298 -0.733559
1878161056 -0.048032 -0.733565
1879646935 -0.045529 -0.730173
1881132814 -0.045931 -0.729914
1882618693 -0.050509 -0.727668
1884104572 -0.051071 -0.725404
1885590451 -0.049128 -0.723274
1887076330 -0.04578 -0.720319
1888562209 -0.047266 -0.714043
1890048088 -0.050365 -0.709713
1891533967 -0.046039 -0.71632
1893019846 -0.051486 -0.718555
1894505725 -0.046612 -0.720494
1895991604 -0.052435 -0.72702
1897477483 -0.053067 -0.727084
1898963362 -0.047162 -0.728186
1900449241 -0.051702 -0.731861
1901935120 -0.050213 -0.730816
1903420999 -0.048593 -0.732804
1904906878 -0.050063 -0.731502
1906392757 -0.052819 -0.733867
1907878636 -0.055151 -0.731831
1909364515 -0.049423 -0.732098
1910850394 -0.052019 -0.729097
1912336273 -0.049791 -0.72659
1913822152 -0.058336 -0.723086
1915308031 -0.049423 -0.719899
1916793910 -0.050876 -0.71999
1918279789 -0.055007 -0.719099
1919765668 -0.053359 -0.70961
1921251547 -0.050838 -0.715808
1922737426 -0.054226 -0.717479
1924223305 -0.055052 -0.7215
1925709184 -0.056816 -0.724543
1927195063 -0.055683 -0.728386
1928680942 -0.058658 -0.729701
1930166821 -0.059144 -0.732437
1931652700 -0.055061 -0.734062
1933138579 -0.053604 -0.733706
1934624458 -0.06153 -0.733143
1936110337 -0.057414 -0.732561
1937596216 -0.060706 -0.731771
1939082095 -0.054265 -0.731517
1940567974 -0.057737 -0.729812
1942053853 -0.055638 -0.727261
1943539732 -0.060138 -0.725362
1945025611 -0.062085 -0.722566
1946511490 -0.058264 -0.718146
1947997369 -0.061005 -0.718179
1949483248 -0.057589 -0.711309
1950969127 -0.059878 -0.712921
1952455006 -0.056811 -0.716355
1953940885 -0.060035 -0.718259
1955426764 -0.063864 -0.725283
1956912643 -0.066233 -0.729217
1958398522 -0.061017 -0.727308
1959884401 -0.070218 -0.728759
1961370280 -0.065686 -0.732241
1962856159 -0.065731 -0.733034
1964342038 -0.062493 -0.731263
1965827917 -0.064785 -0.732637
1967313796 -0.067648 -0.73168
1968799675 -0.082036 -0.657296
1970285554 -0.065245 -0.730367
1971771433 -0.067062 -0.728845
1973257312 -0.066095 -0.728997
1974743191 -0.063924 -0.726143
1976229070 -0.068451 -0.721929
1977714949 -0.067263 -0.722855
1979200828 -0.066574 -0.712447
1980686707 -0.066853 -0.715984
1982172586 -0.074055 -0.718726
1983658465 -0.067224 -0.724404
1985144344 -0.079383 -0.723952
1986630223 -0.072352 -0.724118
1988116102 -0.072921 -0.728903
1989601981 -0.084677 -0.71933
1991087860 -0.079099 -0.731902
1992573739 -0.071488 -0.733894
1994059618 -0.073238 -0.735428
1995545497 -0.072845 -0.733633
1997031376 -0.077873 -0.730824
1998517255 -0.077266 -0.731777
2000003134 -0.073674 -0.730325
2001489013 -0.075818 -0.729751
2002974892 -0.081683 -0.724848
2004460771 -0.073773 -0.726151
2005946650 -0.076505 -0.719845
2007432529 -0.080746 -0.7164
2008918408 -0.075158 -0.716428
2010404287 -0.077125 -0.710757
2011890166 -0.077819 -0.712516
2013376045 -0.083226 -0.717768
2014861924 -0.072485 -0.722536
2016347803 -0.081502 -0.725015
2017833682 -0.080285 -0.725896
2019319561 -0.084499 -0.727834
2020805440 -0.083032 -0.731861
2022291319 -0.083227 -0.732292
2023777198 -0.083805 -0.73486
2025263077 -0.081565 -0.735015
2026748956 -0.079959 -0.735294
2028234835 -0.079756 -0.732265
2029720714 -0.084167 -0.730557
2031206593 -0.08029 -0.728625
2032692472 -0.078842 -0.730875
2034178351 -0.083128 -0.731257
2035664230 -0.08342 -0.723764
2037150109 -0.083704 -0.721473
2038635988 -0.083722 -0.715283
2040121867 -0.088615 -0.713233
2041607746 -0.08692 -0.71865
2043093625 -0.085665 -0.723558
2044579504 -0.089761 -0.721041
2046065383 -0.086441 -0.727598
2047551262 -0.08629 -0.727935
2049037141 -0.081108 -0.732622
2050523020 -0.088749 -0.732062
2052008899 -0.084379 -0.7299
2053494778 -0.082937 -0.735475
2054980657 -0.079617 -0.732318
2056466536 -0.079983 -0.730222
2057952415 -0.088156 -0.728994
2059438294 -0.083761 -0.72844
2060924173 -0.08883 -0.726491
2062410052 -0.089786 -0.724196
2063895931 -0.085573 -0.720111
2065381810 -0.085349 -0.720362
2066867689 -0.084988 -0.71294
2068353568 -0.082275 -0.713399
2069839447 -0.088623 -0.705515
2071325326 -0.091764 -0.710964
2072811205 -0.084373 -0.708867
2074297084 -0.087747 -0.71298
2075782963 -0.087084 -0.719658
2077268842 -0.092099 -0.72126
2078754721 -0.090324 -0.726022
2080240600 -0.08788 -0.722379
2081726479 -0.090611 -0.722744
2083212358 -0.092672 -0.724226
2084698237 -0.095324 -0.720149
2086184116 -0.091706 -0.723262
2087669995 -0.092851 -0.720854
2089155874 -0.09077 -0.715728
2090641753 -0.092875 -0.716909
2092127632 -0.085768 -0.712659
2093613511 -0.092465 -0.709746
2095099390 -0.091805 -0.710454
2096585269 -0.087831 -0.70763
2098071148 -0.084717 -0.704663
2099557027 -0.091693 -0.69524
2101042906 -0.087573 -0.702108
2102528785 -0.085205 -0.708182
2104014664 -0.091665 -0.708933
2105500543 -0.09213 -0.707464
2106986422 -0.093561 -0.713372
2108472301 -0.09949 -0.715713
2109958180 -0.09643 -0.715883
2111444059 -0.097434 -0.715716
2112929938 -0.0983 -0.717633
2114415817 -0.093778 -0.722513
2115901696 -0.096806 -0.720793
2117387575 -0.094845 -0.721155
2118873454 -0.089809 -0.72273
2120359333 -0.09637 -0.720234
2121845212 -0.088386 -0.719685
2123331091 -0.089717 -0.719558
2124816970 -0.097729 -0.713268
2126302849 -0.089937 -0.71193
2127788728 -0.094833 -0.706386
2129274607 -0.091735 -0.703307
2130760486 -0.095894 -0.699853
2132246365 -0.094948 -0.710827
2133732244 -0.088184 -0.7146
2135218123 -0.09483 -0.70929
2136704002 -0.088314 -0.719012
2138189881 -0.088165 -0.71895
2139675760 -0.091516 -0.715426
2141161639 -0.092237 -0.719283
2142647518 -0.089271 -0.719379
2144133397 -0.078622 -0.722083
2145619276 -0.092564 -0.7176
2147105155 -0.095596 -0.716679
2148591034 -0.087248 -0.717244
2150076913 -0.080626 -0.710416
2151562792 -0.092636 -0.712574
2153048671 -0.093666 -0.707688
2154534550 -0.084449 -0.706767
2156020429 -0.086283 -0.705821
2157506308 -0.084517 -0.70309
2158992187 -0.092457 -0.693749
2160478066 -0.083458 -0.696437
2161963945 -0.095001 -0.696959
2163449824 -0.091077 -0.701508
2164935703 -0.092574 -0.701056
2166421582 -0.09279 -0.704185
2167907461 -0.089953 -0.706408
2169393340 -0.093716 -0.707936
2170879219 -0.096168 -0.708155
2172365098 -0.098445 -0.710297
2173850977 -0.102497 -0.71147
2175336856 -0.09744 -0.709603
2176822735 -0.09594 -0.710619
2178308614 -0.093849 -0.709376
2179794493 -0.095513 -0.710301
2181280372 -0.104682 -0.704694
2182766251 -0.11247 -0.704648
2184252130 -0.098831 -0.703996
2185738009 -0.107126 -0.700083
2187223888 -0.1027 -0.698812
2188709767 -0.106763 -0.694866
2190195646 -0.108033 -0.687839
2191681525 -0.110262 -0.692566
2193167404 -0.113022 -0.702071
2194653283 -0.111427 -0.705052
2196139162 -0.103991 -0.704766
2197625041 -0.111467 -0.711044
2199110920 -0.109067 -0.708727
2200596799 -0.105475 -0.710229
2202082678 -0.10488 -0.71524
2203568557 -0.098854 -0.717232
2205054436 -0.106297 -0.713382
2206540315 -0.099963 -0.711213
2208026194 -0.148265 -0.722089
2209512073 -0.102463 -0.712983
2210997952 -0.102431 -0.71265
2212483831 -0.100417 -0.713449
2213969710 -0.106177 -0.706368
2215455589 -0.105991 -0.700004
2216941468 -0.105977 -0.699299
2218427347 -0.110123 -0.699169
2219913226 -0.108525 -0.692382
2221399105 -0.108112 -0.69568
2222884984 -0.118937 -0.697555
2224370863 -0.107355 -0.702056
2225856742 -0.105375 -0.70132
2227342621 -0.113198 -0.71022
2228828500 -0.118328 -0.70856
2230314379 -0.119908 -0.71172
2231800258 -0.109773 -0.713614
2233286137 -0.114417 -0.707927
2234772016 -0.108835 -0.712866
2236257895 -0.10885 -0.713
2237743774 -0.115031 -0.713445
2239229653 -0.11912 -0.713657
2240715532 -0.105764 -0.710733
2242201411 -0.114912 -0.709992
2243687290 -0.109229 -0.703196
2245173169 -0.115126 -0.705359
2246659048 -0.112616 -0.699909
2248144927 -0.109944 -0.694905
2249630806 -0.11397 -0.694483
2251116685 -0.118509 -0.693916
2252602564 -0.115554 -0.698861
2254088443 -0.118365 -0.697609
2255574322 -0.122195 -0.700665
2257060201 -0.122747 -0.706166
2258546080 -0.118376 -0.709898
2260031959 -0.120606 -0.714643
2261517838 -0.133164 -0.716114
2263003717 -0.122368 -0.71736
2264489596 -0.121072 -0.714568
2265975475 -0.124175 -0.717817
2267461354 -0.12512 -0.714966
2268947233 -0.123827 -0.714275
2270433112 -0.121827 -0.710167
2271918991 -0.131533 -0.710907
2273404870 -0.12111 -0.710144
2274890749 -0.128238 -0.706225
2276376628 -0.128767 -0.70582
2277862507 -0.129892 -0.698989
2279348386 -0.13229 -0.695897
2280834265 -0.131908 -0.697423
2282320144 -0.092193 -0.695377
2283806023 -0.131838 -0.704562
2285291902 -0.132309 -0.708414
2286777781 -0.133788 -0.710373
2288263660 -0.130645 -0.716527
2289749539 -0.128981 -0.714401
2291235418 -0.132556 -0.71403
2292721297 -0.130774 -0.714956
2294207176 -0.12856 -0.715012
2295693055 -0.127835 -0.716921
2297178934 -0.127504 -0.715966
2298664813 -0.126635 -0.714207
2300150692 -0.129 -0.715673
2301636571 -0.124832 -0.707426
2303122450 -0.130809 -0.70881
2304608329 -0.128555 -0.705314
2306094208 -0.12493 -0.700024
2307580087 -0.126082 -0.700303
2309065966 -0.128673 -0.695814
2310551845 -0.126345 -0.692464
2312037724 -0.122714 -0.698696
2313523603 -0.133706 -0.698627
2315009482 -0.131589 -0.700476
2316495361 -0.131042 -0.703864
2317981240 -0.127643 -0.704812
2319467119 -0.13636 -0.705498
2320952998 -0.128691 -0.703395
2322438877 -0.139812 -0.702396
2323924756 -0.128825 -0.705164
2325410635 -0.126769 -0.710726
2326896514 -0.134455 -0.704909
2328382393 -0.128919 -0.702722
2329868272 -0.131293 -0.703834
2331354151 -0.133637 -0.701818
2332840030 -0.130833 -0.699655
2334325909 -0.131332 -0.691544
2335811788 -0.141304 -0.650895
2337297667 -0.129907 -0.693243
2338783546 -0.131433 -0.687324
2340269425 -0.129589 -0.682084
2341755304 -0.137093 -0.684284
2343241183 -0.136769 -0.68678
2344727062 -0.139152 -0.69273
2346212941 -0.140364 -0.694133
2347698820 -0.136259 -0.69648
2349184699 -0.14372 -0.695578
2350670578 -0.141592 -0.702576
2352156457 -0.147063 -0.706314
2353642336 -0.141467 -0.700579
2355128215 -0.136601 -0.700282
2356614094 -0.147257 -0.702925
2358099973 -0.135979 -0.704838
2359585852 -0.142795 -0.700397
2361071731 -0.146639 -0.697932
2362557610 -0.145658 -0.695907
2364043489 -0.146096 -0.694882
2365529368 -0.139284 -0.692799
2367015247 -0.13913 -0.69397
2368501126 -0.140107 -0.687125
2369987005 -0.139243 -0.686486
2371472884 -0.142096 -0.683994
2372958763 -0.141932 -0.694489
2374444642 -0.146223 -0.694787
2375930521 -0.157264 -0.693144
2377416400 -0.139677 -0.704555
2378902279 -0.150594 -0.70117
2380388158 -0.154012 -0.704047
2381874037 -0.147836 -0.701021
2383359916 -0.152429 -0.702526
2384845795 -0.148985 -0.703061
2386331674 -0.15205 -0.700898
2387817553 -0.151603 -0.702877
2389303432 -0.151331 -0.703256
2390789311 -0.158293 -0.701037
2392275190 -0.154278 -0.703317
2393761069 -0.152803 -0.697957
2395246948 -0.161482 -0.691832
2396732827 -0.155219 -0.690391
2398218706 -0.160893 -0.689071
2399704585 -0.157491 -0.688224
2401190464 -0.154954 -0.68861
2402676343 -0.15394 -0.692596
2404162222 -0.147615 -0.698553
2405648101 -0.158196 -0.695681
2407133980 -0.153815 -0.697669
2408619859 -0.159723 -0.708463
2410105738 -0.164792 -0.704564
2411591617 -0.162695 -0.704884
2413077496 -0.162372 -0.698398
2414563375 -0.166455 -0.700557
2416049254 -0.157639 -0.697007
2417535133 -0.159247 -0.70083
2419021012 -0.185908 -0.682873
2420506891 -0.160236 -0.700859
2421992770 -0.156153 -0.694967
2423478649 -0.162751 -0.700352
2424964528 -0.151869 -0.697613
2426450407 -0.149669 -0.690668
2427936286 -0.157991 -0.693306
2429422165 -0.150157 -0.685163
2430908044 -0.158633 -0.684186
2432393923 -0.154844 -0.688208
2433879802 -0.151299 -0.68786
2435365681 -0.158969 -0.689161
2436851560 -0.164538 -0.692623
2438337439 -0.158241 -0.694577
2439823318 -0.154817 -0.698633
2441309197 -0.155136 -0.701173
2442795076 -0.154282 -0.703227
2444280955 -0.159829 -0.698386
2445766834 -0.168655 -0.698814
2447252713 -0.152217 -0.700504
2448738592 -0.151996 -0.699477
2450224471 -0.153022 -0.686996
2451710350 -0.163825 -0.688291
2453196229 -0.158873 -0.689773
2454682108 -0.159061 -0.691129
2456167987 -0.158598 -0.683226
2457653866 -0.150944 -0.683771
2459139745 -0.158151 -0.676744
2460625624 -0.163325 -0.680822
2462111503 -0.160054 -0.678254
2463597382 -0.152974 -0.690094
2465083261 -0.16464 -0.682946
2466569140 -0.15257 -0.689503
2468055019 -0.157716 -0.69144
2469540898 -0.157441 -0.693096
2471026777 -0.150881 -0.70174
2472512656 -0.161476 -0.692861
2473998535 -0.150242 -0.695754
2475484414 -0.152133 -0.69097
2476970293 -0.152949 -0.691744
2478456172 -0.159631 -0.692855
2479942051 -0.151301 -0.690675
2481427930 -0.152455 -0.691383
2482913809 -0.156281 -0.696313
2484399688 -0.138734 -0.690841
2485885567 -0.152744 -0.69154
2487371446 -0.147507 -0.679606
2488857325 -0.148921 -0.678387
2490343204 -0.155468 -0.678114
2491829083 -0.147205 -0.682239
2493314962 -0.143052 -0.685748
2494800841 -0.142626 -0.684432
2496286720 -0.147421 -0.687302
2497772599 -0.14727 -0.694545
2499258478 -0.14458 -0.698146
2500744357 -0.145152 -0.693981
2502230236 -0.145424 -0.691665
2503716115 -0.150486 -0.690585
2505201994 -0.13755 -0.694631
2506687873 -0.140094 -0.68525
2508173752 -0.144329 -0.684982
2509659631 -0.136023 -0.690422
2511145510 -0.135791 -0.688533
2512631389 -0.134997 -0.682809
2514117268 -0.135997 -0.683439
2515603147 -0.139697 -0.668674
2517089026 -0.148333 -0.670239
2518574905 -0.138073 -0.669673
2520060784 -0.134862 -0.661591
2521546663 -0.138902 -0.671433
2523032542 -0.133544 -0.672171
2524518421 -0.146661 -0.671341
2526004300 -0.139301 -0.67143
2527490179 -0.146726 -0.678481
2528976058 -0.141387 -0.680367
2530461937 -0.144977 -0.68533
2531947816 -0.147848 -0.680534
2533433695 -0.1458 -0.677408
2534919574 -0.143712 -0.684722
2536405453 -0.138498 -0.68317
2537891332 -0.158852 -0.680604
2539377211 -0.153864 -0.679231
2540863090 -0.1506 -0.682213
2542348969 -0.151393 -0.677489
2543834848 -0.148982 -0.672571
2545320727 -0.151057 -0.677645
2546806606 -0.149639 -0.672689
2548292485 -0.151296 -0.667105
2549778364 -0.154318 -0.663227
2551264243 -0.150079 -0.668535
2552750122 -0.163411 -0.674971
2554236001 -0.153407 -0.675359
2555721880 -0.155699 -0.674419
2557207759 -0.160402 -0.683363
2558693638 -0.158505 -0.679294
2560179517 -0.161797 -0.680165
2561665396 -0.155761 -0.689001
2563151275 -0.162049 -0.683429
2564637154 -0.169788 -0.681984
2566123033 -0.156838 -0.68722
2567608912 -0.160858 -0.684086
2569094791 -0.150785 -0.685565
2570580670 -0.178068 -0.679017
2572066549 -0.169251 -0.673593
2573552428 -0.169576 -0.670069
2575038307 -0.17335 -0.672846
2576524186 -0.181782 -0.673288
2578010065 -0.191507 -0.66163
2579495944 -0.184947 -0.663452
2580981823 -0.194497 -0.667481
2582467702 -0.185845 -0.662691
2583953581 -0.182544 -0.672525
2585439460 -0.192143 -0.673253
2586925339 -0.194109 -0.677968
2588411218 -0.207499 -0.675938
2589897097 -0.207579 -0.677178
2591382976 -0.197164 -0.672758
2592868855 -0.198047 -0.672212
2594354734 -0.19755 -0.678639
2595840613 -0.180537 -0.691094
2597326492 -0.171496 -0.685007
2598812371 -0.173008 -0.684782
2600298250 -0.176136 -0.685764
2601784129 -0.179593 -0.682375
2603270008 -0.171969 -0.678893
2604755887 -0.178967 -0.679733
2606241766 -0.181708 -0.677566
2607727645 -0.173686 -0.673988
2609213524 -0.174585 -0.668434
2610699403 -0.181921 -0.66608
2612185282 -0.170087 -0.672329
2613671161 -0.168024 -0.674355
2615157040 -0.181698 -0.67492
2616642919 -0.175453 -0.681343
2618128798 -0.182987 -0.681799
2619614677 -0.176424 -0.675892
2621100556 -0.176704 -0.678544
2622586435 -0.148272 -0.684791
2624072314 -0.178481 -0.683308
2625558193 -0.181432 -0.674002
2627044072 -0.176975 -0.678252
2628529951 -0.175995 -0.677824
2630015830 -0.17147 -0.678768
2631501709 -0.179213 -0.669857
2632987588 -0.175735 -0.661829
2634473467 -0.182453 -0.667719
2635959346 -0.176501 -0.663306
2637445225 -0.181499 -0.663529
2638931104 -0.170093 -0.657931
2640416983 -0.183551 -0.648709
2641902862 -0.186064 -0.654908
2643388741 -0.185352 -0.664213
2644874620 -0.187726 -0.660529
2646360499 -0.182245 -0.660458
2647846378 -0.190831 -0.669734
2649332257 -0.190302 -0.673327
2650818136 -0.187866 -0.675465
2652304015 -0.190225 -0.674883
2653789894 -0.186195 -0.675091
2655275773 -0.183154 -0.673689
2656761652 -0.19225 -0.681919
2658247531 -0.184868 -0.678633
2659733410 -0.191989 -0.680698
2661219289 -0.191744 -0.68114
2662705168 -0.1851 -0.678906
2664191047 -0.194577 -0.670711
2665676926 -0.189229 -0.666711
2667162805 -0.190547 -0.66736
2668648684 -0.186336 -0.663269
2670134563 -0.192775 -0.658893
2671620442 -0.187988 -0.660291
2673106321 -0.185981 -0.671643
2674592200 -0.18378 -0.673779
2676078079 -0.190792 -0.672229
2677563958 -0.190079 -0.679516
2679049837 -0.186871 -0.6794
2680535716 -0.191099 -0.67917
2682021595 -0.191847 -0.679261
2683507474 -0.190222 -0.682513
2684993353 -0.188033 -0.678401
2686479232 -0.190596 -0.682663
2687965111 -0.188877 -0.689978
2689450990 -0.185448 -0.680936
2690936869 -0.179949 -0.680512
2692422748 -0.180939 -0.674045
2693908627 -0.18642 -0.673351
2695394506 -0.179072 -0.673198
2696880385 -0.181945 -0.666691
2698366264 -0.181686 -0.663936
2699852143 -0.173071 -0.659527
2701338022 -0.177711 -0.664373
2702823901 -0.178131 -0.662637
2704309780 -0.188986 -0.664607
2705795659 -0.182452 -0.668387
2707281538 -0.180083 -0.668077
2708767417 -0.188918 -0.674671
2710253296 -0.180913 -0.675787
2711739175 -0.183592 -0.673732
2713225054 -0.183603 -0.672572
2714710933 -0.180713 -0.679655
2716196812 -0.176905 -0.674555
2717682691 -0.186698 -0.672158
2719168570 -0.182592 -0.671314
2720654449 -0.178724 -0.673594
2722140328 -0.180185 -0.668975
2723626207 -0.180739 -0.668321
2725112086 -0.178034 -0.666645
2726597965 -0.177943 -0.663067
2728083844 -0.176782 -0.665031
2729569723 -0.181067 -0.657172
2731055602 -0.181414 -0.65619
2732541481 -0.184164 -0.658571
2734027360 -0.184567 -0.664392
2735513239 -0.180758 -0.666036
2736999118 -0.181693 -0.667633
2738484997 -0.179762 -0.664836
2739970876 -0.184376 -0.666253
2741456755 -0.184812 -0.672167
2742942634 -0.186123 -0.671727
2744428513 -0.185457 -0.667262
2745914392 -0.188969 -0.675272
2747400271 -0.187194 -0.674113
2748886150 -0.189507 -0.665331
2750372029 -0.19178 -0.670016
2751857908 -0.18823 -0.675482
2753343787 -0.189044 -0.665291
2754829666 -0.190942 -0.66622
2756315545 -0.193801 -0.666077
2757801424 -0.190174 -0.660767
2759287303 -0.190206 -0.654599
2760773182 -0.189912 -0.657354
2762259061 -0.198682 -0.66155
2763744940 -0.197424 -0.668873
2765230819 -0.195049 -0.668143
2766716698 -0.195695 -0.665088
2768202577 -0.194723 -0.663338
2769688456 -0.199427 -0.673034
2771174335 -0.196461 -0.669949
2772660214 -0.194854 -0.669912
2774146093 -0.189665 -0.674165
2775631972 -0.191589 -0.66683
2777117851 -0.191092 -0.677893
2778603730 -0.198138 -0.677293
2780089609 -0.187696 -0.672297
2781575488 -0.194178 -0.665787
2783061367 -0.200026 -0.672654
2784547246 -0.194583 -0.664948
2786033125 -0.194538 -0.656425
2787519004 -0.19448 -0.657221
2789004883 -0.197448 -0.657435
2790490762 -0.194784 -0.656592
2791976641 -0.205956 -0.657078
2793462520 -0.200818 -0.655863
2794948399 -0.201461 -0.657426
2796434278 -0.193321 -0.66401
2797920157 -0.196963 -0.662385
2799406036 -0.197882 -0.661589
2800891915 -0.189765 -0.667788
2802377794 -0.204065 -0.658707
2803863673 -0.196243 -0.664178
2805349552 -0.193322 -0.6618
2806835431 -0.191825 -0.662655
2808321310 -0.195312 -0.660697
2809807189 -0.200414 -0.654892
2811293068 -0.193515 -0.653904
2812778947 -0.198417 -0.648637
2814264826 -0.196125 -0.649803
2815750705 -0.197309 -0.642863
2817236584 -0.188768 -0.647289
2818722463 -0.195941 -0.656644
2820208342 -0.191421 -0.650235
2821694221 -0.206328 -0.645121
2823180100 -0.196778 -0.650058
2824665979 -0.196552 -0.654845
2826151858 -0.198026 -0.656927
2827637737 -0.19159 -0.661585
2829123616 -0.196769 -0.656985
2830609495 -0.195105 -0.660484
2832095374 -0.182774 -0.66664
2833581253 -0.192957 -0.661265
2835067132 -0.195051 -0.660379
2836553011 -0.198393 -0.65914
2838038890 -0.192012 -0.663458
2839524769 -0.187207 -0.660794
2841010648 -0.185833 -0.65268
2842496527 -0.190802 -0.648741
2843982406 -0.194407 -0.64923
2845468285 -0.181714 -0.655054
2846954164 -0.192385 -0.646685
2848440043 -0.193946 -0.645006
2849925922 -0.195283 -0.640978
2851411801 -0.182492 -0.65182
2852897680 -0.188303 -0.651965
2854383559 -0.190638 -0.645074
2855869438 -0.193664 -0.654367
2857355317 -0.187812 -0.656689
2858841196 -0.198799 -0.651646
2860327075 -0.190866 -0.659099
2861812954 -0.200145 -0.656458
2863298833 -0.188295 -0.662478
2864784712 -0.191704 -0.653091
2866270591 -0.203041 -0.6512
2867756470 -0.188986 -0.655565
2869242349 -0.205604 -0.640779
2870728228 -0.205559 -0.647083
2872214107 -0.204085 -0.636099
2873699986 -0.207152 -0.637008
2875185865 -0.203826 -0.640221
2876671744 -0.197984 -0.632995
2878157623 -0.201419 -0.636076
2879643502 -0.218278 -0.621127
2881129381 -0.209379 -0.62864
2882615260 -0.210785 -0.628129
2884101139 -0.21506 -0.638504
2885587018 -0.217503 -0.634793
2887072897 -0.215999 -0.640857
2888558776 -0.218353 -0.637798
2890044655 -0.230646 -0.638918
2891530534 -0.216873 -0.642985
2893016413 -0.226354 -0.639645
2894502292 -0.223127 -0.643787
2895988171 -0.191345 -0.657086
2897474050 -0.219066 -0.643119
2898959929 -0.199887 -0.654881
2900445808 -0.230101 -0.643445
2901931687 -0.181529 -0.655461
2903417566 -0.219638 -0.642499
2904903445 -0.18732 -0.648927
2906389324 -0.212296 -0.637698
2907875203 -0.189871 -0.642834
2909361082 -0.213613 -0.633732
2910846961 -0.196287 -0.640502
2912332840 -0.228112 -0.629702
2913818719 -0.205948 -0.643616
2915304598 -0.219611 -0.643779
2916790477 -0.210643 -0.650212
2918276356 -0.220063 -0.643367
2919762235 -0.18563 -0.657373
2921248114 -0.219652 -0.64953
2922733993 -0.180602 -0.664845
2924219872 -0.214928 -0.65107
2925705751 -0.215445 -0.659412
2927191630 -0.213769 -0.653255
2928677509 -0.207559 -0.651976
2930163388 -0.213332 -0.654078
2931649267 -0.213781 -0.654654
2933135146 -0.221355 -0.647308
2934621025 -0.216688 -0.649192
2936106904 -0.21592 -0.642338
2937592783 -0.212929 -0.644133
2939078662 -0.207598 -0.638567
2940564541 -0.202481 -0.640456
2942050420 -0.228228 -0.638752
2943536299 -0.215946 -0.641356
2945022178 -0.216095 -0.645299
2946508057 -0.21077 -0.644973
2947993936 -0.212113 -0.645964
2949479815 -0.214378 -0.649073
2950965694 -0.214513 -0.646076
2952451573 -0.210932 -0.65026
2953937452 -0.205264 -0.644168
2955423331 -0.212079 -0.645849
2956909210 -0.223223 -0.644543
2958395089 -0.21924 -0.646411
2959880968 -0.207565 -0.638496
2961366847 -0.211537 -0.637717
2962852726 -0.216876 -0.635512
2964338605 -0.211421 -0.634588
2965824484 -0.209555 -0.632673
2967310363 -0.20287 -0.629453
2968796242 -0.213008 -0.620455
2970282121 -0.204858 -0.618714
2971768000 -0.210728 -0.622622
2973253879 -0.225385 -0.630391
2974739758 -0.21268 -0.628273
2976225637 -0.220112 -0.626871
2977711516 -0.217747 -0.63405
2979197395 -0.216626 -0.635571
2980683274 -0.216044 -0.638438
2982169153 -0.224788 -0.6407
2983655032 -0.221411 -0.639686
2985140911 -0.219389 -0.63675
2986626790 -0.219515 -0.642383
2988112669 -0.215442 -0.642179
2989598548 -0.221368 -0.634717
2991084427 -0.223549 -0.644692
2992570306 -0.223909 -0.638833
2994056185 -0.21239 -0.637526
2995542064 -0.217496 -0.635545
2997027943 -0.213972 -0.635119
2998513822 -0.213192 -0.635617
2999999701 -0.21187 -0.629531
