# HZ S RI R 50
10000 0.626748 0.030118
1495879 -0.671112 1.495613
2981758 -0.080004 0.534439
4467637 -0.003122 0.296142
5953516 0.02059 0.19649
7439395 0.025886 0.143733
8925274 0.138119 -0.103612
10411153 0.104907 -0.085689
11897032 0.083165 -0.073292
13382911 0.066595 -0.065438
14868790 0.054638 -0.05904
16354669 0.058556 -0.054221
17840548 0.038003 -0.050487
19326427 0.032036 -0.047319
20812306 0.026828 -0.044726
22298185 0.022834 -0.042533
23784064 0.019183 -0.040539
25269943 0.016145 -0.038952
26755822 0.013624 -0.037386
28241701 0.011413 -0.036062
29727580 0.009278 -0.035002
31213459 0.008786 -0.035813
32699338 0.008594 -0.037268
34185217 0.008518 -0.038753
35671096 0.007937 -0.040329
37156975 0.007017 -0.042359
38642854 0.005854 -0.044417
40128733 0.003727 -0.047033
41614612 0.002232 -0.04936
43100491 -0.001487 -0.052521
44586370 -0.006508 -0.056629
46072249 -0.014449 -0.061501
47558128 -0.025274 -0.068274
49044007 -0.043203 -0.078997
50529886 -0.073927 -0.100676
52015765 -0.14114 -0.146289
53501644 -0.267206 -0.330956
54987523 0.193623 -0.987226
56473402 0.590508 -0.283684
57959281 0.445646 -0.111797
59445160 0.395201 -0.053284
60931039 0.390105 -0.035999
62416918 0.390568 -0.038688
63902797 0.392369 -0.042345
65388676 0.392703 -0.046335
66874555 0.395238 -0.046315
68360434 0.388591 -0.076863
69846313 0.397779 -0.042493
71332192 0.398953 -0.037247
72818071 0.396774 -0.053832
74303950 0.397893 -0.05055
75789829 0.401472 -0.026379
77275708 0.402111 -0.030599
78761587 0.400894 -0.027485
80247466 0.391722 -0.069252
81733345 0.395513 -0.055262
83219224 0.392773 -0.058784
84705103 0.39009 -0.068725
86190982 0.397517 -0.022274
87676861 0.388028 -0.068371
89162740 0.387658 -0.058301
90648619 0.386901 -0.064118
92134498 0.388429 -0.06424
93620377 0.392602 -0.055399
95106256 0.392768 -0.065566
96592135 0.393398 -0.063337
98078014 0.394087 -0.063111
99563893 0.396745 -0.062507
101049772 0.396354 -0.067249
102535651 0.397454 -0.070066
104021530 0.397362 -0.069508
105507409 0.397278 -0.070052
106993288 0.396623 -0.071626
108479167 0.39541 -0.071776
109965046 0.394316 -0.072108
111450925 0.394347 -0.072926
112936804 0.392736 -0.072761
114422683 0.392937 -0.072958
115908562 0.391404 -0.074813
117394441 0.387804 -0.076152
118880320 0.386668 -0.076299
120366199 0.386423 -0.077854
121852078 0.388628 -0.078883
123337957 0.389397 -0.079478
124823836 0.390483 -0.080931
126309715 0.392252 -0.081324
127795594 0.393903 -0.084044
129281473 0.395338 -0.084216
130767352 0.395409 -0.085982
132253231 0.39781 -0.086247
133739110 0.397537 -0.087213
135224989 0.391235 -0.09016
136710868 0.391676 -0.090639
138196747 0.390856 -0.090957
139682626 0.390593 -0.091292
141168505 0.389607 -0.091483
142654384 0.389518 -0.092709
144140263 0.388166 -0.093349
145626142 0.38684 -0.093906
147112021 0.384785 -0.093341
148597900 0.384674 -0.09469
150083779 0.382667 -0.095685
151569658 0.384245 -0.096856
153055537 0.385473 -0.09839
154541416 0.386568 -0.099486
156027295 0.387758 -0.100931
157513174 0.388946 -0.101992
158999053 0.389955 -0.103927
160484932 0.390802 -0.103848
161970811 0.390387 -0.105642
163456690 0.390507 -0.105616
164942569 0.390999 -0.106986
166428448 0.39041 -0.107035
167914327 0.390313 -0.108505
169400206 0.389902 -0.108912
170886085 0.388366 -0.109026
172371964 0.387569 -0.111068
173857843 0.385901 -0.110762
175343722 0.384896 -0.111428
176829601 0.382996 -0.11258
178315480 0.380895 -0.113045
179801359 0.37877 -0.113678
181287238 0.380302 -0.115656
182773117 0.382075 -0.11601
184258996 0.383141 -0.117574
185744875 0.384165 -0.118419
187230754 0.385236 -0.120912
188716633 0.386059 -0.121053
190202512 0.386976 -0.122531
191688391 0.387625 -0.12333
193174270 0.387277 -0.123833
194660149 0.387539 -0.124964
196146028 0.387329 -0.125743
197631907 0.387384 -0.125618
199117786 0.386176 -0.126516
200603665 0.384814 -0.126844
202089544 0.382717 -0.12771
203575423 0.38356 -0.127995
205061302 0.380936 -0.129323
206547181 0.37989 -0.128968
208033060 0.376831 -0.130057
209518939 0.376192 -0.131193
211004818 0.375663 -0.132149
212490697 0.378044 -0.134448
213976576 0.378769 -0.135393
215462455 0.37993 -0.136589
216948334 0.380576 -0.13758
218434213 0.382245 -0.138913
219920092 0.381986 -0.139376
221405971 0.382435 -0.140511
222891850 0.383168 -0.141895
224377729 0.383619 -0.1434
225863608 0.382368 -0.142263
227349487 0.382495 -0.143902
228835366 0.381851 -0.145298
230321245 0.379718 -0.145989
231807124 0.380433 -0.146598
233293003 0.377975 -0.146626
234778882 0.376149 -0.147821
236264761 0.375363 -0.148251
237750640 0.373961 -0.148648
239236519 0.371476 -0.148505
240722398 0.371009 -0.150085
242208277 0.372303 -0.151816
243694156 0.373904 -0.153399
245180035 0.374767 -0.154858
246665914 0.376135 -0.156148
248151793 0.376084 -0.157063
249637672 0.378773 -0.159277
251123551 0.377784 -0.160406
252609430 0.378327 -0.160863
254095309 0.378553 -0.162132
255581188 0.378078 -0.162407
257067067 0.378037 -0.163073
258552946 0.377036 -0.164592
260038825 0.375933 -0.16399
261524704 0.374983 -0.165394
263010583 0.373628 -0.16462
264496462 0.372279 -0.166091
265982341 0.370667 -0.16568
267468220 0.368821 -0.166669
268954099 0.366569 -0.167575
270439978 0.365088 -0.16814
271925857 0.366751 -0.170232
273411736 0.368644 -0.171481
274897615 0.369795 -0.172897
276383494 0.371077 -0.174119
277869373 0.37199 -0.176758
279355252 0.372516 -0.177606
280841131 0.37377 -0.17696
282327010 0.373852 -0.179216
283812889 0.37339 -0.18004
285298768 0.372524 -0.180798
286784647 0.372994 -0.180867
288270526 0.372203 -0.181631
289756405 0.372826 -0.181907
291242284 0.370395 -0.183374
292728163 0.368952 -0.182082
294214042 0.367175 -0.18316
295699921 0.365723 -0.182987
297185800 0.364323 -0.18361
298671679 0.36254 -0.183977
300157558 0.360154 -0.183367
301643437 0.361398 -0.185705
303129316 0.363035 -0.187814
304615195 0.364135 -0.188873
306101074 0.365232 -0.190466
307586953 0.366023 -0.192822
309072832 0.36678 -0.193147
310558711 0.367437 -0.194136
312044590 0.367787 -0.194784
313530469 0.367362 -0.196673
315016348 0.368083 -0.196795
316502227 0.367067 -0.198452
317988106 0.365476 -0.197671
319473985 0.365768 -0.198297
320959864 0.365293 -0.198722
322445743 0.365213 -0.198616
323931622 0.362343 -0.196947
325417501 0.361576 -0.198961
326903380 0.358717 -0.198257
328389259 0.357745 -0.198887
329875138 0.354895 -0.198363
331361017 0.355982 -0.201016
332846896 0.356713 -0.202679
334332775 0.35779 -0.203321
335818654 0.359074 -0.206276
337304533 0.360079 -0.20818
338790412 0.361125 -0.210266
340276291 0.36048 -0.211601
341762170 0.361399 -0.212163
343248049 0.361753 -0.211917
344733928 0.362655 -0.215036
346219807 0.361746 -0.214312
347705686 0.360747 -0.216021
349191565 0.360249 -0.21533
350677444 0.359967 -0.216675
352163323 0.357734 -0.216503
353649202 0.357872 -0.216796
355135081 0.355207 -0.21718
356620960 0.353628 -0.216856
358106839 0.352196 -0.217469
359592718 0.350235 -0.216903
361078597 0.349977 -0.218922
362564476 0.350342 -0.220858
364050355 0.35201 -0.223043
365536234 0.352658 -0.224319
367022113 0.353697 -0.226445
368507992 0.354191 -0.227331
369993871 0.353944 -0.22808
371479750 0.35475 -0.229592
372965629 0.355003 -0.230768
374451508 0.355086 -0.231445
375937387 0.353793 -0.231528
377423266 0.350824 -0.234447
378909145 0.352311 -0.233271
380395024 0.351473 -0.23339
381880903 0.351315 -0.232906
383366782 0.347097 -0.234056
384852661 0.347783 -0.23443
386338540 0.345512 -0.234497
387824419 0.34453 -0.234867
389310298 0.34321 -0.233684
390796177 0.343355 -0.235107
392282056 0.343262 -0.237518
393767935 0.344123 -0.238716
395253814 0.345089 -0.240989
396739693 0.343877 -0.243473
398225572 0.345726 -0.243375
399711451 0.347257 -0.244975
401197330 0.347437 -0.245329
402683209 0.346526 -0.247336
404169088 0.347781 -0.247096
405654967 0.346931 -0.249175
407140846 0.345943 -0.250014
408626725 0.345492 -0.249469
410112604 0.343552 -0.250641
411598483 0.344905 -0.250369
413084362 0.343533 -0.250322
414570241 0.341379 -0.250686
416056120 0.340667 -0.250803
417541999 0.338179 -0.250617
419027878 0.336477 -0.250051
420513757 0.336342 -0.249608
421999636 0.336936 -0.252001
423485515 0.337588 -0.254416
424971394 0.336926 -0.256912
426457273 0.340114 -0.257356
427943152 0.341355 -0.258386
429429031 0.339577 -0.25903
430914910 0.340758 -0.260972
432400789 0.340792 -0.261715
433886668 0.339226 -0.262358
435372547 0.340878 -0.262929
436858426 0.339536 -0.2643
438344305 0.339896 -0.264677
439830184 0.338713 -0.263973
441316063 0.337787 -0.263174
442801942 0.336034 -0.265169
444287821 0.334255 -0.264674
445773700 0.333256 -0.264071
447259579 0.332219 -0.263646
448745458 0.327657 -0.264935
450231337 0.327897 -0.263683
451717216 0.328996 -0.26637
453203095 0.328491 -0.268215
454688974 0.329635 -0.268761
456174853 0.331062 -0.27161
457660732 0.331311 -0.273413
459146611 0.333932 -0.274965
460632490 0.333322 -0.274883
462118369 0.333165 -0.277133
463604248 0.332764 -0.27762
465090127 0.331287 -0.278868
466576006 0.33209 -0.279407
468061885 0.331383 -0.27921
469547764 0.330621 -0.27907
471033643 0.329186 -0.280228
472519522 0.328049 -0.279608
474005401 0.326808 -0.278599
475491280 0.3252 -0.2795
476977159 0.323563 -0.279008
478463038 0.321934 -0.279846
479948917 0.319197 -0.278807
481434796 0.321041 -0.281853
482920675 0.321 -0.284712
484406554 0.321983 -0.286513
485892433 0.322813 -0.287073
487378312 0.323501 -0.289655
488864191 0.323929 -0.288809
490350070 0.324067 -0.291173
491835949 0.324372 -0.292901
493321828 0.324739 -0.293085
494807707 0.324346 -0.293921
496293586 0.323467 -0.294728
497779465 0.324023 -0.294672
499265344 0.323287 -0.294747
500751223 0.321678 -0.295564
502237102 0.320221 -0.295833
503722981 0.318974 -0.295005
505208860 0.317573 -0.295838
506694739 0.315521 -0.29401
508180618 0.314463 -0.295079
509666497 0.311062 -0.29446
511152376 0.313239 -0.295785
512638255 0.314517 -0.298568
514124134 0.314268 -0.299811
515610013 0.313839 -0.302705
517095892 0.316378 -0.304552
518581771 0.316266 -0.305626
520067650 0.315347 -0.306414
521553529 0.31631 -0.305968
523039408 0.316222 -0.308307
524525287 0.316125 -0.307285
526011166 0.316182 -0.307701
527497045 0.314397 -0.30892
528982924 0.313757 -0.308962
530468803 0.31306 -0.310776
531954682 0.31288 -0.309258
533440561 0.30955 -0.309208
534926440 0.309109 -0.309518
536412319 0.307189 -0.308749
537898198 0.305085 -0.308019
539384077 0.303198 -0.30704
540869956 0.3024 -0.309756
542355835 0.303171 -0.311984
543841714 0.303571 -0.312314
545327593 0.305062 -0.315659
546813472 0.305897 -0.31724
548299351 0.305285 -0.318589
549785230 0.307521 -0.319513
551271109 0.306547 -0.320333
552756988 0.306099 -0.322294
554242867 0.305986 -0.322061
555728746 0.30456 -0.323845
557214625 0.305526 -0.322642
558700504 0.304728 -0.324599
560186383 0.302756 -0.322702
561672262 0.301974 -0.322133
563158141 0.302236 -0.322243
564644020 0.30016 -0.322182
566129899 0.298323 -0.321883
567615778 0.296133 -0.321901
569101657 0.294218 -0.320479
570587536 0.293787 -0.320392
572073415 0.293915 -0.323236
573559294 0.295555 -0.326559
575045173 0.294047 -0.329884
576531052 0.294686 -0.330666
578016931 0.296151 -0.331612
579502810 0.29612 -0.334515
580988689 0.295471 -0.335653
582474568 0.297415 -0.33657
583960447 0.297308 -0.337512
585446326 0.296169 -0.339711
586932205 0.295247 -0.338017
588418084 0.294863 -0.339115
589903963 0.293921 -0.338842
591389842 0.293115 -0.338934
592875721 0.291942 -0.338546
594361600 0.290388 -0.339854
595847479 0.291203 -0.337148
597333358 0.287954 -0.338217
598819237 0.286972 -0.33827
600305116 0.285084 -0.337352
601790995 0.285769 -0.341012
603276874 0.286973 -0.341606
604762753 0.287129 -0.342499
606248632 0.287045 -0.346071
607734511 0.286965 -0.346969
609220390 0.288812 -0.348603
610706269 0.288413 -0.349259
612192148 0.289403 -0.349661
613678027 0.288131 -0.353322
615163906 0.288565 -0.351247
616649785 0.286468 -0.353626
618135664 0.286712 -0.353421
619621543 0.285086 -0.35363
621107422 0.285641 -0.352244
622593301 0.284298 -0.353219
624079180 0.283663 -0.351334
625565059 0.281169 -0.350362
627050938 0.28011 -0.350363
628536817 0.276725 -0.349107
630022696 0.277147 -0.348293
631508575 0.27626 -0.350976
632994454 0.276892 -0.35413
634480333 0.278257 -0.354517
635966212 0.278483 -0.357476
637452091 0.276861 -0.358069
638937970 0.277488 -0.360475
640423849 0.277161 -0.36054
641909728 0.275882 -0.36118
643395607 0.27618 -0.361806
644881486 0.277366 -0.362709
646367365 0.276671 -0.362606
647853244 0.275691 -0.362954
649339123 0.273021 -0.362954
650825002 0.271617 -0.362683
652310881 0.270865 -0.362954
653796760 0.269705 -0.361807
655282639 0.280326 -0.356393
656768518 0.267367 -0.359676
658254397 0.265227 -0.359621
659740276 0.263733 -0.357677
661226155 0.26394 -0.361565
662712034 0.263065 -0.363257
664197913 0.261566 -0.365593
665683792 0.262084 -0.367372
667169671 0.263107 -0.368859
668655550 0.263323 -0.371453
670141429 0.263297 -0.371722
671627308 0.263494 -0.375184
673113187 0.263606 -0.374496
674599066 0.261661 -0.375059
676084945 0.261088 -0.376315
677570824 0.262672 -0.377673
679056703 0.261944 -0.378939
680542582 0.260757 -0.377356
682028461 0.258559 -0.378047
683514340 0.258312 -0.378631
685000219 0.255946 -0.37699
686486098 0.254929 -0.376861
687971977 0.254929 -0.375381
689457856 0.25135 -0.37466
690943735 0.250248 -0.376524
692429614 0.252752 -0.38041
693915493 0.252749 -0.381023
695401372 0.254651 -0.38253
696887251 0.252454 -0.385595
698373130 0.253854 -0.386922
699859009 0.255891 -0.388772
701344888 0.256614 -0.389401
702830767 0.25579 -0.390579
704316646 0.255181 -0.391144
705802525 0.257629 -0.391616
707288404 0.254904 -0.391045
708774283 0.255794 -0.389676
710260162 0.255804 -0.390971
711746041 0.254629 -0.390505
713231920 0.254368 -0.389933
714717799 0.253899 -0.389264
716203678 0.253284 -0.386866
717689557 0.25091 -0.386842
719175436 0.250137 -0.384087
720661315 0.249216 -0.385133
722147194 0.248187 -0.389514
723633073 0.249384 -0.389605
725118952 0.248638 -0.392395
726604831 0.251985 -0.392419
728090710 0.249997 -0.395588
729576589 0.249773 -0.396232
731062468 0.250868 -0.397494
732548347 0.250983 -0.397661
734034226 0.251932 -0.400113
735520105 0.249375 -0.400146
737005984 0.249977 -0.400907
738491863 0.251461 -0.39955
739977742 0.249313 -0.39984
741463621 0.24864 -0.400809
742949500 0.247156 -0.399112
744435379 0.24627 -0.398049
745921258 0.244677 -0.397223
747407137 0.243012 -0.39635
748893016 0.240628 -0.395181
750378895 0.239025 -0.395657
751864774 0.24043 -0.396763
753350653 0.240288 -0.400432
754836532 0.238734 -0.402331
756322411 0.24016 -0.403884
757808290 0.238928 -0.405972
759294169 0.241126 -0.406501
760780048 0.238435 -0.408012
762265927 0.238707 -0.409339
763751806 0.23854 -0.410714
765237685 0.238384 -0.40995
766723564 0.238778 -0.410043
768209443 0.237108 -0.410487
769695322 0.229784 -0.414183
771181201 0.236081 -0.411237
772667080 0.23329 -0.410503
774152959 0.232288 -0.410648
775638838 0.2325 -0.408497
777124717 0.230264 -0.408542
778610596 0.227503 -0.406608
780096475 0.227493 -0.405265
781582354 0.225596 -0.408497
783068233 0.228285 -0.410336
784554112 0.227621 -0.41419
786039991 0.228857 -0.415728
787525870 0.226989 -0.416246
789011749 0.226226 -0.419866
790497628 0.229412 -0.422481
791983507 0.228438 -0.421516
793469386 0.229466 -0.42236
794955265 0.229618 -0.421607
796441144 0.230439 -0.423627
797927023 0.227071 -0.423664
799412902 0.226459 -0.424135
800898781 0.227363 -0.420928
802384660 0.227648 -0.421476
803870539 0.225951 -0.421974
805356418 0.22251 -0.421505
806842297 0.222357 -0.417626
808328176 0.221425 -0.417423
809814055 0.220191 -0.41546
811299934 0.220789 -0.41881
812785813 0.220259 -0.420767
814271692 0.220365 -0.422639
815757571 0.220449 -0.426076
817243450 0.222343 -0.426808
818729329 0.220166 -0.428377
820215208 0.220131 -0.430558
821701087 0.219644 -0.431641
823186966 0.219554 -0.431663
824672845 0.221 -0.432427
826158724 0.219831 -0.431625
827644603 0.219625 -0.432808
829130482 0.218512 -0.432371
830616361 0.216867 -0.431381
832102240 0.217862 -0.432206
833588119 0.216772 -0.432455
835073998 0.215621 -0.428848
836559877 0.213812 -0.42821
838045756 0.21481 -0.428527
839531635 0.209891 -0.427123
841017514 0.209624 -0.427248
842503393 0.209966 -0.430392
843989272 0.208627 -0.432402
845475151 0.209224 -0.434068
846961030 0.211141 -0.438284
848446909 0.210198 -0.439452
849932788 0.210657 -0.440282
851418667 0.209902 -0.440129
852904546 0.209389 -0.44225
854390425 0.208808 -0.44322
855876304 0.206338 -0.442598
857362183 0.208104 -0.44377
858848062 0.208196 -0.44409
860333941 0.207454 -0.443353
861819820 0.206874 -0.444214
863305699 0.204598 -0.443503
864791578 0.207021 -0.442842
866277457 0.203742 -0.441461
867763336 0.203027 -0.439723
869249215 0.20097 -0.43804
870735094 0.199809 -0.439822
872220973 0.199626 -0.442826
873706852 0.198675 -0.444247
875192731 0.20061 -0.446093
876678610 0.200567 -0.447498
878164489 0.20004 -0.450965
879650368 0.199173 -0.450944
881136247 0.200079 -0.453634
882622126 0.19679 -0.45431
884108005 0.197852 -0.455036
885593884 0.198724 -0.453706
887079763 0.197783 -0.454104
888565642 0.196906 -0.454848
890051521 0.199852 -0.454287
891537400 0.196173 -0.45515
893023279 0.194057 -0.453663
894509158 0.193841 -0.452846
895995037 0.194462 -0.450177
897480916 0.192572 -0.449102
898966795 0.189451 -0.450135
900452674 0.189418 -0.448407
901938553 0.18858 -0.449765
903424432 0.190272 -0.451404
904910311 0.190511 -0.455241
906396190 0.191394 -0.456868
907882069 0.189462 -0.457382
909367948 0.189158 -0.459501
910853827 0.19242 -0.457914
912339706 0.190652 -0.460513
913825585 0.190075 -0.461304
915311464 0.189691 -0.462293
916797343 0.188934 -0.46013
918283222 0.189058 -0.460284
919769101 0.18721 -0.46008
921254980 0.186176 -0.460676
922740859 0.185022 -0.459219
924226738 0.186505 -0.457523
925712617 0.184794 -0.456834
927198496 0.183235 -0.455288
928684375 0.18252 -0.454223
930170254 0.18032 -0.451512
931656133 0.179576 -0.455286
933142012 0.181231 -0.45722
934627891 0.180319 -0.458472
936113770 0.182898 -0.460992
937599649 0.181203 -0.462231
939085528 0.180416 -0.464791
940571407 0.179379 -0.465884
942057286 0.179478 -0.466519
943543165 0.178183 -0.468019
945029044 0.179488 -0.468134
946514923 0.178616 -0.468596
948000802 0.178433 -0.468783
949486681 0.178994 -0.469126
950972560 0.177724 -0.467791
952458439 0.176823 -0.46764
953944318 0.174069 -0.465975
955430197 0.173731 -0.46488
956916076 0.17411 -0.465215
958401955 0.173953 -0.461954
959887834 0.170008 -0.462613
961373713 0.172027 -0.46399
962859592 0.170658 -0.465681
964345471 0.170656 -0.466835
965831350 0.172381 -0.469843
967317229 0.17214 -0.471344
968803108 0.1708 -0.473741
970288987 0.172441 -0.474697
971774866 0.17025 -0.475509
973260745 0.169752 -0.476119
974746624 0.171089 -0.478346
976232503 0.170937 -0.476024
977718382 0.170276 -0.475885
979204261 0.170876 -0.476782
980690140 0.169375 -0.475292
982176019 0.164099 -0.475643
983661898 0.169115 -0.474961
985147777 0.166626 -0.472945
986633656 0.166424 -0.471405
988119535 0.165524 -0.47073
989605414 0.163375 -0.468279
991091293 0.164589 -0.469122
992577172 0.160915 -0.473206
994063051 0.163802 -0.47413
995548930 0.164142 -0.475622
997034809 0.162516 -0.478267
998520688 0.162072 -0.480172
1000006567 0.161618 -0.480762
1001492446 0.162592 -0.480943
1002978325 0.16102 -0.483086
1004464204 0.160421 -0.483109
1005950083 0.159975 -0.483742
1007435962 0.160655 -0.484912
1008921841 0.159601 -0.483023
1010407720 0.158078 -0.481721
1011893599 0.157105 -0.482174
1013379478 0.155874 -0.482739
1014865357 0.156094 -0.479629
1016351236 0.155691 -0.478991
1017837115 0.153953 -0.476723
1019322994 0.150401 -0.474436
1020808873 0.152353 -0.475423
1022294752 0.149835 -0.478995
1023780631 0.1489 -0.481522
1025266510 0.152537 -0.482662
1026752389 0.150599 -0.486176
1028238268 0.148366 -0.487251
1029724147 0.148283 -0.488397
1031210026 0.150373 -0.489693
1032695905 0.148661 -0.491259
1034181784 0.148995 -0.491741
1035667663 0.148511 -0.492288
1037153542 0.147414 -0.491891
1038639421 0.14658 -0.493545
1040125300 0.14486 -0.4924
1041611179 0.147871 -0.491908
1043097058 0.144692 -0.490527
1044582937 0.145919 -0.489831
1046068816 0.14398 -0.489494
1047554695 0.143577 -0.486935
1049040574 0.143368 -0.487367
1050526453 0.141675 -0.484768
1052012332 0.140593 -0.486445
1053498211 0.141763 -0.490505
1054984090 0.140091 -0.492021
1056469969 0.138348 -0.494852
1057955848 0.138876 -0.497003
1059441727 0.14163 -0.496786
1060927606 0.140596 -0.498413
1062413485 0.140686 -0.499922
1063899364 0.14153 -0.500135
1065385243 0.141991 -0.50105
1066871122 0.141875 -0.500037
1068357001 0.141258 -0.499677
1069842880 0.140882 -0.50576
1071328759 0.139888 -0.497525
1072814638 0.139696 -0.498209
1074300517 0.140695 -0.495479
1075786396 0.136516 -0.493117
1077272275 0.13923 -0.490386
1078758154 0.137387 -0.488814
1080244033 0.134579 -0.488535
1081729912 0.135752 -0.49184
1083215791 0.134225 -0.495007
1084701670 0.135521 -0.495376
1086187549 0.134036 -0.497558
1087673428 0.136387 -0.499346
1089159307 0.134203 -0.501434
1090645186 0.132697 -0.502624
1092131065 0.130476 -0.503884
1093616944 0.134268 -0.503497
1095102823 0.130982 -0.503348
1096588702 0.134773 -0.501924
1098074581 0.131646 -0.502063
1099560460 0.133565 -0.502224
1101046339 0.12947 -0.502396
1102532218 0.130579 -0.502238
1104018097 0.131252 -0.500228
1105503976 0.130193 -0.498051
1106989855 0.127298 -0.496126
1108475734 0.125907 -0.494831
1109961613 0.125667 -0.491095
1111447492 0.12459 -0.494353
1112933371 0.126526 -0.496812
1114419250 0.12479 -0.499922
1115905129 0.122762 -0.502473
1117391008 0.122403 -0.505052
1118876887 0.121474 -0.505729
1120362766 0.124305 -0.507444
1121848645 0.123453 -0.50781
1123334524 0.141183 -0.511064
1124820403 0.123112 -0.511726
1126306282 0.123763 -0.511278
1127792161 0.121051 -0.509291
1129278040 0.121781 -0.509684
1130763919 0.124262 -0.509575
1132249798 0.122005 -0.508537
1133735677 0.120128 -0.507793
1135221556 0.118174 -0.506753
1136707435 0.120748 -0.504978
1138193314 0.119358 -0.50155
1139679193 0.116814 -0.502543
1141165072 0.118907 -0.503888
1142650951 0.116474 -0.506294
1144136830 0.114747 -0.50791
1145622709 0.113118 -0.511343
1147108588 0.112686 -0.511922
1148594467 0.11231 -0.513899
1150080346 0.11095 -0.51531
1151566225 0.111863 -0.516161
1153052104 0.110531 -0.517991
1154537983 0.108108 -0.515467
1156023862 0.110877 -0.519097
1157509741 0.112501 -0.516254
1158995620 0.110173 -0.517626
1160481499 0.107252 -0.515943
1161967378 0.109901 -0.514061
1163453257 0.10925 -0.515718
1164939136 0.105172 -0.514417
1166425015 0.106897 -0.512507
1167910894 0.106316 -0.508887
1169396773 0.104455 -0.50843
1170882652 0.10726 -0.507679
1172368531 0.105101 -0.512939
1173854410 0.104233 -0.514698
1175340289 0.102944 -0.515441
1176826168 0.100755 -0.518512
1178312047 0.105171 -0.519099
1179797926 0.101986 -0.521606
1181283805 0.100243 -0.521973
1182769684 0.10078 -0.521961
1184255563 0.107532 -0.522913
1185741442 0.100168 -0.527055
1187227321 0.101455 -0.522877
1188713200 0.10302 -0.522635
1190199079 0.101984 -0.522682
1191684958 0.100511 -0.51973
1193170837 0.100317 -0.519888
1194656716 0.10027 -0.518749
1196142595 0.095717 -0.516602
1197628474 0.098435 -0.513327
1199114353 0.0988 -0.514131
1200600232 0.098526 -0.513862
1202086111 0.085143 -0.515256
1203571990 0.097896 -0.519091
1205057869 0.093473 -0.520593
1206543748 0.093649 -0.522533
1208029627 0.097622 -0.522991
1209515506 0.095819 -0.524822
1211001385 0.091934 -0.525387
1212487264 0.09358 -0.525539
1213973143 0.092528 -0.525564
1215459022 0.093055 -0.52792
1216944901 0.089441 -0.524844
1218430780 0.090914 -0.526481
1219916659 0.08991 -0.526357
1221402538 0.090655 -0.526612
1222888417 0.090033 -0.52544
1224374296 0.090971 -0.52232
1225860175 0.08743 -0.522251
1227346054 0.088289 -0.519282
1228831933 0.084716 -0.519466
1230317812 0.087522 -0.519323
1231803691 0.085694 -0.520677
1233289570 0.088779 -0.520495
1234775449 0.090474 -0.523653
1236261328 0.08769 -0.528093
1237747207 0.086116 -0.529498
1239233086 0.086355 -0.530241
1240718965 0.089649 -0.533117
1242204844 0.088398 -0.535205
1243690723 0.08992 -0.535238
1245176602 0.088058 -0.53351
1246662481 0.090663 -0.534599
1248148360 0.091646 -0.535713
1249634239 0.094651 -0.533109
1251120118 0.089421 -0.533054
1252605997 0.094758 -0.530148
1254091876 0.093665 -0.531076
1255577755 0.092002 -0.527447
1257063634 0.089252 -0.527184
1258549513 0.096532 -0.522561
1260035392 0.090504 -0.521649
1261521271 0.087 -0.524449
1263007150 0.086243 -0.52744
1264493029 0.086064 -0.528884
1265978908 0.087039 -0.531512
1267464787 0.085669 -0.530801
1268950666 0.085152 -0.53489
1270436545 0.084198 -0.534505
1271922424 0.081408 -0.535883
1273408303 0.081231 -0.535636
1274894182 0.084491 -0.536132
1276380061 0.084844 -0.537223
1277865940 0.080319 -0.537153
1279351819 0.078004 -0.535825
1280837698 0.078481 -0.535196
1282323577 0.078813 -0.53466
1283809456 0.076287 -0.533381
1285295335 0.07533 -0.532381
1286781214 0.072168 -0.531034
1288267093 0.071016 -0.529418
1289752972 0.067388 -0.5282
1291238851 0.068048 -0.529415
1292724730 0.067495 -0.532767
1294210609 0.069116 -0.534249
1295696488 0.068807 -0.534406
1297182367 0.065881 -0.536235
1298668246 0.068049 -0.536134
1300154125 0.068919 -0.537742
1301640004 0.065763 -0.538928
1303125883 0.066062 -0.537436
1304611762 0.065091 -0.539087
1306097641 0.06786 -0.538725
1307583520 0.063721 -0.536409
1309069399 0.064006 -0.535626
1310555278 0.063584 -0.535109
1312041157 0.061212 -0.533617
1313527036 0.062489 -0.532533
1315012915 0.060491 -0.531185
1316498794 0.059311 -0.527866
1317984673 0.057902 -0.525372
1319470552 0.057586 -0.523638
1320956431 0.056992 -0.524235
1322442310 0.054273 -0.52836
1323928189 0.051726 -0.530494
1325414068 0.053876 -0.534481
1326899947 0.05442 -0.536653
1328385826 0.053901 -0.539102
1329871705 0.056234 -0.540785
1331357584 0.054444 -0.541858
1332843463 0.053421 -0.546345
1334329342 0.057553 -0.54496
1335815221 0.060362 -0.546696
1337301100 0.059195 -0.545401
1338786979 0.057272 -0.545178
1340272858 0.057854 -0.547581
1341758737 0.05812 -0.547031
1343244616 0.057478 -0.545282
1344730495 0.05799 -0.542923
1346216374 0.056418 -0.541078
1347702253 0.054328 -0.538105
1349188132 0.054196 -0.537262
1350674011 0.052895 -0.535447
1352159890 0.053814 -0.53981
1353645769 0.053799 -0.542186
1355131648 0.053144 -0.547397
1356617527 0.053257 -0.54866
1358103406 0.056943 -0.549782
1359589285 0.053445 -0.552938
1361075164 0.05283 -0.554389
1362561043 0.053491 -0.554004
1364046922 0.050683 -0.556121
1365532801 0.050407 -0.557696
1367018680 0.049131 -0.554462
1368504559 0.051176 -0.554679
1369990438 0.052907 -0.555747
1371476317 0.049902 -0.553613
1372962196 0.051849 -0.554421
1374448075 0.050793 -0.553038
1375933954 0.050946 -0.549054
1377419833 0.051675 -0.548289
1378905712 0.044709 -0.54611
1380391591 0.048296 -0.54583
1381877470 0.045324 -0.547821
1383363349 0.045104 -0.549223
1384849228 0.047007 -0.552969
1386335107 0.044105 -0.555812
1387820986 0.042792 -0.555512
1389306865 0.047154 -0.557796
1390792744 0.045577 -0.558243
1392278623 0.042834 -0.561133
1393764502 0.044846 -0.563625
1395250381 0.04519 -0.56229
1396736260 0.045011 -0.562429
1398222139 0.044558 -0.558867
1399708018 0.046725 -0.561245
1401193897 0.042809 -0.558614
1402679776 0.044256 -0.554462
1404165655 0.043322 -0.555401
1405651534 0.043151 -0.549691
1407137413 0.038675 -0.549945
1408623292 0.042711 -0.544163
1410109171 0.04065 -0.544343
1411595050 0.039198 -0.546776
1413080929 0.037791 -0.550209
1414566808 0.036638 -0.552569
1416052687 0.040288 -0.554614
1417538566 0.03685 -0.558195
1419024445 0.034469 -0.557683
1420510324 0.033962 -0.561076
1421996203 0.039137 -0.563349
1423482082 0.034875 -0.563808
1424967961 0.032706 -0.564002
1426453840 0.036057 -0.568123
1427939719 0.03713 -0.566092
1429425598 0.035877 -0.563195
1430911477 0.035592 -0.562366
1432397356 0.033859 -0.561329
1433883235 0.033861 -0.562097
1435369114 0.0318 -0.562084
1436854993 0.031349 -0.556824
1438340872 0.030175 -0.555548
1439826751 0.034978 -0.553573
1441312630 0.031126 -0.555705
1442798509 0.029019 -0.558255
1444284388 0.033942 -0.559299
1445770267 0.032892 -0.561773
1447256146 0.030602 -0.563327
1448742025 0.031375 -0.565206
1450227904 0.030898 -0.566579
1451713783 0.031732 -0.56793
1453199662 0.031191 -0.568504
1454685541 0.035171 -0.567654
1456171420 0.031894 -0.568348
1457657299 0.031999 -0.568111
1459143178 0.028739 -0.567171
1460629057 0.030918 -0.564834
1462114936 0.033355 -0.563931
1463600815 0.031934 -0.56034
1465086694 0.032005 -0.55921
1466572573 0.029312 -0.554764
1468058452 0.029398 -0.553474
1469544331 0.029257 -0.549955
1471030210 0.029372 -0.551143
1472516089 0.027462 -0.553438
1474001968 0.024722 -0.557787
1475487847 0.028064 -0.559948
1476973726 0.028671 -0.562239
1478459605 0.019882 -0.564056
1479945484 0.022504 -0.565327
1481431363 0.023927 -0.567482
1482917242 0.022814 -0.567159
1484403121 0.021604 -0.568598
1485889000 0.024824 -0.568674
1487374879 0.024384 -0.568421
1488860758 0.021793 -0.568084
1490346637 0.020367 -0.568175
1491832516 0.023749 -0.565879
1493318395 0.025012 -0.564155
1494804274 0.022007 -0.564631
1496290153 0.020319 -0.561646
1497776032 0.021409 -0.559578
1499261911 0.024021 -0.556039
1500747790 0.021631 -0.556576
1502233669 0.021276 -0.559336
1503719548 0.017445 -0.561581
1505205427 0.01715 -0.563855
1506691306 0.016254 -0.566409
1508177185 0.015247 -0.567395
1509663064 0.014744 -0.569548
1511148943 0.017454 -0.571926
1512634822 0.014569 -0.569323
1514120701 0.015377 -0.569796
1515606580 0.016385 -0.57211
1517092459 0.016456 -0.571332
1518578338 0.016172 -0.571732
1520064217 0.017636 -0.568149
1521550096 0.01722 -0.568606
1523035975 0.015858 -0.567155
1524521854 0.013996 -0.566092
1526007733 0.013915 -0.563109
1527493612 0.017678 -0.559408
1528979491 0.015124 -0.557795
1530465370 0.015445 -0.55618
1531951249 0.012642 -0.558706
1533437128 0.011912 -0.562674
1534923007 0.010496 -0.563928
1536408886 0.006912 -0.564168
1537894765 0.008984 -0.565795
1539380644 0.010265 -0.569183
1540866523 0.008342 -0.568214
1542352402 0.010454 -0.57206
1543838281 0.006293 -0.570476
1545324160 0.004939 -0.570051
1546810039 0.005151 -0.567502
1548295918 0.00265 -0.572063
1549781797 0.004324 -0.570623
1551267676 0.000767 -0.566447
1552753555 0.00401 -0.565263
1554239434 0.001548 -0.566831
1555725313 0.001288 -0.56227
1557211192 0.00084 -0.563007
1558697071 0.005573 -0.557515
1560182950 0.002414 -0.556973
1561668829 0.000745 -0.559691
1563154708 0.000745 -0.562805
1564640587 0.000786 -0.564687
1566126466 -0.001328 -0.569246
1567612345 -0.002005 -0.570113
1569098224 -0.001444 -0.570744
1570584103 -0.000406 -0.571963
1572069982 -0.000858 -0.575598
1573555861 -0.000818 -0.57562
1575041740 -0.003445 -0.574426
1576527619 -0.000971 -0.573492
1578013498 -0.000201 -0.570068
1579499377 -0.000919 -0.572686
1580985256 -0.001481 -0.570879
1582471135 -0.000611 -0.571266
1583957014 0.003167 -0.56969
1585442893 0.002206 -0.567549
1586928772 -0.000993 -0.564847
1588414651 -0.006919 -0.56243
1589900530 -0.00469 -0.558793
1591386409 -0.004413 -0.562581
1592872288 -0.003189 -0.565397
1594358167 -0.00626 -0.568946
1595844046 -0.007118 -0.569972
1597329925 -0.006997 -0.572991
1598815804 -0.006325 -0.574742
1600301683 -0.00907 -0.576907
1601787562 -0.006281 -0.578333
1603273441 -0.007034 -0.576726
1604759320 -0.005369 -0.57927
1606245199 -0.007333 -0.581095
1607731078 -0.004383 -0.579224
1609216957 -0.003808 -0.579427
1610702836 -0.006427 -0.579685
1612188715 -0.005401 -0.577673
1613674594 -0.004221 -0.575829
1615160473 -0.005194 -0.573226
1616646352 -0.013524 -0.570246
1618132231 -0.00994 -0.567552
1619618110 -0.009356 -0.56631
1621103989 -0.009364 -0.569391
1622589868 -0.009655 -0.57037
1624075747 -0.011929 -0.571921
1625561626 -0.010809 -0.57618
1627047505 -0.011989 -0.577192
1628533384 -0.009679 -0.580932
1630019263 -0.010103 -0.581767
1631505142 -0.014501 -0.58202
1632991021 -0.010145 -0.581714
1634476900 -0.01141 -0.582114
1635962779 -0.009821 -0.582698
1637448658 -0.012895 -0.581
1638934537 -0.013361 -0.579363
1640420416 -0.012605 -0.580016
1641906295 -0.014955 -0.576792
1643392174 -0.014438 -0.575597
1644878053 -0.01292 -0.574913
1646363932 -0.017957 -0.569249
1647849811 -0.013437 -0.568557
1649335690 -0.014685 -0.56558
1650821569 -0.018405 -0.567267
1652307448 -0.018446 -0.56862
1653793327 -0.0208 -0.571339
1655279206 -0.021781 -0.574009
1656765085 -0.019454 -0.576294
1658250964 -0.017176 -0.578983
1659736843 -0.017331 -0.580978
1661222722 -0.020806 -0.58218
1662708601 -0.018013 -0.583745
1664194480 -0.0211 -0.582059
1665680359 -0.020329 -0.582027
1667166238 -0.018943 -0.581946
1668652117 -0.020333 -0.583196
1670137996 -0.017928 -0.58031
1671623875 -0.020239 -0.578082
1673109754 -0.018977 -0.577207
1674595633 -0.023306 -0.574427
1676081512 -0.020176 -0.571634
1677567391 -0.020181 -0.569125
1679053270 -0.020555 -0.565344
1680539149 -0.023277 -0.564603
1682025028 -0.014082 -0.668387
1683510907 -0.022375 -0.574473
1684996786 -0.027202 -0.575734
1686482665 -0.035356 -0.573505
1687968544 -0.024467 -0.580615
1689454423 -0.02258 -0.582242
1690940302 -0.02733 -0.580952
1692426181 -0.029092 -0.583268
1693912060 -0.029874 -0.582971
1695397939 -0.026354 -0.583658
1696883818 -0.024995 -0.583881
1698369697 -0.024092 -0.584336
1699855576 -0.023325 -0.582203
1701341455 -0.028675 -0.578502
1702827334 -0.023739 -0.580499
1704313213 -0.024024 -0.58012
1705799092 -0.028584 -0.572566
1707284971 -0.025297 -0.571052
1708770850 -0.027714 -0.568253
1710256729 -0.027555 -0.565972
1711742608 -0.035893 -0.566501
1713228487 -0.031763 -0.574126
1714714366 -0.0327 -0.576576
1716200245 -0.030541 -0.580314
1717686124 -0.034845 -0.580276
1719172003 -0.030557 -0.586653
1720657882 -0.030596 -0.586952
1722143761 -0.036227 -0.584975
1723629640 -0.030236 -0.59068
1725115519 -0.030702 -0.588147
1726601398 -0.040065 -0.588024
1728087277 -0.030913 -0.590179
1729573156 -0.029634 -0.585086
1731059035 -0.031013 -0.587402
1732544914 -0.031818 -0.58506
1734030793 -0.031945 -0.58479
1735516672 -0.030311 -0.583115
1737002551 -0.059818 -0.511933
1738488430 -0.033942 -0.575391
1739974309 -0.031031 -0.573852
1741460188 -0.032066 -0.576401
1742946067 -0.031853 -0.58139
1744431946 -0.035421 -0.581422
1745917825 -0.037297 -0.583587
1747403704 -0.035744 -0.587681
1748889583 -0.037663 -0.587266
1750375462 -0.038131 -0.592261
1751861341 -0.041588 -0.589802
1753347220 -0.038191 -0.591919
1754833099 -0.040831 -0.591631
1756318978 -0.03516 -0.592499
1757804857 -0.038085 -0.592038
1759290736 -0.03895 -0.592698
1760776615 -0.035939 -0.588156
1762262494 -0.040859 -0.590643
1763748373 -0.039843 -0.587508
1765234252 -0.043183 -0.587375
1766720131 -0.03638 -0.583643
1768206010 -0.039439 -0.578258
1769691889 -0.040165 -0.574065
1771177768 -0.044157 -0.576314
1772663647 -0.034769 -0.578825
1774149526 -0.045161 -0.58501
1775635405 -0.045056 -0.585808
1777121284 -0.044387 -0.585427
1778607163 -0.049811 -0.585737
1780093042 -0.042611 -0.589949
1781578921 -0.050628 -0.591932
1783064800 -0.052681 -0.590026
1784550679 -0.043207 -0.591201
1786036558 -0.051984 -0.590305
1787522437 -0.046932 -0.588612
1789008316 -0.047983 -0.589328
1790494195 -0.045438 -0.586772
1791980074 -0.048933 -0.585736
1793465953 -0.04662 -0.582847
1794951832 -0.05223 -0.578852
1796437711 -0.048532 -0.579083
1797923590 -0.05286 -0.574885
1799409469 -0.04745 -0.573426
1800895348 -0.049313 -0.572762
1802381227 -0.056566 -0.576042
1803867106 -0.055706 -0.581054
1805352985 -0.052914 -0.58307
1806838864 -0.059756 -0.585348
1808324743 -0.065467 -0.580221
1809810622 -0.05308 -0.583421
1811296501 -0.055168 -0.589774
1812782380 -0.062884 -0.58671
1814268259 -0.05839 -0.588559
1815754138 -0.056436 -0.586591
1817240017 -0.063607 -0.589353
1818725896 -0.058335 -0.589868
1820211775 -0.059151 -0.588362
1821697654 -0.058862 -0.586656
1823183533 -0.055493 -0.586211
1824669412 -0.061645 -0.580012
1826155291 -0.052346 -0.581728
1827641170 -0.053221 -0.579212
1829127049 -0.05757 -0.57478
1830612928 -0.064176 -0.575738
1832098807 -0.05736 -0.576767
1833584686 -0.059783 -0.582718
1835070565 -0.060589 -0.583233
1836556444 -0.058888 -0.586894
1838042323 -0.060993 -0.58727
1839528202 -0.067685 -0.591231
1841014081 -0.06234 -0.591558
1842499960 -0.063345 -0.589878
1843985839 -0.068397 -0.591622
1845471718 -0.064387 -0.591676
1846957597 -0.061334 -0.592398
1848443476 -0.063192 -0.58849
1849929355 -0.066788 -0.589737
1851415234 -0.063713 -0.588155
1852901113 -0.062945 -0.59034
1854386992 -0.062626 -0.5812
1855872871 -0.065042 -0.580214
1857358750 -0.066475 -0.580108
1858844629 -0.067286 -0.576388
1860330508 -0.067962 -0.577437
1861816387 -0.066524 -0.579211
1863302266 -0.070167 -0.582185
1864788145 -0.06925 -0.585755
1866274024 -0.071665 -0.586843
1867759903 -0.065773 -0.586507
1869245782 -0.067331 -0.589272
1870731661 -0.068364 -0.589552
1872217540 -0.067286 -0.591783
1873703419 -0.06909 -0.590554
1875189298 -0.068569 -0.592265
1876675177 -0.069267 -0.592733
1878161056 -0.067977 -0.589809
1879646935 -0.066185 -0.589085
1881132814 -0.065817 -0.589036
1882618693 -0.070186 -0.58939
1884104572 -0.064558 -0.58529
1885590451 -0.073748 -0.585357
1887076330 -0.068272 -0.580329
1888562209 -0.068408 -0.575495
1890048088 -0.067189 -0.57155
1891533967 -0.067439 -0.57617
1893019846 -0.069786 -0.579122
1894505725 -0.072556 -0.582779
1895991604 -0.069128 -0.586903
1897477483 -0.071924 -0.586361
1898963362 -0.070748 -0.589884
1900449241 -0.069019 -0.589579
1901935120 -0.071505 -0.594204
1903420999 -0.068399 -0.593759
1904906878 -0.07761 -0.590995
1906392757 -0.072562 -0.592343
1907878636 -0.072266 -0.592849
1909364515 -0.070343 -0.59359
1910850394 -0.06791 -0.590027
1912336273 -0.069384 -0.591855
1913822152 -0.070041 -0.588628
1915308031 -0.069361 -0.585076
1916793910 -0.071319 -0.584059
1918279789 -0.070394 -0.579853
1919765668 -0.070414 -0.576253
1921251547 -0.07314 -0.578016
1922737426 -0.071932 -0.585906
1924223305 -0.070222 -0.584764
1925709184 -0.073116 -0.587197
1927195063 -0.071259 -0.589003
1928680942 -0.073985 -0.590734
1930166821 -0.076745 -0.591503
1931652700 -0.072555 -0.595688
1933138579 -0.074649 -0.596507
1934624458 -0.073349 -0.597034
1936110337 -0.076665 -0.594341
1937596216 -0.075198 -0.593814
1939082095 -0.075626 -0.595015
1940567974 -0.076105 -0.592976
1942053853 -0.072519 -0.593293
1943539732 -0.074611 -0.589119
1945025611 -0.076077 -0.589085
1946511490 -0.076123 -0.585986
1947997369 -0.076576 -0.582108
1949483248 -0.074359 -0.57995
1950969127 -0.078186 -0.57961
1952455006 -0.0807 -0.585608
1953940885 -0.081866 -0.586105
1955426764 -0.078317 -0.592577
1956912643 -0.082879 -0.591404
1958398522 -0.077417 -0.592983
1959884401 -0.083759 -0.595072
1961370280 -0.086765 -0.597235
1962856159 -0.077939 -0.596741
1964342038 -0.082474 -0.595953
1965827917 -0.082378 -0.597196
1967313796 -0.080063 -0.599402
1968799675 -0.117921 -0.702183
1970285554 -0.094368 -0.591725
1971771433 -0.082605 -0.594602
1973257312 -0.080713 -0.592397
1974743191 -0.08332 -0.590823
1976229070 -0.085692 -0.587809
1977714949 -0.082195 -0.585124
1979200828 -0.08317 -0.583058
1980686707 -0.084417 -0.584595
1982172586 -0.089467 -0.584725
1983658465 -0.086892 -0.588121
1985144344 -0.085555 -0.59327
1986630223 -0.086989 -0.595711
1988116102 -0.089386 -0.596
1989601981 -0.090951 -0.583679
1991087860 -0.092725 -0.599746
1992573739 -0.089676 -0.600834
1994059618 -0.093201 -0.601458
1995545497 -0.09048 -0.602729
1997031376 -0.090115 -0.602347
1998517255 -0.095014 -0.598988
2000003134 -0.088302 -0.600437
2001489013 -0.093159 -0.597811
2002974892 -0.089644 -0.593666
2004460771 -0.085926 -0.592965
2005946650 -0.087211 -0.589601
2007432529 -0.093463 -0.586389
2008918408 -0.090703 -0.58252
2010404287 -0.08827 -0.583169
2011890166 -0.08927 -0.584092
2013376045 -0.093262 -0.587222
2014861924 -0.096069 -0.593264
2016347803 -0.092098 -0.596681
2017833682 -0.099259 -0.597099
2019319561 -0.096007 -0.598799
2020805440 -0.097061 -0.599755
2022291319 -0.097849 -0.597861
2023777198 -0.093767 -0.603604
2025263077 -0.096095 -0.603981
2026748956 -0.100887 -0.601241
2028234835 -0.097057 -0.600636
2029720714 -0.099563 -0.601321
2031206593 -0.092302 -0.601046
2032692472 -0.100373 -0.599221
2034178351 -0.098639 -0.596222
2035664230 -0.094761 -0.594749
2037150109 -0.098145 -0.592175
2038635988 -0.093727 -0.592405
2040121867 -0.093351 -0.586588
2041607746 -0.095146 -0.588355
2043093625 -0.096946 -0.591178
2044579504 -0.09626 -0.595571
2046065383 -0.099465 -0.597381
2047551262 -0.097389 -0.598783
2049037141 -0.099144 -0.603003
2050523020 -0.099644 -0.602467
2052008899 -0.099591 -0.604992
2053494778 -0.098297 -0.601484
2054980657 -0.103474 -0.601944
2056466536 -0.097278 -0.605098
2057952415 -0.100852 -0.599756
2059438294 -0.094803 -0.600996
2060924173 -0.097168 -0.598997
2062410052 -0.100231 -0.599125
2063895931 -0.100975 -0.593732
2065381810 -0.096899 -0.592298
2066867689 -0.096016 -0.58921
2068353568 -0.099025 -0.586503
2069839447 -0.097129 -0.585161
2071325326 -0.103036 -0.584628
2072811205 -0.095017 -0.590341
2074297084 -0.100732 -0.58959
2075782963 -0.102401 -0.589973
2077268842 -0.102252 -0.593797
2078754721 -0.098574 -0.597975
2080240600 -0.101948 -0.596314
2081726479 -0.100846 -0.59929
2083212358 -0.102418 -0.595186
2084698237 -0.103517 -0.596447
2086184116 -0.099206 -0.598396
2087669995 -0.100193 -0.598633
2089155874 -0.101611 -0.59323
2090641753 -0.103052 -0.593826
2092127632 -0.099516 -0.591629
2093613511 -0.099169 -0.59074
2095099390 -0.099972 -0.587461
2096585269 -0.100617 -0.583332
2098071148 -0.096674 -0.583889
2099557027 -0.097661 -0.578899
2101042906 -0.103909 -0.580054
2102528785 -0.098852 -0.585761
2104014664 -0.10878 -0.589044
2105500543 -0.106882 -0.58662
2106986422 -0.10142 -0.594994
2108472301 -0.105622 -0.59193
2109958180 -0.105828 -0.591952
2111444059 -0.109668 -0.597305
2112929938 -0.106136 -0.599644
2114415817 -0.105646 -0.601356
2115901696 -0.10172 -0.598945
2117387575 -0.106154 -0.601281
2118873454 -0.104831 -0.596177
2120359333 -0.103395 -0.598673
2121845212 -0.112251 -0.593737
2123331091 -0.100127 -0.595801
2124816970 -0.104943 -0.592075
2126302849 -0.102657 -0.591177
2127788728 -0.098471 -0.588217
2129274607 -0.109376 -0.58233
2130760486 -0.1038 -0.584653
2132246365 -0.101494 -0.58945
2133732244 -0.101018 -0.588227
2135218123 -0.109506 -0.592821
2136704002 -0.103303 -0.595257
2138189881 -0.106626 -0.597598
2139675760 -0.099505 -0.595739
2141161639 -0.098837 -0.600512
2142647518 -0.100808 -0.60211
2144133397 -0.109057 -0.600402
2145619276 -0.104594 -0.599516
2147105155 -0.098398 -0.59937
2148591034 -0.100855 -0.596178
2150076913 -0.106913 -0.591497
2151562792 -0.09324 -0.594764
2153048671 -0.103239 -0.591535
2154534550 -0.096181 -0.589587
2156020429 -0.095287 -0.587679
2157506308 -0.099237 -0.581727
2158992187 -0.09683 -0.578566
2160478066 -0.100067 -0.578339
2161963945 -0.10809 -0.578411
2163449824 -0.101384 -0.579825
2164935703 -0.097769 -0.583635
2166421582 -0.099983 -0.586237
2167907461 -0.106678 -0.588707
2169393340 -0.102045 -0.586852
2170879219 -0.104997 -0.592013
2172365098 -0.106446 -0.587909
2173850977 -0.104612 -0.594363
2175336856 -0.112243 -0.591092
2176822735 -0.105046 -0.587361
2178308614 -0.11043 -0.59007
2179794493 -0.112886 -0.589708
2181280372 -0.109769 -0.588073
2182766251 -0.111522 -0.586818
2184252130 -0.111405 -0.585081
2185738009 -0.107402 -0.584409
2187223888 -0.104162 -0.582897
2188709767 -0.115442 -0.574321
2190195646 -0.112828 -0.576133
2191681525 -0.113264 -0.580824
2193167404 -0.108649 -0.58271
2194653283 -0.103868 -0.586756
2196139162 -0.117273 -0.591538
2197625041 -0.105881 -0.591751
2199110920 -0.117906 -0.594144
2200596799 -0.126227 -0.592752
2202082678 -0.120447 -0.600157
2203568557 -0.118807 -0.599876
2205054436 -0.121175 -0.602081
2206540315 -0.112414 -0.605663
2208026194 -0.111693 -0.634526
2209512073 -0.120823 -0.597108
2210997952 -0.10319 -0.597992
2212483831 -0.111367 -0.597581
2213969710 -0.110702 -0.591247
2215455589 -0.11226 -0.588542
2216941468 -0.09761 -0.586458
2218427347 -0.109411 -0.584495
2219913226 -0.108441 -0.581267
2221399105 -0.118949 -0.580458
2222884984 -0.113652 -0.585069
2224370863 -0.11475 -0.589651
2225856742 -0.120556 -0.591389
2227342621 -0.115246 -0.590502
2228828500 -0.120867 -0.595096
2230314379 -0.121307 -0.598486
2231800258 -0.123856 -0.596158
2233286137 -0.124057 -0.599012
2234772016 -0.122751 -0.599115
2236257895 -0.119856 -0.599709
2237743774 -0.119692 -0.596566
2239229653 -0.114621 -0.595944
2240715532 -0.12058 -0.594579
2242201411 -0.122317 -0.595578
2243687290 -0.112033 -0.59341
2245173169 -0.122418 -0.59061
2246659048 -0.119264 -0.585879
2248144927 -0.123695 -0.586207
2249630806 -0.1184 -0.582774
2251116685 -0.120084 -0.580819
2252602564 -0.121547 -0.585431
2254088443 -0.123983 -0.592212
2255574322 -0.125956 -0.59341
2257060201 -0.130187 -0.59478
2258546080 -0.131102 -0.594003
2260031959 -0.131106 -0.599424
2261517838 -0.128608 -0.60045
2263003717 -0.128539 -0.603805
2264489596 -0.129198 -0.603589
2265975475 -0.130538 -0.600177
2267461354 -0.133471 -0.601598
2268947233 -0.13382 -0.600694
2270433112 -0.132363 -0.599463
2271918991 -0.134548 -0.599581
2273404870 -0.131937 -0.597552
2274890749 -0.130513 -0.593847
2276376628 -0.132962 -0.591932
2277862507 -0.134286 -0.59175
2279348386 -0.12987 -0.586203
2280834265 -0.152896 -0.582462
2282320144 -0.132588 -0.57648
2283806023 -0.136016 -0.593108
2285291902 -0.138434 -0.597459
2286777781 -0.138301 -0.596243
2288263660 -0.13271 -0.602006
2289749539 -0.133193 -0.600541
2291235418 -0.136867 -0.597151
2292721297 -0.132781 -0.600706
2294207176 -0.13157 -0.603723
2295693055 -0.128063 -0.603815
2297178934 -0.133116 -0.604155
2298664813 -0.132206 -0.602118
2300150692 -0.13214 -0.598869
2301636571 -0.133579 -0.596714
2303122450 -0.130314 -0.596604
2304608329 -0.128845 -0.600154
2306094208 -0.116532 -0.594909
2307580087 -0.130625 -0.584621
2309065966 -0.126989 -0.586808
2310551845 -0.132324 -0.584005
2312037724 -0.130564 -0.586312
2313523603 -0.131173 -0.590666
2315009482 -0.129401 -0.591341
2316495361 -0.135019 -0.590919
2317981240 -0.139803 -0.59322
2319467119 -0.128649 -0.599932
2320952998 -0.135887 -0.599276
2322438877 -0.137452 -0.602092
2323924756 -0.136197 -0.596684
2325410635 -0.139277 -0.599862
2326896514 -0.132309 -0.593671
2328382393 -0.135527 -0.595086
2329868272 -0.131581 -0.596943
2331354151 -0.140635 -0.592418
2332840030 -0.140449 -0.590166
2334325909 -0.136171 -0.583873
2335811788 -0.135167 -0.586062
2337297667 -0.128813 -0.58254
2338783546 -0.137218 -0.580622
2340269425 -0.13389 -0.576373
2341755304 -0.138798 -0.578803
2343241183 -0.140079 -0.584407
2344727062 -0.139252 -0.587145
2346212941 -0.141864 -0.587055
2347698820 -0.139259 -0.59618
2349184699 -0.132282 -0.594573
2350670578 -0.137866 -0.593733
2352156457 -0.131352 -0.597184
2353642336 -0.152595 -0.588172
2355128215 -0.129579 -0.595565
2356614094 -0.157435 -0.590708
2358099973 -0.128908 -0.601231
2359585852 -0.153559 -0.590419
2361071731 -0.134696 -0.599091
2362557610 -0.155054 -0.588492
2364043489 -0.133396 -0.595915
2365529368 -0.151833 -0.586284
2367015247 -0.12533 -0.591046
2368501126 -0.150493 -0.580454
2369987005 -0.130332 -0.59017
2371472884 -0.15614 -0.580412
2372958763 -0.134692 -0.591641
2374444642 -0.149753 -0.585526
2375930521 -0.131094 -0.598172
2377416400 -0.153902 -0.596121
2378902279 -0.142414 -0.597958
2380388158 -0.16061 -0.59042
2381874037 -0.140783 -0.604099
2383359916 -0.165564 -0.592225
2384845795 -0.142852 -0.603411
2386331674 -0.16651 -0.591612
2387817553 -0.136657 -0.604748
2389303432 -0.169214 -0.591842
2390789311 -0.139109 -0.600768
2392275190 -0.167614 -0.595251
2393761069 -0.143054 -0.598717
2395246948 -0.162785 -0.587583
2396732827 -0.144524 -0.587075
2398218706 -0.147373 -0.600139
2399704585 -0.151639 -0.584395
2401190464 -0.157379 -0.583432
2402676343 -0.155161 -0.590948
2404162222 -0.153252 -0.59468
2405648101 -0.158504 -0.587681
2407133980 -0.153077 -0.592744
2408619859 -0.154454 -0.597195
2410105738 -0.155163 -0.601273
2411591617 -0.158567 -0.59975
2413077496 -0.162764 -0.593904
2414563375 -0.150494 -0.608378
2416049254 -0.166835 -0.595655
2417535133 -0.156309 -0.596005
2419021012 -0.158167 -0.594631
2420506891 -0.15425 -0.594625
2421992770 -0.160487 -0.591544
2423478649 -0.152407 -0.593451
2424964528 -0.147103 -0.593565
2426450407 -0.15554 -0.586351
2427936286 -0.157026 -0.58776
2429422165 -0.155671 -0.587235
2430908044 -0.156634 -0.578618
2432393923 -0.157914 -0.583075
2433879802 -0.156467 -0.584891
2435365681 -0.156386 -0.586073
2436851560 -0.156672 -0.592022
2438337439 -0.158862 -0.583892
2439823318 -0.157949 -0.588263
2441309197 -0.156481 -0.599589
2442795076 -0.158164 -0.591694
2444280955 -0.153028 -0.591013
2445766834 -0.160483 -0.593382
2447252713 -0.159751 -0.592348
2448738592 -0.162815 -0.591605
2450224471 -0.15418 -0.593997
2451710350 -0.157231 -0.586341
2453196229 -0.153819 -0.591275
2454682108 -0.167803 -0.574549
2456167987 -0.150703 -0.588173
2457653866 -0.15932 -0.575544
2459139745 -0.151887 -0.585042
2460625624 -0.153308 -0.580104
2462111503 -0.149005 -0.582083
2463597382 -0.149967 -0.5846
2465083261 -0.162412 -0.586148
2466569140 -0.153457 -0.589952
2468055019 -0.152365 -0.597108
2469540898 -0.162471 -0.584718
2471026777 -0.150797 -0.594308
2472512656 -0.139727 -0.610578
2473998535 -0.148815 -0.599477
2475484414 -0.146601 -0.603121
2476970293 -0.149613 -0.599308
2478456172 -0.158047 -0.592649
2479942051 -0.14857 -0.597313
2481427930 -0.153415 -0.590336
2482913809 -0.150354 -0.597077
2484399688 -0.1397 -0.589752
2485885567 -0.140895 -0.594956
2487371446 -0.154485 -0.588112
2488857325 -0.150517 -0.582237
2490343204 -0.143295 -0.579016
2491829083 -0.150584 -0.581857
2493314962 -0.15192 -0.58583
2494800841 -0.139254 -0.59218
2496286720 -0.140198 -0.590135
2497772599 -0.140448 -0.597456
2499258478 -0.151708 -0.589939
2500744357 -0.147856 -0.595772
2502230236 -0.141598 -0.595832
2503716115 -0.146062 -0.593117
2505201994 -0.139907 -0.596318
2506687873 -0.143337 -0.591947
2508173752 -0.139644 -0.594296
2509659631 -0.137393 -0.589182
2511145510 -0.142606 -0.588632
2512631389 -0.143401 -0.588128
2514117268 -0.145234 -0.5835
2515603147 -0.134886 -0.582683
2517089026 -0.141678 -0.57746
2518574905 -0.135406 -0.573716
2520060784 -0.133028 -0.570232
2521546663 -0.136644 -0.573999
2523032542 -0.137125 -0.580426
2524518421 -0.13964 -0.577499
2526004300 -0.140825 -0.580116
2527490179 -0.149731 -0.581378
2528976058 -0.1381 -0.588463
2530461937 -0.153228 -0.586151
2531947816 -0.143494 -0.586322
2533433695 -0.134941 -0.584332
2534919574 -0.142667 -0.591
2536405453 -0.141691 -0.589139
2537891332 -0.151017 -0.579058
2539377211 -0.144644 -0.586947
2540863090 -0.152317 -0.583941
2542348969 -0.147169 -0.588645
2543834848 -0.146192 -0.584637
2545320727 -0.147852 -0.581588
2546806606 -0.140859 -0.584525
2548292485 -0.153636 -0.573127
2549778364 -0.148349 -0.577501
2551264243 -0.155277 -0.579661
2552750122 -0.15304 -0.578107
2554236001 -0.158014 -0.58295
2555721880 -0.158855 -0.579456
2557207759 -0.157974 -0.58956
2558693638 -0.152855 -0.589157
2560179517 -0.169457 -0.588631
2561665396 -0.16249 -0.591623
2563151275 -0.158312 -0.592596
2564637154 -0.159172 -0.590885
2566123033 -0.15906 -0.592856
2567608912 -0.162262 -0.590066
2569094791 -0.164934 -0.594503
2570580670 -0.164193 -0.595008
2572066549 -0.173651 -0.588599
2573552428 -0.156714 -0.591221
2575038307 -0.163922 -0.589933
2576524186 -0.159833 -0.583451
2578010065 -0.165847 -0.586824
2579495944 -0.161731 -0.582513
2580981823 -0.171922 -0.578371
2582467702 -0.15955 -0.580757
2583953581 -0.166018 -0.582459
2585439460 -0.164713 -0.585153
2586925339 -0.170278 -0.594498
2588411218 -0.177427 -0.594871
2589897097 -0.175215 -0.594385
2591382976 -0.16818 -0.597867
2592868855 -0.172727 -0.598357
2594354734 -0.171255 -0.593314
2595840613 -0.179631 -0.594447
2597326492 -0.173686 -0.595664
2598812371 -0.172067 -0.59388
2600298250 -0.177066 -0.594716
2601784129 -0.170003 -0.591428
2603270008 -0.165372 -0.587818
2604755887 -0.168491 -0.589619
2606241766 -0.174406 -0.584183
2607727645 -0.163974 -0.586656
2609213524 -0.165539 -0.573615
2610699403 -0.166752 -0.576885
2612185282 -0.164918 -0.578516
2613671161 -0.179176 -0.583977
2615157040 -0.173163 -0.590821
2616642919 -0.170862 -0.587898
2618128798 -0.174059 -0.591001
2619614677 -0.17106 -0.591119
2621100556 -0.171168 -0.595055
2622586435 -0.173249 -0.591527
2624072314 -0.173242 -0.592473
2625558193 -0.164765 -0.586259
2627044072 -0.170542 -0.58611
2628529951 -0.171907 -0.583607
2630015830 -0.177462 -0.584443
2631501709 -0.17212 -0.585561
2632987588 -0.168178 -0.580634
2634473467 -0.176726 -0.5777
2635959346 -0.169366 -0.580049
2637445225 -0.169469 -0.574075
2638931104 -0.163875 -0.565831
2640416983 -0.175204 -0.565672
2641902862 -0.174108 -0.57435
2643388741 -0.174673 -0.573447
2644874620 -0.171841 -0.57716
2646360499 -0.179845 -0.580558
2647846378 -0.181126 -0.579493
2649332257 -0.183822 -0.587658
2650818136 -0.182464 -0.587839
2652304015 -0.184514 -0.59193
2653789894 -0.177557 -0.587415
2655275773 -0.184901 -0.595294
2656761652 -0.179827 -0.585613
2658247531 -0.17865 -0.59006
2659733410 -0.177833 -0.590237
2661219289 -0.183613 -0.587776
2662705168 -0.181166 -0.587042
2664191047 -0.18105 -0.585472
2665676926 -0.176026 -0.582853
2667162805 -0.172016 -0.582344
2668648684 -0.180654 -0.575272
2670134563 -0.178239 -0.575787
2671620442 -0.179361 -0.580675
2673106321 -0.181065 -0.584266
2674592200 -0.178888 -0.588665
2676078079 -0.184398 -0.585327
2677563958 -0.181194 -0.592045
2679049837 -0.18416 -0.592235
2680535716 -0.183932 -0.594187
2682021595 -0.180142 -0.594769
2683507474 -0.177267 -0.59695
2684993353 -0.180586 -0.594849
2686479232 -0.178262 -0.593487
2687965111 -0.167834 -0.590754
2689450990 -0.18006 -0.591136
2690936869 -0.170435 -0.590618
2692422748 -0.173062 -0.589772
2693908627 -0.175117 -0.589243
2695394506 -0.170871 -0.587359
2696880385 -0.173836 -0.582866
2698366264 -0.167838 -0.582128
2699852143 -0.171907 -0.576919
2701338022 -0.169847 -0.580661
2702823901 -0.171855 -0.581078
2704309780 -0.175884 -0.583659
2705795659 -0.170299 -0.588188
2707281538 -0.176172 -0.586919
2708767417 -0.17398 -0.59022
2710253296 -0.17019 -0.587818
2711739175 -0.171637 -0.590246
2713225054 -0.168461 -0.591781
2714710933 -0.175 -0.595445
2716196812 -0.167988 -0.593297
2717682691 -0.171165 -0.591642
2719168570 -0.169218 -0.591585
2720654449 -0.169276 -0.59052
2722140328 -0.173807 -0.585447
2723626207 -0.167896 -0.588306
2725112086 -0.163406 -0.58438
2726597965 -0.164743 -0.583584
2728083844 -0.169379 -0.576924
2729569723 -0.175845 -0.572838
2731055602 -0.172063 -0.574797
2732541481 -0.17887 -0.574645
2734027360 -0.17513 -0.582874
2735513239 -0.172942 -0.582182
2736999118 -0.181318 -0.586024
2738484997 -0.180254 -0.581901
2739970876 -0.179288 -0.585887
2741456755 -0.177813 -0.589858
2742942634 -0.179395 -0.59029
2744428513 -0.18143 -0.59064
2745914392 -0.180571 -0.590776
2747400271 -0.181121 -0.59513
2748886150 -0.184839 -0.586744
2750372029 -0.18114 -0.587991
2751857908 -0.185814 -0.58613
2753343787 -0.185945 -0.585312
2754829666 -0.182119 -0.585474
2756315545 -0.182536 -0.581468
2757801424 -0.180365 -0.579141
2759287303 -0.187273 -0.574882
2760773182 -0.181327 -0.574168
2762259061 -0.187606 -0.57893
2763744940 -0.184745 -0.582869
2765230819 -0.187179 -0.586787
2766716698 -0.186459 -0.580847
2768202577 -0.186681 -0.588874
2769688456 -0.180482 -0.589453
2771174335 -0.18553 -0.596277
2772660214 -0.180642 -0.587791
2774146093 -0.193013 -0.592441
2775631972 -0.186148 -0.595695
2777117851 -0.184639 -0.596208
2778603730 -0.182534 -0.589602
2780089609 -0.212011 -0.598644
2781575488 -0.182577 -0.592616
2783061367 -0.183119 -0.583323
2784547246 -0.182286 -0.58461
2786033125 -0.185902 -0.587324
2787519004 -0.183102 -0.581421
2789004883 -0.184383 -0.585237
2790490762 -0.185794 -0.575467
2791976641 -0.192927 -0.57486
2793462520 -0.192595 -0.574714
2794948399 -0.187478 -0.581365
2796434278 -0.18667 -0.588929
2797920157 -0.188378 -0.575945
2799406036 -0.185527 -0.584409
2800891915 -0.18045 -0.584553
2802377794 -0.178044 -0.592033
2803863673 -0.18844 -0.58451
2805349552 -0.187113 -0.581153
2806835431 -0.18252 -0.584012
2808321310 -0.184287 -0.583615
2809807189 -0.187283 -0.578906
2811293068 -0.182626 -0.573477
2812778947 -0.18665 -0.583091
2814264826 -0.183416 -0.573676
2815750705 -0.185129 -0.568163
2817236584 -0.18741 -0.566886
2818722463 -0.188146 -0.565783
2820208342 -0.180139 -0.570605
2821694221 -0.180693 -0.576632
2823180100 -0.196206 -0.576254
2824665979 -0.190708 -0.573274
2826151858 -0.181757 -0.571988
2827637737 -0.184497 -0.57957
2829123616 -0.185844 -0.589048
2830609495 -0.183293 -0.58613
2832095374 -0.187197 -0.58898
2833581253 -0.181501 -0.593532
2835067132 -0.190658 -0.582868
2836553011 -0.191755 -0.583602
2838038890 -0.182571 -0.580746
2839524769 -0.181942 -0.586292
2841010648 -0.169371 -0.593786
2842496527 -0.180873 -0.584703
2843982406 -0.17875 -0.575879
2845468285 -0.179205 -0.573417
2846954164 -0.190684 -0.567428
2848440043 -0.174941 -0.572314
2849925922 -0.177233 -0.570885
2851411801 -0.181848 -0.575968
2852897680 -0.181252 -0.574231
2854383559 -0.173855 -0.578508
2855869438 -0.181849 -0.566523
2857355317 -0.170557 -0.584484
2858841196 -0.187066 -0.578801
2860327075 -0.187954 -0.576228
2861812954 -0.185119 -0.586075
2863298833 -0.199136 -0.575555
2864784712 -0.175741 -0.583683
2866270591 -0.184692 -0.582572
2867756470 -0.185365 -0.579431
2869242349 -0.182778 -0.573089
2870728228 -0.187732 -0.570341
2872214107 -0.191916 -0.573273
2873699986 -0.175455 -0.568464
2875185865 -0.190504 -0.567977
2876671744 -0.193411 -0.562216
2878157623 -0.182528 -0.569997
2879643502 -0.193644 -0.558025
2881129381 -0.192552 -0.557277
2882615260 -0.205886 -0.559369
2884101139 -0.187759 -0.56733
2885587018 -0.188202 -0.57232
2887072897 -0.19568 -0.558076
2888558776 -0.202354 -0.571207
2890044655 -0.201034 -0.569285
2891530534 -0.180562 -0.57779
2893016413 -0.199799 -0.571772
2894502292 -0.195805 -0.580292
2895988171 -0.197048 -0.577891
2897474050 -0.198633 -0.579153
2898959929 -0.190084 -0.577844
2900445808 -0.19845 -0.57552
2901931687 -0.189348 -0.578934
2903417566 -0.199469 -0.575792
2904903445 -0.185194 -0.576374
2906389324 -0.191405 -0.568816
2907875203 -0.191591 -0.568268
2909361082 -0.196779 -0.563582
2910846961 -0.197197 -0.566973
2912332840 -0.184946 -0.569983
2913818719 -0.199458 -0.57261
2915304598 -0.196612 -0.571166
2916790477 -0.205262 -0.575746
2918276356 -0.201897 -0.579936
2919762235 -0.205564 -0.581835
2921248114 -0.206649 -0.58581
2922733993 -0.207587 -0.584074
2924219872 -0.202349 -0.581623
2925705751 -0.200254 -0.586981
2927191630 -0.202579 -0.585848
2928677509 -0.208573 -0.585703
2930163388 -0.193734 -0.585612
2931649267 -0.198843 -0.579848
2933135146 -0.201425 -0.578908
2934621025 -0.202396 -0.577149
2936106904 -0.206535 -0.574847
2937592783 -0.202464 -0.572573
2939078662 -0.205107 -0.57223
2940564541 -0.19498 -0.571079
2942050420 -0.205558 -0.572257
2943536299 -0.205595 -0.572608
2945022178 -0.203135 -0.575295
2946508057 -0.208541 -0.578509
2947993936 -0.208005 -0.575513
2949479815 -0.198863 -0.574525
2950965694 -0.19748 -0.580338
2952451573 -0.208366 -0.579505
2953937452 -0.20719 -0.577264
2955423331 -0.206055 -0.58058
2956909210 -0.206535 -0.574786
2958395089 -0.191118 -0.574339
2959880968 -0.205986 -0.571707
2961366847 -0.206666 -0.571853
2962852726 -0.216644 -0.574229
2964338605 -0.20528 -0.565638
2965824484 -0.196219 -0.566779
2967310363 -0.206262 -0.561724
2968796242 -0.199305 -0.557326
2970282121 -0.204423 -0.558183
2971768000 -0.201237 -0.558045
2973253879 -0.205059 -0.561971
2974739758 -0.213433 -0.563409
2976225637 -0.204383 -0.56701
2977711516 -0.203487 -0.562856
2979197395 -0.210061 -0.570023
2980683274 -0.209926 -0.569194
2982169153 -0.212964 -0.574076
2983655032 -0.201235 -0.574172
2985140911 -0.202921 -0.567725
2986626790 -0.213643 -0.575103
2988112669 -0.209645 -0.57935
2989598548 -0.216952 -0.568571
2991084427 -0.199311 -0.574209
2992570306 -0.209775 -0.568155
2994056185 -0.201964 -0.569747
2995542064 -0.200364 -0.566007
2997027943 -0.207495 -0.564386
2998513822 -0.193163 -0.558851
2999999701 -0.207949 -0.568707
