# HZ S RI R 50
10000 0.20470966666666662 -0.05676966666666666
1495879 -0.553202 1.3024213333333332
2981758 -0.009949333333333334 0.09991633333333333
4467637 -0.025714333333333332 0.038085999999999995
5953516 -0.02313533333333333 0.016315
7439395 -0.020457 0.007553333333333333
8925274 -0.016370666666666665 -0.024605999999999996
10411153 -0.015545999999999999 -0.02226933333333333
11897032 -0.014779999999999998 -0.02038733333333333
13382911 -0.014322000000000001 -0.019026
14868790 -0.013899666666666666 -0.017980999999999997
16354669 -0.013335333333333333 -0.017278999999999996
17840548 -0.013329333333333334 -0.016360999999999997
19326427 -0.012979333333333332 -0.015686
20812306 -0.01292233333333333 -0.015225666666666665
22298185 -0.012754999999999999 -0.014664666666666666
23784064 -0.012585333333333332 -0.014272666666666666
25269943 -0.012549 -0.013911333333333333
26755822 -0.012411333333333333 -0.013568
28241701 -0.012267 -0.013283666666666666
29727580 -0.012180999999999999 -0.013027
31213459 -0.01212 -0.012838333333333334
32699338 -0.012088999999999999 -0.012606000000000001
34185217 -0.012085333333333332 -0.012268666666666666
35671096 -0.01210333333333333 -0.011954999999999997
37156975 -0.012061333333333334 -0.011612333333333332
38642854 -0.012176000000000001 -0.011176
40128733 -0.012240999999999998 -0.010551333333333333
41614612 -0.012641333333333333 -0.010113999999999998
43100491 -0.013003666666666665 -0.009309333333333333
44586370 -0.013637333333333335 -0.008323333333333334
46072249 -0.014530333333333334 -0.0071990000000000005
47558128 -0.016174333333333332 -0.005667999999999999
49044007 -0.018813 -0.004017666666666667
50529886 -0.023628 -0.0016093333333333333
52015765 -0.03203366666666666 0.0013983333333333332
53501644 -0.053422 0.002096333333333333
54987523 -0.11368066666666665 -0.033972
56473402 0.02082733333333333 -0.144646
57959281 0.049041666666666664 -0.05364533333333333
59445160 0.04113066666666666 -0.025848333333333334
60931039 0.039451 -0.020510333333333332
62416918 0.03960133333333333 -0.02089166666666667
63902797 0.038595 -0.021514
65388676 0.039550666666666665 -0.021234666666666666
66874555 0.03960699999999999 -0.022343666666666664
68360434 0.03499233333333333 -0.021383
69846313 0.039347999999999994 -0.024860333333333335
71332192 0.04169066666666667 -0.025011999999999996
72818071 0.03832366666666666 -0.02453433333333333
74303950 0.039807999999999996 -0.025249666666666663
75789829 0.04351733333333333 -0.026872666666666663
77275708 0.04401333333333333 -0.026681
78761587 0.044443666666666666 -0.027044666666666668
80247466 0.03722566666666667 -0.02690633333333333
81733345 0.039326 -0.02750666666666667
83219224 0.03927066666666666 -0.027971999999999997
84705103 0.036675 -0.02832033333333333
86190982 0.04541099999999999 -0.02873933333333333
87676861 0.03733266666666666 -0.029428
89162740 0.03879 -0.030286999999999998
90648619 0.03746033333333333 -0.030847
92134498 0.03822866666666667 -0.031126999999999995
93620377 0.04126 -0.030886999999999998
95106256 0.038765666666666664 -0.032144000000000006
96592135 0.03952233333333333 -0.033256666666666664
98078014 0.03979466666666666 -0.032476
99563893 0.040334 -0.032869333333333334
101049772 0.039705 -0.03289199999999999
102535651 0.039688666666666664 -0.034327333333333335
104021530 0.039509666666666665 -0.03487233333333333
105507409 0.040383666666666665 -0.035389333333333335
106993288 0.039579666666666666 -0.036068666666666666
108479167 0.039596 -0.036177999999999995
109965046 0.039357333333333334 -0.036242
111450925 0.039509333333333334 -0.03643733333333333
112936804 0.039628 -0.03719033333333333
114422683 0.039421 -0.03763033333333333
115908562 0.038511 -0.03802533333333333
117394441 0.03871533333333333 -0.037682999999999994
118880320 0.03886833333333333 -0.038385999999999997
120366199 0.038617 -0.03916833333333333
121852078 0.03837566666666667 -0.039684
123337957 0.038685 -0.04001833333333333
124823836 0.03883099999999999 -0.040131999999999994
126309715 0.03843733333333333 -0.040708666666666664
127795594 0.03972266666666666 -0.04174566666666666
129281473 0.03915833333333333 -0.042638666666666665
130767352 0.039531666666666666 -0.042614
132253231 0.039674666666666664 -0.04313466666666667
133739110 0.03927033333333334 -0.043619
135224989 0.038469 -0.04339199999999999
136710868 0.038644 -0.044065999999999994
138196747 0.03858266666666667 -0.044604333333333336
139682626 0.038603 -0.04541533333333332
141168505 0.03851666666666666 -0.045555
142654384 0.03805866666666667 -0.04579
144140263 0.03805466666666667 -0.04622466666666667
145626142 0.03818033333333333 -0.046565999999999996
147112021 0.03833933333333333 -0.04724366666666666
148597900 0.037621666666666664 -0.04738099999999999
150083779 0.037462999999999996 -0.04744933333333333
151569658 0.03774066666666666 -0.04841766666666667
153055537 0.03759933333333333 -0.048958666666666664
154541416 0.037999000000000005 -0.049626666666666666
156027295 0.037900666666666666 -0.050503
157513174 0.038186 -0.050866
158999053 0.03809233333333333 -0.051795999999999995
160484932 0.038168999999999995 -0.051941333333333325
161970811 0.038328666666666664 -0.05269033333333334
163456690 0.03825833333333333 -0.05318899999999999
164942569 0.03823766666666667 -0.05373833333333333
166428448 0.03785633333333333 -0.05435366666666667
167914327 0.038231999999999995 -0.05493499999999999
169400206 0.034894666666666664 -0.05499266666666667
170886085 0.037996 -0.055260000000000004
172371964 0.03769133333333333 -0.05587399999999999
173857843 0.03788966666666666 -0.055854
175343722 0.037605 -0.05645
176829601 0.03747066666666666 -0.056895
178315480 0.03735633333333333 -0.05669066666666667
179801359 0.036477333333333334 -0.05761633333333333
181287238 0.036823 -0.05784966666666667
182773117 0.037184999999999996 -0.05839966666666666
184258996 0.037293999999999994 -0.05883266666666666
185744875 0.037089333333333335 -0.05952766666666666
187230754 0.037560333333333334 -0.06014133333333333
188716633 0.037377666666666656 -0.06078299999999999
190202512 0.037323666666666665 -0.06056366666666666
191688391 0.03725733333333334 -0.061376999999999994
193174270 0.037553 -0.06197833333333333
194660149 0.037266999999999995 -0.06274433333333333
196146028 0.036978 -0.06292199999999999
197631907 0.03705566666666666 -0.06356199999999998
199117786 0.03727966666666667 -0.06366966666666665
200603665 0.03694333333333333 -0.06354933333333332
202089544 0.03722233333333333 -0.063696
203575423 0.036546999999999996 -0.06437466666666666
205061302 0.036578 -0.06465766666666667
206547181 0.03648833333333333 -0.06459099999999998
208033060 0.036259999999999994 -0.06517999999999999
209518939 0.03538033333333333 -0.06494
211004818 0.035399999999999994 -0.06555433333333333
212490697 0.03587066666666666 -0.06625966666666666
213976576 0.036065999999999994 -0.06709499999999999
215462455 0.035881333333333335 -0.06759033333333332
216948334 0.035332999999999996 -0.06798399999999999
218434213 0.03601566666666666 -0.06880233333333333
219920092 0.035762999999999996 -0.06921866666666666
221405971 0.038276 -0.07156533333333333
222891850 0.036021 -0.07012766666666667
224377729 0.036048333333333335 -0.07101299999999999
225863608 0.035637999999999996 -0.07201333333333333
227349487 0.035302999999999994 -0.07225499999999999
228835366 0.03523766666666667 -0.07250533333333332
230321245 0.03507266666666667 -0.07272166666666666
231807124 0.03529633333333333 -0.07362533333333332
233293003 0.034570666666666666 -0.07387533333333333
234778882 0.03455766666666666 -0.07417266666666666
236264761 0.034618666666666666 -0.07397166666666666
237750640 0.03419966666666666 -0.07427533333333333
239236519 0.033686333333333325 -0.074554
240722398 0.033721 -0.07506966666666666
242208277 0.03337066666666667 -0.07594599999999999
243694156 0.03375933333333333 -0.07651033333333332
245180035 0.03390066666666666 -0.07736033333333332
246665914 0.03411566666666667 -0.07834466666666667
248151793 0.03409533333333333 -0.07847766666666667
249637672 0.03397266666666666 -0.07882066666666666
251123551 0.03405733333333333 -0.07979833333333332
252609430 0.03405366666666666 -0.08060799999999999
254095309 0.034232 -0.08120366666666667
255581188 0.03417866666666666 -0.08125733333333332
257067067 0.03362633333333333 -0.08190899999999998
258552946 0.03352566666666666 -0.08225633333333332
260038825 0.03359433333333333 -0.08246233333333333
261524704 0.03353999999999999 -0.082799
263010583 0.03320066666666666 -0.08334733333333333
264496462 0.033372 -0.083327
265982341 0.033682 -0.08405766666666666
267468220 0.033147333333333334 -0.08359166666666665
268954099 0.03259633333333333 -0.084437
270439978 0.03245133333333333 -0.08422199999999999
271925857 0.03270066666666666 -0.08511366666666666
273411736 0.032653333333333326 -0.08570666666666667
274897615 0.03300399999999999 -0.08654
276383494 0.03263466666666666 -0.08691533333333332
277869373 0.03325966666666667 -0.08756066666666665
279355252 0.03310266666666666 -0.08831333333333333
280841131 0.032883333333333334 -0.08841266666666667
282327010 0.032917 -0.08938766666666666
283812889 0.033037333333333335 -0.08975366666666668
285298768 0.03299733333333333 -0.08991166666666667
286784647 0.032844333333333336 -0.09056266666666665
288270526 0.03292333333333333 -0.09053366666666665
289756405 0.032390666666666665 -0.09101499999999998
291242284 0.032479999999999995 -0.09184766666666667
292728163 0.031814666666666665 -0.09234666666666666
294214042 0.03213166666666667 -0.091806
295699921 0.031757999999999995 -0.09188666666666667
297185800 0.031332 -0.09171066666666666
298671679 0.03158366666666666 -0.09201499999999999
300157558 0.03215833333333333 -0.092113
301643437 0.030994999999999998 -0.092969
303129316 0.031634666666666665 -0.09404133333333332
304615195 0.03137333333333333 -0.094891
306101074 0.031453999999999996 -0.095207
307586953 0.03091633333333333 -0.09627166666666666
309072832 0.030791 -0.09671833333333332
310558711 0.031112 -0.09757866666666666
312044590 0.031543 -0.09811133333333334
313530469 0.031657 -0.09862033333333332
315016348 0.031686 -0.09911633333333333
316502227 0.03138933333333333 -0.09929666666666666
317988106 0.031136333333333335 -0.09950166666666667
319473985 0.03137833333333333 -0.10043366666666666
320959864 0.030994333333333332 -0.10096233333333333
322445743 0.030638000000000002 -0.10088266666666668
323931622 0.031198000000000004 -0.10109000000000001
325417501 0.03077066666666667 -0.10130166666666665
326903380 0.031045999999999997 -0.10127833333333333
328389259 0.03066033333333333 -0.10090233333333333
329875138 0.030481333333333333 -0.10153199999999998
331361017 0.030580333333333334 -0.10210033333333335
332846896 0.031023000000000002 -0.10305266666666665
334332775 0.03057766666666667 -0.10448299999999999
335818654 0.030223666666666666 -0.10487566666666666
337304533 0.03053333333333333 -0.10477266666666665
338790412 0.030848 -0.10543566666666666
340276291 0.030105999999999997 -0.10692733333333333
341762170 0.030557 -0.10681033333333334
343248049 0.030334666666666666 -0.107421
344733928 0.03054166666666667 -0.10786666666666667
346219807 0.03083433333333333 -0.10828233333333333
347705686 0.030421000000000004 -0.10921700000000001
349191565 0.02979133333333333 -0.10933466666666666
350677444 0.029615999999999996 -0.10927333333333333
352163323 0.030031666666666665 -0.110011
353649202 0.030239333333333333 -0.109792
355135081 0.029427333333333333 -0.10947633333333331
356620960 0.02980633333333333 -0.10940000000000001
358106839 0.02919433333333333 -0.10976566666666666
359592718 0.029187666666666667 -0.11006233333333333
361078597 0.02845833333333333 -0.11059333333333332
362564476 0.028978666666666666 -0.11099866666666665
364050355 0.028707999999999997 -0.11244166666666666
365536234 0.028698666666666667 -0.11301333333333333
367022113 0.028614 -0.11356
368507992 0.028324999999999996 -0.11441799999999999
369993871 0.028422999999999997 -0.11518266666666667
371479750 0.02807033333333333 -0.11564599999999998
372965629 0.028458666666666667 -0.11603766666666666
374451508 0.028305999999999998 -0.116562
375937387 0.028234666666666665 -0.11708033333333331
377423266 0.027884 -0.11737866666666666
378909145 0.027727666666666664 -0.11787366666666665
380395024 0.027452666666666667 -0.11826233333333332
381880903 0.02733733333333333 -0.11809899999999998
383366782 0.027539666666666664 -0.118656
384852661 0.027236333333333335 -0.118261
386338540 0.026968333333333334 -0.11893799999999999
387824419 0.026477 -0.11875466666666668
389310298 0.026401333333333332 -0.11912866666666666
390796177 0.025874333333333333 -0.11930266666666667
392282056 0.02594933333333333 -0.12064066666666667
393767935 0.025979000000000002 -0.12074399999999999
395253814 0.026533666666666667 -0.12207633333333334
396739693 0.026283333333333332 -0.12333566666666665
398225572 0.025763666666666664 -0.12380766666666666
399711451 0.026458666666666665 -0.124532
401197330 0.026879 -0.12517099999999998
402683209 0.026281 -0.12555166666666664
404169088 0.026526666666666664 -0.12655833333333333
405654967 0.026535666666666666 -0.12680066666666667
407140846 0.025747999999999997 -0.12678366666666666
408626725 0.026611333333333334 -0.127326
410112604 0.026469999999999997 -0.12797833333333333
411598483 0.025779 -0.12770366666666666
413084362 0.026396999999999997 -0.1277773333333333
414570241 0.026002333333333336 -0.12769599999999998
416056120 0.025843666666666668 -0.12827899999999998
417541999 0.025534 -0.12765933333333335
419027878 0.025720333333333335 -0.12779066666666666
420513757 0.025197666666666663 -0.12797699999999998
421999636 0.02489633333333333 -0.12889166666666665
423485515 0.024810666666666665 -0.12975199999999998
424971394 0.025321 -0.13034266666666666
426457273 0.02518333333333333 -0.13141399999999998
427943152 0.024880666666666666 -0.13220233333333334
429429031 0.024489666666666667 -0.132834
430914910 0.025138666666666663 -0.13305099999999997
432400789 0.024755666666666665 -0.13362366666666664
433886668 0.024599333333333334 -0.13444366666666666
435372547 0.02513033333333333 -0.13436533333333334
436858426 0.024824 -0.13448966666666665
438344305 0.024779 -0.13471
439830184 0.024258000000000002 -0.13492966666666667
441316063 0.024798333333333332 -0.135023
442801942 0.024303666666666668 -0.13504899999999997
444287821 0.024451666666666667 -0.13495433333333332
445773700 0.023384000000000002 -0.13525933333333331
447259579 0.023512333333333333 -0.13548733333333332
448745458 0.023171999999999998 -0.13457933333333333
450231337 0.022909666666666665 -0.13458166666666666
451717216 0.023153999999999997 -0.13654933333333333
453203095 0.022379333333333334 -0.13721366666666668
454688974 0.02301433333333333 -0.137847
456174853 0.022892333333333334 -0.1385553333333333
457660732 0.022074 -0.13934266666666664
459146611 0.022162333333333332 -0.14015933333333333
460632490 0.022262999999999998 -0.14063599999999998
462118369 0.022086666666666664 -0.14175933333333335
463604248 0.021860333333333332 -0.141756
465090127 0.02120733333333333 -0.14207033333333333
466576006 0.02145 -0.14255066666666666
468061885 0.021058 -0.14281266666666664
469547764 0.019870333333333334 -0.14323933333333333
471033643 0.021308333333333335 -0.14366366666666666
472519522 0.021212666666666664 -0.14350533333333332
474005401 0.021100999999999998 -0.14367133333333332
475491280 0.021143333333333333 -0.14309699999999997
476977159 0.020478333333333334 -0.14372033333333334
478463038 0.019775 -0.14319833333333332
479948917 0.01955533333333333 -0.14346933333333334
481434796 0.01990433333333333 -0.14419066666666663
482920675 0.01997933333333333 -0.1450263333333333
484406554 0.019618999999999998 -0.14628799999999997
485892433 0.019275 -0.147281
487378312 0.019759 -0.148477
488864191 0.0191 -0.14882566666666666
490350070 0.019307666666666667 -0.14973933333333334
491835949 0.019385 -0.15053266666666665
493321828 0.018842333333333332 -0.1511033333333333
494807707 0.018443666666666667 -0.15142433333333333
496293586 0.019086333333333334 -0.15192499999999998
497779465 0.019209666666666667 -0.15255333333333332
499265344 0.019085333333333333 -0.15243466666666666
500751223 0.01948933333333333 -0.15302466666666664
502237102 0.019393 -0.15241033333333334
503722981 0.01946833333333333 -0.1528453333333333
505208860 0.018585666666666667 -0.15290866666666664
506694739 0.018361 -0.15277866666666665
508180618 0.018425666666666667 -0.152516
509666497 0.017951666666666664 -0.15204433333333334
511152376 0.018210666666666667 -0.153188
512638255 0.017653999999999996 -0.1542383333333333
514124134 0.01770533333333333 -0.15506166666666665
515610013 0.017683333333333332 -0.15598866666666666
517095892 0.017501999999999997 -0.1575133333333333
518581771 0.017329999999999998 -0.15747566666666665
520067650 0.016900666666666665 -0.15829166666666664
521553529 0.016994666666666665 -0.15843866666666664
523039408 0.01718 -0.15902066666666664
524525287 0.016690666666666666 -0.15965033333333334
526011166 0.016671666666666664 -0.1603193333333333
527497045 0.016363333333333334 -0.16040366666666667
528982924 0.016225 -0.1609003333333333
530468803 0.016445333333333333 -0.160644
531954682 0.016107666666666666 -0.16087033333333334
533440561 0.016415666666666665 -0.160984
534926440 0.016019666666666665 -0.16096699999999997
536412319 0.014881 -0.16126533333333332
537898198 0.015289333333333335 -0.16028799999999999
539384077 0.014944666666666665 -0.15990933333333335
540869956 0.014621333333333333 -0.16052433333333332
542355835 0.014115666666666665 -0.16194666666666663
543841714 0.013827666666666665 -0.16324166666666665
545327593 0.014272999999999997 -0.16387566666666667
546813472 0.014121666666666666 -0.16525366666666663
548299351 0.013824666666666667 -0.16560199999999997
549785230 0.014117666666666667 -0.16677333333333333
551271109 0.013528666666666665 -0.16748733333333335
552756988 0.013648333333333333 -0.16817066666666663
554242867 0.013663999999999999 -0.16842666666666664
555728746 0.014006333333333332 -0.16896266666666665
557214625 0.013745666666666665 -0.169298
558700504 0.013521 -0.17014866666666664
560186383 0.013174333333333333 -0.169678
561672262 0.012755666666666665 -0.169755
563158141 0.013804333333333332 -0.170396
564644020 0.013137333333333334 -0.16987366666666665
566129899 0.013199666666666665 -0.169372
567615778 0.013336999999999998 -0.16952933333333334
569101657 0.012840666666666667 -0.16913
570587536 0.013118666666666667 -0.16952799999999996
572073415 0.012013666666666667 -0.17047633333333334
573559294 0.01201 -0.17125433333333331
575045173 0.011676666666666669 -0.1724573333333333
576531052 0.012504000000000001 -0.17418233333333336
578016931 0.011178666666666665 -0.17424633333333334
579502810 0.010604333333333334 -0.17522566666666664
580988689 0.011278999999999999 -0.17592533333333332
582474568 0.010702333333333331 -0.17652733333333331
583960447 0.011119666666666667 -0.17741600000000002
585446326 0.010602 -0.1780373333333333
586932205 0.010771666666666666 -0.1782163333333333
588418084 0.009880333333333333 -0.1784963333333333
589903963 0.010087666666666665 -0.17896799999999996
591389842 0.009618999999999999 -0.17853533333333332
592875721 0.009596333333333333 -0.17848999999999998
594361600 0.010483333333333332 -0.178417
595847479 0.009868333333333333 -0.17863766666666664
597333358 0.009892 -0.17775299999999997
598819237 0.008901666666666665 -0.17782366666666666
600305116 0.008406333333333335 -0.17741666666666667
601790995 0.008777 -0.179193
603276874 0.008745333333333334 -0.17972433333333332
604762753 0.008185333333333333 -0.18100299999999997
606248632 0.008407333333333333 -0.18246833333333334
607734511 0.007873333333333333 -0.18305433333333335
609220390 0.007798666666666666 -0.18336200000000002
610706269 0.008199333333333333 -0.1843503333333333
612192148 0.007495666666666666 -0.18528533333333333
613678027 0.007054666666666666 -0.18509266666666668
615163906 0.007555666666666666 -0.18579799999999996
616649785 0.007669 -0.186128
618135664 0.007847333333333333 -0.18679833333333332
619621543 0.007982333333333333 -0.186159
621107422 0.007826999999999999 -0.18671566666666664
622593301 0.0069299999999999995 -0.18646933333333332
624079180 0.007635 -0.18569033333333332
625565059 0.006691666666666667 -0.18554933333333334
627050938 0.007154333333333333 -0.18493533333333334
628536817 0.007937 -0.185141
630022696 0.006342 -0.184859
631508575 0.005992666666666667 -0.18547399999999997
632994454 0.0057 -0.18587366666666663
634480333 0.004340666666666666 -0.18733233333333332
635966212 0.005266 -0.18764633333333336
637452091 0.004437666666666666 -0.18989599999999998
638937970 0.004767666666666667 -0.19004266666666664
640423849 0.003639 -0.19069533333333333
641909728 0.004627666666666666 -0.19097699999999998
643395607 0.004783333333333334 -0.19131766666666666
644881486 0.0034296666666666664 -0.19113766666666668
646367365 0.004227666666666666 -0.19133566666666668
647853244 0.004739666666666666 -0.192064
649339123 0.005176333333333333 -0.19254966666666665
650825002 0.00454 -0.19196899999999997
652310881 0.004225 -0.1918123333333333
653796760 0.003980999999999999 -0.192078
655282639 0.004392 -0.19075666666666663
656768518 0.003626 -0.19086999999999998
658254397 0.003645 -0.18988966666666665
659740276 0.003967999999999999 -0.18953066666666665
661226155 0.0030366666666666667 -0.1907003333333333
662712034 0.001966 -0.1919203333333333
664197913 0.0009220000000000001 -0.192326
665683792 0.0009356666666666667 -0.19327566666666668
667169671 0.002659 -0.19565233333333332
668655550 0.00032266666666666663 -0.19545833333333332
670141429 0.0015569999999999998 -0.19685966666666666
671627308 -0.00023699999999999993 -0.19798833333333332
673113187 0.002188333333333333 -0.19868633333333333
674599066 -0.00048633333333333325 -0.19910299999999997
676084945 0.0008463333333333333 -0.1983963333333333
677570824 -0.0006433333333333334 -0.19954766666666668
679056703 0.0011343333333333333 -0.20071033333333332
680542582 -0.0013636666666666667 -0.19964299999999996
682028461 0.0007473333333333334 -0.200805
683514340 -0.001619333333333333 -0.19951166666666667
685000219 0.00013500000000000003 -0.19969466666666663
686486098 -0.0016093333333333333 -0.19864966666666667
687971977 0.00014399999999999998 -0.199208
689457856 -0.0016676666666666665 -0.19812533333333332
690943735 -0.0003783333333333332 -0.19997633333333334
692429614 -0.003515999999999999 -0.19960033333333332
693915493 -0.0011649999999999998 -0.2021923333333333
695401372 -0.0032303333333333325 -0.20252499999999998
696887251 -0.0015736666666666664 -0.20445366666666664
698373130 -0.0035426666666666666 -0.20528966666666665
699859009 -0.0015063333333333335 -0.20592099999999997
701344888 -0.003946 -0.20625533333333335
702830767 -0.0013116666666666667 -0.208054
704316646 -0.002795666666666667 -0.20792066666666664
705802525 -0.002077 -0.20985333333333334
707288404 -0.003920333333333333 -0.208802
708774283 -0.0019759999999999995 -0.209797
710260162 -0.003980999999999999 -0.21009799999999995
711746041 -0.0005843333333333332 -0.21061633333333332
713231920 -0.0027270000000000003 -0.20974566666666666
714717799 -0.0013526666666666665 -0.2093853333333333
716203678 -0.0019133333333333333 -0.209285
717689557 -0.002289 -0.20838633333333334
719175436 -0.001462 -0.20833799999999997
720661315 -0.001876 -0.20822
722147194 -0.0024163333333333333 -0.20901933333333328
723633073 -0.003843 -0.21024333333333334
725118952 -0.003475 -0.212241
726604831 -0.0033926666666666662 -0.21365533333333334
728090710 -0.004496999999999999 -0.21419066666666667
729576589 -0.003946 -0.214769
731062468 -0.004527 -0.215733
732548347 -0.003944666666666667 -0.21619233333333332
734034226 -0.0036290000000000003 -0.2165163333333333
735520105 -0.0037756666666666668 -0.21707100000000001
737005984 -0.004000999999999999 -0.21761366666666665
738491863 -0.0037019999999999996 -0.21761299999999997
739977742 -0.003131333333333333 -0.21809533333333334
741463621 -0.0034656666666666664 -0.21767399999999998
742949500 -0.003452666666666667 -0.216753
744435379 -0.003715333333333333 -0.2166003333333333
745921258 -0.004130333333333333 -0.21647633333333333
747407137 -0.0046 -0.2159
748893016 -0.004084666666666667 -0.21606466666666663
750378895 -0.004055 -0.21485266666666664
751864774 -0.004792666666666667 -0.21578599999999998
753350653 -0.005194999999999999 -0.21755466666666667
754836532 -0.005991999999999999 -0.218686
756322411 -0.005575333333333333 -0.21971633333333332
757808290 -0.006518 -0.2207883333333333
759294169 -0.006499 -0.22119066666666667
760780048 -0.006529 -0.22229633333333335
762265927 -0.007138 -0.2228133333333333
763751806 -0.007578666666666666 -0.2235913333333333
765237685 -0.007227333333333333 -0.223884
766723564 -0.007569666666666666 -0.22394366666666665
768209443 -0.008386 -0.22487466666666667
769695322 -0.007704666666666666 -0.22447666666666666
771181201 -0.008588333333333333 -0.22438133333333332
772667080 -0.007834666666666667 -0.22455566666666665
774152959 -0.0071519999999999995 -0.22454233333333332
775638838 -0.009144 -0.22468
777124717 -0.007925999999999999 -0.22318766666666662
778610596 -0.009012666666666665 -0.22249999999999998
780096475 -0.008893333333333333 -0.22249333333333332
781582354 -0.009354000000000001 -0.2239693333333333
783068233 -0.009699666666666665 -0.22499633333333335
784554112 -0.010490333333333332 -0.2260853333333333
786039991 -0.010387666666666667 -0.22721433333333332
787525870 -0.010809333333333332 -0.22762299999999996
789011749 -0.011038666666666665 -0.22868933333333333
790497628 -0.010878333333333332 -0.22974333333333333
791983507 -0.011405666666666665 -0.23142733333333332
793469386 -0.010929333333333333 -0.23052899999999998
794955265 -0.011573666666666666 -0.23177899999999999
796441144 -0.010980666666666666 -0.23275533333333334
797927023 -0.010876 -0.2326693333333333
799412902 -0.011002333333333333 -0.23232366666666665
800898781 -0.009788333333333333 -0.23301166666666664
802384660 -0.010324333333333333 -0.23265266666666665
803870539 -0.009719333333333333 -0.232622
805356418 -0.010268666666666666 -0.23104666666666665
806842297 -0.010465666666666667 -0.2307516666666667
808328176 -0.009976666666666667 -0.23042333333333334
809814055 -0.010411333333333331 -0.22983466666666666
811299934 -0.010763333333333333 -0.230454
812785813 -0.010622 -0.232049
814271692 -0.011600666666666665 -0.232732
815757571 -0.011905333333333332 -0.2343593333333333
817243450 -0.012429999999999998 -0.23616666666666666
818729329 -0.012654333333333332 -0.23651
820215208 -0.013471666666666667 -0.23662166666666665
821701087 -0.012362 -0.23807066666666665
823186966 -0.012396666666666667 -0.23868633333333333
824672845 -0.012745333333333332 -0.23929599999999998
826158724 -0.012940999999999998 -0.24003233333333332
827644603 -0.012602999999999998 -0.23905566666666667
829130482 -0.013286 -0.2395776666666667
830616361 -0.012622666666666666 -0.24022633333333335
832102240 -0.012913999999999998 -0.24022099999999996
833588119 -0.013029333333333332 -0.23926866666666669
835073998 -0.012418666666666665 -0.23832666666666663
836559877 -0.013193999999999999 -0.238085
838045756 -0.012973 -0.23763499999999999
839531635 -0.012975 -0.23693066666666665
841017514 -0.013722999999999999 -0.23746
842503393 -0.014066333333333333 -0.23918466666666666
843989272 -0.014011666666666667 -0.2402163333333333
845475151 -0.015066333333333334 -0.24123633333333333
846961030 -0.015335999999999999 -0.24219766666666667
848446909 -0.016432000000000002 -0.242811
849932788 -0.015601333333333332 -0.24400133333333332
851418667 -0.016216666666666664 -0.2451026666666667
852904546 -0.016309333333333332 -0.24530433333333335
854390425 -0.016472333333333332 -0.24599666666666667
855876304 -0.016998666666666665 -0.2465323333333333
857362183 -0.016923999999999998 -0.24611433333333332
858848062 -0.016745666666666666 -0.24631366666666665
860333941 -0.016584333333333333 -0.24662266666666666
861819820 -0.017029333333333334 -0.24622233333333332
863305699 -0.017431333333333333 -0.246076
864791578 -0.017205666666666664 -0.24543699999999996
866277457 -0.017335999999999997 -0.244439
867763336 -0.01716433333333333 -0.24437266666666668
869249215 -0.016856333333333334 -0.24386333333333332
870735094 -0.017585999999999997 -0.24411666666666668
872220973 -0.018074666666666662 -0.244829
873706852 -0.018059 -0.24705133333333332
875192731 -0.019077999999999998 -0.24816299999999997
876678610 -0.019560666666666667 -0.248493
878164489 -0.020312666666666666 -0.24919000000000002
879650368 -0.020238 -0.25006833333333334
881136247 -0.021684 -0.25148266666666663
882622126 -0.021357333333333332 -0.25226366666666666
884108005 -0.02084633333333333 -0.25279433333333334
885593884 -0.021308333333333332 -0.25204766666666667
887079763 -0.021030999999999998 -0.253143
888565642 -0.021254333333333333 -0.25385699999999994
890051521 -0.022298666666666668 -0.2534373333333333
891537400 -0.021564666666666666 -0.2536623333333333
893023279 -0.0223 -0.2535403333333333
894509158 -0.021681 -0.25227299999999997
895995037 -0.021121999999999995 -0.25277399999999994
897480916 -0.021481 -0.251839
898966795 -0.021665666666666666 -0.25050066666666665
900452674 -0.021484666666666666 -0.25170099999999995
901938553 -0.022520666666666665 -0.25209466666666663
903424432 -0.022326000000000002 -0.2541783333333333
904910311 -0.023155666666666665 -0.254617
906396190 -0.024545333333333336 -0.25530133333333327
907882069 -0.023788666666666666 -0.256645
909367948 -0.024236333333333332 -0.25812199999999996
910853827 -0.024628 -0.2589013333333333
912339706 -0.02435966666666667 -0.259192
913825585 -0.024539999999999996 -0.25874966666666666
915311464 -0.024869333333333334 -0.25916466666666665
916797343 -0.023512333333333333 -0.26041699999999995
918283222 -0.024127333333333334 -0.26011799999999996
919769101 -0.022339666666666664 -0.25938866666666666
921254980 -0.02336133333333333 -0.25987899999999997
922740859 -0.022640333333333332 -0.259836
924226738 -0.02295933333333333 -0.258676
925712617 -0.021810666666666666 -0.2583393333333333
927198496 -0.023438 -0.25716399999999995
928684375 -0.021782333333333334 -0.25637199999999993
930170254 -0.022973999999999998 -0.25537099999999996
931656133 -0.019526666666666664 -0.26787999999999995
933142012 -0.02430433333333333 -0.25811766666666663
934627891 -0.023366666666666664 -0.2601313333333333
936113770 -0.025141999999999998 -0.26023599999999997
937599649 -0.024662666666666666 -0.26208599999999993
939085528 -0.026163333333333334 -0.2622793333333333
940571407 -0.025258666666666665 -0.264189
942057286 -0.027429333333333333 -0.2649123333333333
943543165 -0.026130666666666667 -0.2660443333333333
945029044 -0.028747999999999996 -0.2646833333333334
946514923 -0.027039333333333332 -0.26529733333333333
948000802 -0.02689633333333333 -0.26617999999999997
949486681 -0.028315666666666663 -0.26603999999999994
950972560 -0.027375666666666666 -0.2665073333333333
952458439 -0.028902 -0.2650633333333333
953944318 -0.027107999999999997 -0.2661456666666666
955430197 -0.02904 -0.26417999999999997
956916076 -0.028448 -0.26390199999999997
958401955 -0.029234 -0.26337299999999997
959887834 -0.027851666666666667 -0.26382533333333336
961373713 -0.02956233333333333 -0.263428
962859592 -0.028732666666666663 -0.265236
964345471 -0.0312 -0.26629366666666665
965831350 -0.029497 -0.2677866666666666
967317229 -0.030951999999999997 -0.26865
968803108 -0.03067366666666667 -0.27031799999999995
970288987 -0.031642666666666666 -0.271108
971774866 -0.029935999999999997 -0.272184
973260745 -0.030933999999999996 -0.27334099999999995
974746624 -0.029901333333333335 -0.2722523333333333
976232503 -0.02992133333333333 -0.27294966666666665
977718382 -0.029624 -0.27368
979204261 -0.030467 -0.27323533333333333
980690140 -0.030585333333333332 -0.27334299999999995
982176019 -0.029502 -0.2732493333333333
983661898 -0.030780666666666665 -0.27200066666666667
985147777 -0.029004666666666668 -0.2722963333333333
986633656 -0.029063999999999996 -0.2710823333333333
988119535 -0.028922999999999997 -0.270948
989605414 -0.028818666666666666 -0.2697713333333333
991091293 -0.030417666666666666 -0.2696299999999999
992577172 -0.031049333333333335 -0.2711723333333333
994063051 -0.03198633333333333 -0.2723133333333333
995548930 -0.032771999999999996 -0.27342099999999997
997034809 -0.03255933333333333 -0.2742963333333333
998520688 -0.033335 -0.275648
1000006567 -0.033492999999999995 -0.2769643333333333
1001492446 -0.033919000000000005 -0.2771923333333333
1002978325 -0.033985333333333326 -0.27813333333333334
1004464204 -0.033703 -0.2783243333333333
1005950083 -0.033590666666666665 -0.2791746666666666
1007435962 -0.033832666666666664 -0.2789723333333334
1008921841 -0.03410833333333333 -0.2786626666666666
1010407720 -0.03458933333333333 -0.2787073333333333
1011893599 -0.034479333333333334 -0.2775633333333333
1013379478 -0.034368666666666665 -0.27789433333333335
1014865357 -0.034394999999999995 -0.27704466666666666
1016351236 -0.03378133333333333 -0.27642733333333336
1017837115 -0.03356566666666667 -0.27613033333333337
1019322994 -0.034253000000000006 -0.273731
1020808873 -0.035636666666666664 -0.27486
1022294752 -0.03577866666666667 -0.27612
1023780631 -0.036303666666666665 -0.2778096666666666
1025266510 -0.03730133333333333 -0.278925
1026752389 -0.03705633333333333 -0.2810033333333333
1028238268 -0.03797033333333333 -0.282655
1029724147 -0.03805133333333333 -0.2827793333333333
1031210026 -0.03801766666666666 -0.2842083333333333
1032695905 -0.03989433333333334 -0.2838286666666666
1034181784 -0.03924233333333333 -0.28500866666666663
1035667663 -0.039438 -0.2848883333333333
1037153542 -0.039635000000000004 -0.285585
1038639421 -0.03970033333333334 -0.286087
1040125300 -0.038458 -0.28542366666666663
1041611179 -0.039265 -0.28435099999999996
1043097058 -0.039574 -0.2846353333333333
1044582937 -0.03942333333333334 -0.28376999999999997
1046068816 -0.039176666666666665 -0.28381599999999996
1047554695 -0.03850066666666666 -0.2825606666666667
1049040574 -0.03950766666666666 -0.281995
1050526453 -0.03842933333333333 -0.2817029999999999
1052012332 -0.039297 -0.2830503333333333
1053498211 -0.040111666666666664 -0.28456766666666666
1054984090 -0.041081 -0.2856853333333333
1056469969 -0.04124666666666666 -0.2877913333333333
1057955848 -0.041446333333333335 -0.2884776666666667
1059441727 -0.04300633333333333 -0.2892473333333333
1060927606 -0.041671333333333324 -0.2905176666666667
1062413485 -0.04200733333333333 -0.2910506666666667
1063899364 -0.04087466666666666 -0.2930383333333333
1065385243 -0.042824666666666664 -0.29225766666666664
1066871122 -0.04128899999999999 -0.29224766666666663
1068357001 -0.040272666666666665 -0.29233966666666666
1069842880 -0.040797999999999994 -0.2913916666666666
1071328759 -0.03942866666666667 -0.291663
1072814638 -0.039535 -0.29111166666666666
1074300517 -0.040576666666666664 -0.29073599999999994
1075786396 -0.039239666666666666 -0.2900913333333333
1077272275 -0.039147333333333326 -0.2892823333333333
1078758154 -0.03655566666666666 -0.2901906666666667
1080244033 -0.039231 -0.287218
1081729912 -0.03955433333333333 -0.2879913333333333
1083215791 -0.0412 -0.28982166666666664
1084701670 -0.04173766666666666 -0.29105799999999993
1086187549 -0.04137466666666666 -0.29244400000000004
1087673428 -0.041835333333333335 -0.29356099999999996
1089159307 -0.041567 -0.29474333333333336
1090645186 -0.04236366666666667 -0.2945983333333333
1092131065 -0.04270766666666666 -0.295629
1093616944 -0.042950999999999996 -0.29597833333333334
1095102823 -0.042639666666666666 -0.2963153333333333
1096588702 -0.04284333333333333 -0.297329
1098074581 -0.04317866666666666 -0.29616
1099560460 -0.04316166666666666 -0.2953443333333333
1101046339 -0.043081666666666664 -0.2957696666666666
1102532218 -0.04243166666666666 -0.2956026666666667
1104018097 -0.042228666666666664 -0.2937066666666666
1105503976 -0.042609666666666664 -0.29420599999999997
1106989855 -0.04163733333333333 -0.2927093333333333
1108475734 -0.04170866666666667 -0.2915536666666666
1109961613 -0.042749666666666665 -0.29111733333333334
1111447492 -0.043767 -0.29168133333333335
1112933371 -0.04350866666666667 -0.2931606666666667
1114419250 -0.04469566666666667 -0.29570433333333335
1115905129 -0.045024666666666664 -0.2966183333333333
1117391008 -0.044842 -0.29811466666666664
1118876887 -0.04550533333333333 -0.299423
1120362766 -0.045287999999999995 -0.29995499999999997
1121848645 -0.048360999999999994 -0.3012773333333333
1123334524 -0.04598533333333333 -0.30144933333333335
1124820403 -0.04814266666666667 -0.3021813333333333
1126306282 -0.04654033333333333 -0.30309166666666665
1127792161 -0.04581666666666666 -0.302807
1129278040 -0.046294 -0.303078
1130763919 -0.04614566666666667 -0.30295833333333333
1132249798 -0.046523666666666665 -0.30279033333333333
1133735677 -0.045844333333333334 -0.3030803333333333
1135221556 -0.04609066666666667 -0.301771
1136707435 -0.046886 -0.30041433333333334
1138193314 -0.04478533333333333 -0.298065
1139679193 -0.04487733333333333 -0.29855699999999996
1141165072 -0.04586833333333333 -0.29959800000000003
1142650951 -0.046904666666666664 -0.30095799999999995
1144136830 -0.049312 -0.30178499999999997
1145622709 -0.049207 -0.30393366666666666
1147108588 -0.05012533333333333 -0.3043263333333333
1148594467 -0.049981333333333336 -0.30633333333333335
1150080346 -0.050360666666666665 -0.30606066666666665
1151566225 -0.050483 -0.30830566666666664
1153052104 -0.04991933333333333 -0.30858299999999994
1154537983 -0.05127999999999999 -0.31020899999999996
1156023862 -0.05166866666666667 -0.3092123333333333
1157509741 -0.05194766666666667 -0.30968
1158995620 -0.051141 -0.3093396666666666
1160481499 -0.05091233333333332 -0.308832
1161967378 -0.05261133333333333 -0.30859099999999995
1163453257 -0.05186533333333333 -0.30760966666666667
1164939136 -0.05218266666666666 -0.3066926666666666
1166425015 -0.051991333333333334 -0.307372
1167910894 -0.051296999999999995 -0.305502
1169396773 -0.052038666666666664 -0.305215
1170882652 -0.051726999999999995 -0.30526166666666665
1172368531 -0.05241733333333333 -0.30726600000000004
1173854410 -0.052228 -0.30833299999999997
1175340289 -0.05433966666666666 -0.308936
1176826168 -0.05439666666666666 -0.31068666666666667
1178312047 -0.055934 -0.31106466666666666
1179797926 -0.05473733333333333 -0.3120953333333333
1181283805 -0.05421466666666667 -0.31320966666666666
1182769684 -0.056298666666666664 -0.31384033333333333
1184255563 -0.05715699999999999 -0.312558
1185741442 -0.05534466666666667 -0.3159583333333333
1187227321 -0.056972999999999996 -0.3144706666666667
1188713200 -0.05263266666666666 -0.3158333333333333
1190199079 -0.05681599999999999 -0.31348366666666666
1191684958 -0.052146 -0.31475766666666666
1193170837 -0.05555033333333333 -0.3119173333333333
1194656716 -0.052004333333333326 -0.3141293333333333
1196142595 -0.05501399999999999 -0.3104166666666666
1197628474 -0.05199433333333332 -0.31167599999999995
1199114353 -0.05523399999999999 -0.3085359999999999
1200600232 -0.05438066666666667 -0.30961666666666665
1202086111 -0.05527566666666667 -0.3109163333333333
1203571990 -0.05678633333333333 -0.3131556666666666
1205057869 -0.056471 -0.3137873333333333
1206543748 -0.057141 -0.31539833333333334
1208029627 -0.05738966666666666 -0.31571099999999996
1209515506 -0.05824699999999999 -0.31705066666666665
1211001385 -0.05772833333333333 -0.318099
1212487264 -0.05826633333333334 -0.31718433333333335
1213973143 -0.05935533333333333 -0.318438
1215459022 -0.058636333333333325 -0.3193336666666667
1216944901 -0.06588899999999999 -0.310587
1218430780 -0.06306266666666666 -0.31759733333333334
1219916659 -0.053982 -0.31705266666666665
1221402538 -0.056652999999999995 -0.319378
1222888417 -0.05715699999999999 -0.31834133333333337
1224374296 -0.057032 -0.3177176666666666
1225860175 -0.05685966666666667 -0.3172793333333333
1227346054 -0.05761566666666666 -0.315569
1228831933 -0.05576899999999999 -0.3140306666666667
1230317812 -0.05673233333333333 -0.31464
1231803691 -0.05683566666666667 -0.3159213333333333
1233289570 -0.05839233333333333 -0.3181343333333333
1234775449 -0.059701000000000004 -0.31933
1236261328 -0.05841766666666666 -0.32164
1237747207 -0.059333000000000004 -0.32275166666666666
1239233086 -0.059421333333333326 -0.3237906666666666
1240718965 -0.058345999999999995 -0.32431466666666664
1242204844 -0.05827366666666667 -0.32588
1243690723 -0.058180666666666665 -0.3270646666666666
1245176602 -0.057439 -0.3269416666666667
1246662481 -0.059616333333333334 -0.32692466666666664
1248148360 -0.057660666666666666 -0.32749266666666665
1249634239 -0.058433 -0.3268293333333333
1251120118 -0.057577666666666666 -0.32656933333333327
1252605997 -0.056967666666666666 -0.326566
1254091876 -0.056976 -0.3260206666666666
1255577755 -0.055475333333333335 -0.3249393333333333
1257063634 -0.05480466666666667 -0.32397433333333336
1258549513 -0.055187333333333324 -0.32337799999999994
1260035392 -0.05485566666666667 -0.321315
1261521271 -0.05548499999999999 -0.3226833333333333
1263007150 -0.05627833333333333 -0.324345
1264493029 -0.05725466666666666 -0.32568099999999994
1265978908 -0.05943966666666667 -0.32707766666666666
1267464787 -0.05877233333333333 -0.327905
1268950666 -0.059899999999999995 -0.32869766666666667
1270436545 -0.059733666666666664 -0.3297173333333333
1271922424 -0.06188266666666667 -0.32993833333333333
1273408303 -0.06354733333333333 -0.32668966666666666
1274894182 -0.062564 -0.3305823333333333
1276380061 -0.06230066666666667 -0.33093833333333333
1277865940 -0.06241866666666666 -0.3305973333333333
1279351819 -0.064647 -0.3304483333333333
1280837698 -0.064512 -0.32974766666666666
1282323577 -0.06237266666666666 -0.32985866666666663
1283809456 -0.06458866666666666 -0.3292623333333333
1285295335 -0.06433299999999999 -0.32734966666666665
1286781214 -0.065242 -0.32698999999999995
1288267093 -0.06588133333333332 -0.32534166666666664
1289752972 -0.06622033333333334 -0.323968
1291238851 -0.06662866666666667 -0.32407566666666665
1292724730 -0.06732066666666667 -0.3268133333333333
1294210609 -0.06713233333333332 -0.32781
1295696488 -0.069297 -0.32902866666666664
1297182367 -0.06843233333333333 -0.32984899999999995
1298668246 -0.07008966666666666 -0.3304103333333333
1300154125 -0.06911666666666666 -0.3310666666666666
1301640004 -0.06982666666666666 -0.3316486666666666
1303125883 -0.06911466666666667 -0.3322166666666666
1304611762 -0.07008899999999998 -0.33280966666666667
1306097641 -0.069752 -0.332766
1307583520 -0.06989166666666666 -0.3314283333333333
1309069399 -0.07012633333333332 -0.330998
1310555278 -0.071098 -0.330136
1312041157 -0.070758 -0.328871
1313527036 -0.06967333333333332 -0.3286693333333333
1315012915 -0.07091366666666667 -0.3268916666666667
1316498794 -0.07052833333333333 -0.324908
1317984673 -0.07038533333333333 -0.3246076666666667
1319470552 -0.07101966666666666 -0.32214499999999996
1320956431 -0.07096033333333332 -0.32260066666666665
1322442310 -0.07306466666666667 -0.32482033333333327
1323928189 -0.07371233333333332 -0.328665
1325414068 -0.07399833333333333 -0.32958066666666663
1326899947 -0.07398933333333332 -0.33241499999999996
1328385826 -0.07472 -0.3340076666666666
1329871705 -0.0748 -0.3354276666666667
1331357584 -0.07508866666666666 -0.3363103333333333
1332843463 -0.074774 -0.33835533333333334
1334329342 -0.07451966666666666 -0.3379103333333333
1335815221 -0.07336899999999999 -0.3388346666666666
1337301100 -0.07404766666666666 -0.33885466666666664
1338786979 -0.07378366666666666 -0.33927533333333326
1340272858 -0.07355266666666667 -0.3397403333333333
1341758737 -0.07349766666666666 -0.3393193333333333
1343244616 -0.07313733333333333 -0.33860466666666666
1344730495 -0.072873 -0.3379633333333333
1346216374 -0.07128199999999998 -0.3379143333333333
1347702253 -0.071901 -0.33693633333333334
1349188132 -0.07057599999999999 -0.33450599999999997
1350674011 -0.07100000000000001 -0.3345343333333333
1352159890 -0.07200433333333334 -0.3376166666666667
1353645769 -0.07288433333333333 -0.33970633333333333
1355131648 -0.07473766666666666 -0.34112300000000007
1356617527 -0.07525833333333332 -0.34302900000000003
1358103406 -0.075815 -0.3444763333333334
1359589285 -0.075071 -0.3461896666666666
1361075164 -0.07553333333333333 -0.347094
1362561043 -0.07664499999999999 -0.347564
1364046922 -0.07564966666666667 -0.347947
1365532801 -0.07651166666666666 -0.3483286666666666
1367018680 -0.07567766666666666 -0.3498116666666667
1368504559 -0.07607766666666665 -0.34928066666666663
1369990438 -0.07619733333333334 -0.351414
1371476317 -0.0756 -0.34911766666666666
1372962196 -0.07555433333333333 -0.3486916666666667
1374448075 -0.076972 -0.3465906666666667
1375933954 -0.07575599999999999 -0.34631100000000004
1377419833 -0.074277 -0.34410133333333326
1378905712 -0.07405833333333334 -0.34172933333333333
1380391591 -0.07480166666666666 -0.3424573333333333
1381877470 -0.07621466666666665 -0.3447226666666666
1383363349 -0.076386 -0.345788
1384849228 -0.07723433333333332 -0.34823933333333335
1386335107 -0.077012 -0.3486006666666666
1387820986 -0.07831733333333332 -0.349524
1389306865 -0.07888733333333332 -0.35154566666666665
1390792744 -0.077671 -0.35250000000000004
1392278623 -0.07754233333333332 -0.3539853333333334
1393764502 -0.07786866666666667 -0.3530559999999999
1395250381 -0.077912 -0.35457133333333335
1396736260 -0.078406 -0.3537659999999999
1398222139 -0.077565 -0.353791
1399708018 -0.076955 -0.3528266666666666
1401193897 -0.078098 -0.35311699999999996
1402679776 -0.07760933333333332 -0.3517673333333333
1404165655 -0.077272 -0.3507416666666666
1405651534 -0.07739133333333333 -0.349759
1407137413 -0.07755599999999999 -0.34790733333333335
1408623292 -0.076897 -0.346708
1410109171 -0.07558533333333334 -0.34470633333333334
1411595050 -0.07713933333333334 -0.34614966666666663
1413080929 -0.07918433333333333 -0.34794200000000003
1414566808 -0.08016566666666666 -0.34963433333333327
1416052687 -0.08083599999999999 -0.35143066666666667
1417538566 -0.083511 -0.35356433333333337
1419024445 -0.08088433333333332 -0.35639999999999994
1420510324 -0.08129299999999999 -0.3569023333333333
1421996203 -0.081675 -0.35770166666666664
1423482082 -0.08295166666666666 -0.36223066666666665
1424967961 -0.08146433333333333 -0.35806133333333334
1426453840 -0.08352133333333334 -0.35966
1427939719 -0.08202233333333332 -0.358531
1429425598 -0.082314 -0.358251
1430911477 -0.08185100000000001 -0.359151
1432397356 -0.08255533333333333 -0.35845666666666665
1433883235 -0.08252533333333334 -0.35843533333333333
1435369114 -0.08326233333333333 -0.356811
1436854993 -0.08079766666666666 -0.35547666666666666
1438340872 -0.08122199999999999 -0.35403199999999996
1439826751 -0.08037233333333332 -0.3517686666666667
1441312630 -0.08243833333333334 -0.35288166666666665
1442798509 -0.08363133333333334 -0.35469566666666663
1444284388 -0.08489999999999999 -0.35815766666666665
1445770267 -0.08314866666666666 -0.3592183333333333
1447256146 -0.08477699999999999 -0.3600616666666667
1448742025 -0.08585633333333333 -0.36001399999999995
1450227904 -0.08382599999999998 -0.36281166666666664
1451713783 -0.08440733333333333 -0.36271600000000004
1453199662 -0.08323466666666667 -0.36407233333333333
1454685541 -0.08299333333333332 -0.3641096666666666
1456171420 -0.08363233333333334 -0.36375266666666667
1457657299 -0.083144 -0.363822
1459143178 -0.08461666666666667 -0.3627773333333333
1460629057 -0.08215666666666667 -0.3623516666666666
1462114936 -0.08220933333333333 -0.36145266666666664
1463600815 -0.08157899999999998 -0.3604496666666666
1465086694 -0.08198899999999999 -0.35898499999999994
1466572573 -0.08041666666666666 -0.3572896666666666
1468058452 -0.08094133333333334 -0.355213
1469544331 -0.07989766666666666 -0.35414766666666664
1471030210 -0.08036133333333334 -0.35398466666666667
1472516089 -0.08237566666666667 -0.35555699999999996
1474001968 -0.08392566666666668 -0.3575689999999999
1475487847 -0.084771 -0.35933666666666664
1476973726 -0.084486 -0.3614013333333333
1478459605 -0.08395233333333332 -0.36264399999999997
1479945484 -0.08557 -0.3645663333333333
1481431363 -0.08604333333333332 -0.3655696666666666
1482917242 -0.08588599999999999 -0.365885
1484403121 -0.08768899999999999 -0.3653573333333333
1485889000 -0.08745700000000001 -0.3663156666666667
1487374879 -0.08716533333333333 -0.36692199999999997
1488860758 -0.08543933333333333 -0.36718799999999996
1490346637 -0.08730266666666665 -0.3662443333333334
1491832516 -0.08703 -0.3661493333333333
1493318395 -0.08564766666666665 -0.36569299999999993
1494804274 -0.085285 -0.3642413333333333
1496290153 -0.083681 -0.3634273333333333
1497776032 -0.08403899999999999 -0.363114
1499261911 -0.082976 -0.36020433333333335
1500747790 -0.08373633333333333 -0.36026733333333333
1502233669 -0.08642 -0.36189266666666664
1503719548 -0.086953 -0.36374399999999996
1505205427 -0.08720866666666667 -0.3654266666666666
1506691306 -0.08705766666666666 -0.3671506666666667
1508177185 -0.08934299999999998 -0.367621
1509663064 -0.08846433333333333 -0.36897199999999997
1511148943 -0.08907699999999999 -0.36867666666666665
1512634822 -0.08894166666666665 -0.3690596666666666
1514120701 -0.08892266666666666 -0.3706426666666667
1515606580 -0.08860299999999999 -0.37138833333333326
1517092459 -0.08809333333333333 -0.3705843333333333
1518578338 -0.07700599999999999 -0.37354033333333325
1520064217 -0.08336233333333333 -0.3717963333333333
1521550096 -0.08760266666666666 -0.36959566666666666
1523035975 -0.086856 -0.36808266666666667
1524521854 -0.08575566666666665 -0.36834666666666666
1526007733 -0.08797233333333333 -0.36491199999999996
1527493612 -0.08571733333333334 -0.36388
1528979491 -0.08582000000000001 -0.3623673333333333
1530465370 -0.08625233333333333 -0.3615353333333333
1531951249 -0.08376933333333332 -0.366963
1533437128 -0.088381 -0.3648133333333333
1534923007 -0.08991633333333333 -0.36594266666666664
1536408886 -0.09087633333333334 -0.368698
1537894765 -0.09073899999999999 -0.36962233333333333
1539380644 -0.090972 -0.3708213333333333
1540866523 -0.09197433333333332 -0.370591
1542352402 -0.09163933333333332 -0.37153133333333327
1543838281 -0.09185399999999999 -0.3723116666666667
1545324160 -0.092032 -0.37243799999999994
1546810039 -0.09301133333333333 -0.3717413333333333
1548295918 -0.094452 -0.3713656666666667
1549781797 -0.095238 -0.3711413333333333
1551267676 -0.09387633333333334 -0.371896
1552753555 -0.09214533333333333 -0.37080399999999997
1554239434 -0.09371966666666666 -0.37064299999999994
1555725313 -0.09324033333333333 -0.36793
1557211192 -0.093133 -0.36680766666666664
1558697071 -0.09418766666666667 -0.36394533333333334
1560182950 -0.09448666666666666 -0.36377766666666667
1561668829 -0.09312233333333333 -0.36628
1563154708 -0.09460233333333332 -0.36857799999999996
1564640587 -0.09425333333333333 -0.37059299999999995
1566126466 -0.09643366666666667 -0.37132299999999996
1567612345 -0.09752266666666666 -0.3724953333333333
1569098224 -0.09670033333333333 -0.3743543333333333
1570584103 -0.09830733333333333 -0.375143
1572069982 -0.09627233333333332 -0.37609499999999996
1573555861 -0.09811133333333333 -0.3785033333333333
1575041740 -0.09643033333333331 -0.37771066666666664
1576527619 -0.09694933333333333 -0.3776543333333333
1578013498 -0.09662733333333332 -0.3778929999999999
1579499377 -0.09614 -0.3767933333333333
1580985256 -0.09726233333333334 -0.37583533333333335
1582471135 -0.094759 -0.37595433333333333
1583957014 -0.09562766666666667 -0.3746773333333333
1585442893 -0.09328533333333333 -0.37166466666666664
1586928772 -0.09421166666666665 -0.3716516666666667
1588414651 -0.09428033333333333 -0.37025299999999994
1589900530 -0.09367666666666666 -0.36879833333333334
1591386409 -0.09456899999999999 -0.3706196666666666
1592872288 -0.09628066666666665 -0.3721113333333333
1594358167 -0.09624733333333332 -0.3747463333333333
1595844046 -0.09803033333333333 -0.375966
1597329925 -0.09747999999999998 -0.37787466666666664
1598815804 -0.09697733333333332 -0.38001666666666667
1600301683 -0.09908133333333331 -0.38139966666666664
1601787562 -0.09870066666666666 -0.38170899999999996
1603273441 -0.09940966666666667 -0.38218399999999997
1604759320 -0.10012733333333332 -0.3833233333333333
1606245199 -0.09835466666666666 -0.383613
1607731078 -0.09746733333333332 -0.38299266666666665
1609216957 -0.097909 -0.3822523333333333
1610702836 -0.09962133333333334 -0.38257966666666665
1612188715 -0.09649599999999998 -0.38252166666666665
1613674594 -0.09788966666666667 -0.3805033333333333
1615160473 -0.09667733333333331 -0.37954833333333327
1616646352 -0.099008 -0.376504
1618132231 -0.09826033333333331 -0.37617700000000004
1619618110 -0.09772066666666665 -0.37348000000000003
1621103989 -0.097861 -0.37468833333333335
1622589868 -0.09832866666666665 -0.3774616666666667
1624075747 -0.09944666666666666 -0.379429
1625561626 -0.09988 -0.3812153333333333
1627047505 -0.10040066666666665 -0.3825683333333333
1628533384 -0.101014 -0.38324333333333327
1630019263 -0.10100566666666666 -0.38553533333333334
1631505142 -0.10105366666666667 -0.3859936666666666
1632991021 -0.10131566666666665 -0.38679099999999994
1634476900 -0.10204866666666668 -0.385082
1635962779 -0.101154 -0.3866016666666666
1637448658 -0.101659 -0.3862426666666666
1638934537 -0.1003 -0.3861713333333333
1640420416 -0.10012733333333332 -0.386686
1641906295 -0.10110533333333332 -0.383428
1643392174 -0.10050733333333331 -0.3827729999999999
1644878053 -0.10114966666666667 -0.38016666666666665
1646363932 -0.10152033333333332 -0.3794553333333333
1647849811 -0.100603 -0.3770366666666667
1649335690 -0.100101 -0.37466933333333335
1650821569 -0.10151933333333332 -0.37406100000000003
1652307448 -0.101663 -0.37717633333333334
1653793327 -0.10269366666666666 -0.3795
1655279206 -0.10356533333333331 -0.3811213333333333
1656765085 -0.10468566666666665 -0.38358666666666663
1658250964 -0.10518733333333333 -0.3851973333333333
1659736843 -0.10518666666666665 -0.38636366666666666
1661222722 -0.10533499999999998 -0.3869513333333333
1662708601 -0.10497533333333332 -0.3873943333333333
1664194480 -0.10332599999999999 -0.38919366666666666
1665680359 -0.103737 -0.389419
1667166238 -0.10558266666666667 -0.3893743333333333
1668652117 -0.10637933333333333 -0.37563066666666667
1670137996 -0.10362199999999999 -0.38788999999999996
1671623875 -0.10431333333333333 -0.3863783333333333
1673109754 -0.10278166666666666 -0.3857426666666666
1674595633 -0.103296 -0.3841683333333333
1676081512 -0.10531733333333333 -0.3823023333333333
1677567391 -0.10293 -0.380159
1679053270 -0.10355333333333334 -0.37787166666666666
1680539149 -0.10352833333333333 -0.3770703333333333
1682025028 -0.11521333333333333 -0.4050923333333333
1683510907 -0.10494333333333333 -0.3817263333333333
1684996786 -0.10636266666666666 -0.38387466666666664
1686482665 -0.10809266666666667 -0.3845679999999999
1687968544 -0.10734833333333334 -0.387027
1689454423 -0.10672533333333334 -0.388362
1690940302 -0.10787566666666666 -0.38991833333333326
1692426181 -0.103962 -0.39246499999999995
1693912060 -0.105901 -0.3920496666666667
1695397939 -0.10586366666666666 -0.39269966666666667
1696883818 -0.10654933333333333 -0.39412600000000003
1698369697 -0.10714033333333334 -0.39339733333333327
1699855576 -0.10520833333333335 -0.39253266666666664
1701341455 -0.10485033333333332 -0.391915
1702827334 -0.10462366666666667 -0.3904893333333333
1704313213 -0.10388533333333334 -0.38906466666666667
1705799092 -0.10166333333333333 -0.3869366666666667
1707284971 -0.104454 -0.38652166666666665
1708770850 -0.10263566666666665 -0.3840326666666667
1710256729 -0.10281599999999999 -0.38141499999999995
1711742608 -0.10746733333333332 -0.38288966666666663
1713228487 -0.10915 -0.385834
1714714366 -0.10638933333333334 -0.3870993333333333
1716200245 -0.10854533333333333 -0.3900133333333333
1717686124 -0.10951133333333332 -0.39252
1719172003 -0.108446 -0.39501
1720657882 -0.11038266666666666 -0.3942913333333333
1722143761 -0.10804066666666667 -0.3969273333333333
1723629640 -0.111426 -0.3956343333333333
1725115519 -0.11033066666666666 -0.396844
1726601398 -0.10907766666666666 -0.3973196666666666
1728087277 -0.11061433333333333 -0.39748999999999995
1729573156 -0.10942633333333332 -0.39733766666666664
1731059035 -0.10772933333333334 -0.39724066666666663
1732544914 -0.10875033333333331 -0.3965073333333333
1734030793 -0.10656033333333333 -0.395406
1735516672 -0.10548999999999999 -0.36728799999999995
1737002551 -0.10856433333333333 -0.3920916666666666
1738488430 -0.10549833333333332 -0.390215
1739974309 -0.10521799999999999 -0.3875826666666667
1741460188 -0.10779966666666665 -0.387978
1742946067 -0.10780366666666666 -0.391621
1744431946 -0.10922899999999999 -0.39394
1745917825 -0.10990933333333333 -0.39577766666666664
1747403704 -0.11148633333333333 -0.397656
1748889583 -0.11176033333333332 -0.3985266666666666
1750375462 -0.11266899999999999 -0.39895766666666665
1751861341 -0.11191566666666666 -0.401128
1753347220 -0.113658 -0.401055
1754833099 -0.11394 -0.4011153333333333
1756318978 -0.113286 -0.402215
1757804857 -0.11440133333333333 -0.40040866666666663
1759290736 -0.11340766666666666 -0.40052266666666664
1760776615 -0.10888633333333332 -0.4012496666666666
1762262494 -0.11287433333333333 -0.39993666666666666
1763748373 -0.112257 -0.39731199999999994
1765234252 -0.10935433333333333 -0.39946233333333325
1766720131 -0.111983 -0.3948459999999999
1768206010 -0.11027666666666666 -0.3930083333333333
1769691889 -0.11058766666666667 -0.39105599999999996
1771177768 -0.11293066666666665 -0.38939866666666667
1772663647 -0.11341799999999999 -0.3922273333333333
1774149526 -0.11357266666666666 -0.395787
1775635405 -0.116173 -0.39566899999999994
1777121284 -0.11546933333333333 -0.3971963333333333
1778607163 -0.11436966666666666 -0.4001143333333333
1780093042 -0.11904533333333334 -0.3998463333333333
1781578921 -0.11889166666666665 -0.39990666666666663
1783064800 -0.11555366666666667 -0.40263866666666664
1784550679 -0.11864033333333335 -0.40020666666666666
1786036558 -0.11658299999999999 -0.40185799999999994
1787522437 -0.11667166666666667 -0.40190400000000004
1789008316 -0.12109166666666667 -0.40117533333333333
1790494195 -0.11880133333333333 -0.397942
1791980074 -0.12116233333333333 -0.3988296666666667
1793465953 -0.12005966666666668 -0.3967649999999999
1794951832 -0.116482 -0.3954316666666667
1796437711 -0.11830166666666667 -0.393062
1797923590 -0.115931 -0.3909083333333333
1799409469 -0.11865433333333333 -0.3889083333333333
1800895348 -0.11693433333333332 -0.39021666666666666
1802381227 -0.11494933333333335 -0.393111
1803867106 -0.11917566666666665 -0.39521266666666666
1805352985 -0.11893799999999999 -0.3978073333333333
1806838864 -0.12025233333333332 -0.39737433333333333
1808324743 -0.11859766666666666 -0.400795
1809810622 -0.122602 -0.4003266666666666
1811296501 -0.12111233333333334 -0.4035573333333333
1812782380 -0.123196 -0.40351866666666664
1814268259 -0.12394366666666667 -0.4032376666666666
1815754138 -0.12500666666666665 -0.40476333333333336
1817240017 -0.131737 -0.39652966666666667
1818725896 -0.12315966666666667 -0.404475
1820211775 -0.12219666666666665 -0.40379333333333334
1821697654 -0.121299 -0.40365566666666663
1823183533 -0.12097933333333333 -0.4042743333333333
1824669412 -0.123287 -0.40065533333333325
1826155291 -0.11950466666666666 -0.4003426666666666
1827641170 -0.12027633333333333 -0.39808166666666667
1829127049 -0.11990233333333333 -0.39720200000000006
1830612928 -0.11990733333333332 -0.3947673333333333
1832098807 -0.11962899999999999 -0.3977016666666667
1833584686 -0.12199633333333333 -0.39718733333333334
1835070565 -0.12205633333333332 -0.400987
1836556444 -0.124448 -0.40279099999999995
1838042323 -0.12458566666666666 -0.4044979999999999
1839528202 -0.126991 -0.40295899999999996
1841014081 -0.12606466666666666 -0.4052226666666666
1842499960 -0.12605033333333332 -0.40875
1843985839 -0.12976766666666664 -0.4084113333333333
1845471718 -0.127647 -0.407516
1846957597 -0.12530866666666665 -0.4044163333333333
1848443476 -0.1259143333333333 -0.40701666666666664
1849929355 -0.12477166666666667 -0.4064663333333334
1851415234 -0.12667799999999999 -0.40611966666666666
1852901113 -0.125607 -0.404679
1854386992 -0.12502633333333332 -0.40270799999999995
1855872871 -0.12639599999999998 -0.4028773333333333
1857358750 -0.12311499999999999 -0.39902766666666667
1858844629 -0.12326833333333333 -0.39739766666666665
1860330508 -0.12341533333333334 -0.39564933333333335
1861816387 -0.12557266666666667 -0.398501
1863302266 -0.12617533333333333 -0.40001099999999995
1864788145 -0.127031 -0.40248566666666663
1866274024 -0.12800599999999998 -0.4044596666666667
1867759903 -0.129018 -0.4059176666666666
1869245782 -0.12572033333333332 -0.409271
1870731661 -0.12936066666666668 -0.40799299999999994
1872217540 -0.12819333333333333 -0.41000333333333333
1873703419 -0.12834533333333334 -0.4085986666666666
1875189298 -0.12656133333333333 -0.4099796666666667
1876675177 -0.12783833333333333 -0.4115836666666667
1878161056 -0.12754833333333332 -0.408616
1879646935 -0.12564766666666666 -0.4085696666666666
1881132814 -0.12603266666666665 -0.4078286666666666
1882618693 -0.126052 -0.40738233333333335
1884104572 -0.124488 -0.40584699999999996
1885590451 -0.123496 -0.40387666666666666
1887076330 -0.123459 -0.40325599999999995
1888562209 -0.12305933333333333 -0.3995466666666666
1890048088 -0.12365099999999998 -0.398388
1891533967 -0.123046 -0.39975999999999995
1893019846 -0.12470133333333333 -0.40359866666666666
1894505725 -0.126752 -0.40601933333333334
1895991604 -0.12864399999999998 -0.4088186666666667
1897477483 -0.12886866666666666 -0.4082443333333333
1898963362 -0.12618599999999996 -0.41063533333333335
1900449241 -0.12916233333333332 -0.4100816666666667
1901935120 -0.12635966666666668 -0.411703
1903420999 -0.12697066666666668 -0.4131193333333333
1904906878 -0.12826333333333334 -0.4126166666666667
1906392757 -0.12706166666666666 -0.4146566666666667
1907878636 -0.12784266666666666 -0.4138983333333333
1909364515 -0.12638466666666665 -0.413621
1910850394 -0.12540099999999998 -0.41072699999999995
1912336273 -0.12477633333333334 -0.41203599999999996
1913822152 -0.12677699999999997 -0.4089553333333332
1915308031 -0.125353 -0.4095
1916793910 -0.12409366666666666 -0.405979
1918279789 -0.12472233333333334 -0.40327399999999997
1919765668 -0.12550466666666665 -0.40188366666666664
1921251547 -0.125097 -0.4043173333333333
1922737426 -0.126405 -0.4065443333333333
1924223305 -0.12554733333333334 -0.4085383333333333
1925709184 -0.12877733333333333 -0.4104293333333333
1927195063 -0.12954666666666664 -0.41067533333333334
1928680942 -0.12688133333333332 -0.416221
1930166821 -0.1310803333333333 -0.4148503333333333
1931652700 -0.12900133333333333 -0.4166813333333333
1933138579 -0.12879933333333332 -0.41847033333333333
1934624458 -0.1283663333333333 -0.4177146666666667
1936110337 -0.12852266666666667 -0.4194793333333333
1937596216 -0.12790666666666664 -0.41717633333333337
1939082095 -0.13073533333333331 -0.4153806666666667
1940567974 -0.128161 -0.4173423333333333
1942053853 -0.12969266666666668 -0.41478833333333337
1943539732 -0.126989 -0.41673099999999996
1945025611 -0.127675 -0.41341933333333325
1946511490 -0.129277 -0.4105376666666667
1947997369 -0.12673633333333334 -0.40835
1949483248 -0.12440399999999999 -0.40618
1950969127 -0.12791566666666665 -0.406491
1952455006 -0.12720466666666666 -0.40992999999999996
1953940885 -0.13035366666666665 -0.41174299999999997
1955426764 -0.12996599999999997 -0.41392433333333334
1956912643 -0.130318 -0.41589533333333334
1958398522 -0.13272066666666665 -0.4151203333333333
1959884401 -0.133293 -0.41805433333333336
1961370280 -0.13262233333333331 -0.4190936666666666
1962856159 -0.13496 -0.420669
1964342038 -0.1334533333333333 -0.421353
1965827917 -0.130845 -0.4227903333333334
1967313796 -0.14005199999999998 -0.449457
1968799675 -0.13080833333333333 -0.42188566666666666
1970285554 -0.13516899999999998 -0.4187463333333333
1971771433 -0.13341966666666666 -0.4184386666666667
1973257312 -0.13401666666666665 -0.41732899999999995
1974743191 -0.13357933333333333 -0.4160503333333333
1976229070 -0.13335233333333332 -0.4135493333333333
1977714949 -0.13157933333333333 -0.41299633333333335
1979200828 -0.13144866666666666 -0.40964333333333336
1980686707 -0.13204066666666664 -0.411031
1982172586 -0.1328143333333333 -0.4149986666666666
1983658465 -0.13385166666666665 -0.41672933333333334
1985144344 -0.13720633333333332 -0.41752233333333333
1986630223 -0.13803233333333334 -0.42097433333333334
1988116102 -0.13751133333333332 -0.41845866666666665
1989601981 -0.13002533333333333 -0.4293616666666667
1991087860 -0.13664133333333334 -0.422642
1992573739 -0.138148 -0.422647
1994059618 -0.14004433333333333 -0.4245116666666666
1995545497 -0.13777966666666666 -0.424721
1997031376 -0.13687799999999997 -0.42391333333333325
1998517255 -0.13956400000000002 -0.42304733333333333
2000003134 -0.13559566666666667 -0.4247873333333333
2001489013 -0.139357 -0.421513
2002974892 -0.13668399999999997 -0.42062133333333335
2004460771 -0.13674166666666665 -0.41751699999999997
2005946650 -0.137479 -0.41639366666666666
2007432529 -0.1349723333333333 -0.4163393333333333
2008918408 -0.13591333333333333 -0.41201333333333334
2010404287 -0.13537066666666664 -0.41042566666666663
2011890166 -0.13513199999999997 -0.41481466666666666
2013376045 -0.138064 -0.415919
2014861924 -0.13908066666666666 -0.41765266666666667
2016347803 -0.13888133333333333 -0.4209586666666667
2017833682 -0.13796899999999998 -0.42200099999999996
2019319561 -0.141375 -0.4231103333333333
2020805440 -0.139046 -0.4147113333333333
2022291319 -0.14206733333333332 -0.4255953333333333
2023777198 -0.14154166666666668 -0.42802266666666666
2025263077 -0.1396423333333333 -0.4264496666666666
2026748956 -0.1419953333333333 -0.42688333333333334
2028234835 -0.14227233333333333 -0.42725099999999994
2029720714 -0.14108500000000002 -0.427535
2031206593 -0.14171999999999998 -0.42607433333333333
2032692472 -0.14007033333333332 -0.42500699999999997
2034178351 -0.14148133333333332 -0.42386366666666664
2035664230 -0.140571 -0.421775
2037150109 -0.13636866666666664 -0.4236393333333333
2038635988 -0.13673233333333334 -0.41815566666666665
2040121867 -0.13730466666666666 -0.42020166666666664
2041607746 -0.13857266666666668 -0.4199993333333333
2043093625 -0.140099 -0.4215226666666666
2044579504 -0.139 -0.42359199999999997
2046065383 -0.14018199999999997 -0.4268489999999999
2047551262 -0.1427783333333333 -0.425252
2049037141 -0.14222366666666666 -0.42816499999999996
2050523020 -0.14105299999999998 -0.42891033333333334
2052008899 -0.14385166666666666 -0.42854233333333336
2053494778 -0.142567 -0.429999
2054980657 -0.14149333333333333 -0.43056900000000004
2056466536 -0.14337133333333332 -0.429165
2057952415 -0.14157666666666668 -0.431407
2059438294 -0.13910833333333333 -0.4286453333333333
2060924173 -0.14113233333333333 -0.4292816666666666
2062410052 -0.14088066666666665 -0.42729466666666666
2063895931 -0.139566 -0.4282843333333333
2065381810 -0.14093833333333333 -0.42343433333333336
2066867689 -0.137647 -0.4224296666666666
2068353568 -0.1419683333333333 -0.4190663333333333
2069839447 -0.13747366666666666 -0.4157993333333333
2071325326 -0.13959433333333332 -0.41849666666666663
2072811205 -0.140646 -0.4210216666666667
2074297084 -0.1413893333333333 -0.4218443333333333
2075782963 -0.14325166666666667 -0.42277733333333334
2077268842 -0.14144766666666664 -0.42614033333333334
2078754721 -0.1412233333333333 -0.42741233333333334
2080240600 -0.140627 -0.42911366666666667
2081726479 -0.14332133333333333 -0.42686566666666664
2083212358 -0.14098666666666665 -0.42776499999999995
2084698237 -0.141153 -0.431141
2086184116 -0.14092566666666664 -0.42933199999999994
2087669995 -0.14291833333333334 -0.429015
2089155874 -0.14059133333333335 -0.42765299999999995
2090641753 -0.13926166666666667 -0.42852200000000007
2092127632 -0.13912233333333335 -0.4261126666666667
2093613511 -0.13734466666666667 -0.4245116666666667
2095099390 -0.14071366666666665 -0.4203306666666667
2096585269 -0.13690666666666668 -0.421425
2098071148 -0.13888166666666668 -0.41676466666666667
2099557027 -0.13797033333333333 -0.414742
2101042906 -0.13649566666666668 -0.4186006666666667
2102528785 -0.13804 -0.42011066666666663
2104014664 -0.14066233333333333 -0.421547
2105500543 -0.141333 -0.42236233333333334
2106986422 -0.14451633333333333 -0.42403966666666665
2108472301 -0.142813 -0.4279553333333333
2109958180 -0.14404899999999998 -0.4285196666666667
2111444059 -0.14405366666666666 -0.42811999999999995
2112929938 -0.14362633333333333 -0.429365
2114415817 -0.1441763333333333 -0.43244599999999994
2115901696 -0.14343466666666665 -0.432025
2117387575 -0.14289566666666667 -0.4316343333333333
2118873454 -0.146726 -0.42815733333333333
2120359333 -0.14287733333333333 -0.43049899999999997
2121845212 -0.14269199999999999 -0.4303106666666666
2123331091 -0.14060166666666665 -0.42943966666666666
2124816970 -0.14201 -0.42960733333333334
2126302849 -0.145701 -0.42495700000000003
2127788728 -0.13898933333333333 -0.4252483333333333
2129274607 -0.1425473333333333 -0.420652
2130760486 -0.1536563333333333 -0.4240536666666666
2132246365 -0.13882699999999998 -0.42705533333333334
2133732244 -0.14078166666666664 -0.42608566666666664
2135218123 -0.13928933333333332 -0.43042766666666665
2136704002 -0.14352133333333333 -0.43034366666666657
2138189881 -0.1419103333333333 -0.430926
2139675760 -0.145027 -0.4329223333333333
2141161639 -0.1391433333333333 -0.4326523333333333
2142647518 -0.14126866666666665 -0.4345013333333333
2144133397 -0.140981 -0.43360866666666664
2145619276 -0.1395783333333333 -0.43324133333333337
2147105155 -0.142233 -0.43241833333333324
2148591034 -0.14201699999999998 -0.43185433333333334
2150076913 -0.13617666666666667 -0.432809
2151562792 -0.136119 -0.4318976666666666
2153048671 -0.13479699999999997 -0.4299633333333333
2154534550 -0.13539666666666667 -0.43021166666666666
2156020429 -0.13809133333333334 -0.425679
2157506308 -0.135189 -0.42445099999999997
2158992187 -0.13477833333333333 -0.42176299999999994
2160478066 -0.13318366666666664 -0.41927733333333334
2161963945 -0.133884 -0.4225486666666667
2163449824 -0.137633 -0.42235333333333325
2164935703 -0.13773233333333335 -0.42391066666666666
2166421582 -0.13674433333333333 -0.42626600000000003
2167907461 -0.13929966666666665 -0.42744699999999997
2169393340 -0.14065899999999998 -0.43061
2170879219 -0.138199 -0.4297916666666666
2172365098 -0.14204833333333333 -0.42997966666666665
2173850977 -0.14309866666666665 -0.4321776666666666
2175336856 -0.14201999999999998 -0.4307626666666667
2176822735 -0.14287966666666665 -0.432259
2178308614 -0.14547066666666666 -0.42978799999999995
2179794493 -0.145362 -0.42990500000000004
2181280372 -0.14416333333333334 -0.431265
2182766251 -0.14583566666666664 -0.42770433333333335
2184252130 -0.1349763333333333 -0.4370156666666667
2185738009 -0.14623299999999997 -0.4245103333333333
2187223888 -0.14450833333333332 -0.4218246666666666
2188709767 -0.14284766666666665 -0.4222856666666666
2190195646 -0.14794066666666666 -0.41994299999999996
2191681525 -0.14886066666666664 -0.4226156666666667
2193167404 -0.1465473333333333 -0.42573666666666665
2194653283 -0.149947 -0.42689099999999996
2196139162 -0.14900766666666665 -0.43094
2197625041 -0.14744399999999996 -0.43293933333333334
2199110920 -0.14749666666666666 -0.43555866666666665
2200596799 -0.15100466666666668 -0.436351
2202082678 -0.15421033333333334 -0.43592433333333336
2203568557 -0.14834933333333333 -0.438661
2205054436 -0.14903466666666665 -0.4375906666666667
2206540315 -0.14547333333333334 -0.4409693333333333
2208026194 -0.13049266666666665 -0.45904666666666666
2209512073 -0.14704233333333333 -0.4367023333333333
2210997952 -0.14707499999999998 -0.436923
2212483831 -0.148566 -0.4367893333333333
2213969710 -0.14574566666666666 -0.43297066666666667
2215455589 -0.14326133333333335 -0.43139633333333327
2216941468 -0.14140566666666668 -0.4261
2218427347 -0.14231733333333332 -0.42538533333333334
2219913226 -0.144401 -0.423112
2221399105 -0.14503266666666664 -0.427444
2222884984 -0.14390833333333333 -0.42866133333333334
2224370863 -0.146961 -0.43081099999999994
2225856742 -0.147459 -0.43188899999999997
2227342621 -0.15012833333333334 -0.43352066666666667
2228828500 -0.15212166666666666 -0.4364233333333334
2230314379 -0.15358133333333332 -0.43641800000000003
2231800258 -0.14992766666666665 -0.436762
2233286137 -0.149771 -0.43656666666666666
2234772016 -0.14865899999999999 -0.4380343333333333
2236257895 -0.152545 -0.4389936666666666
2237743774 -0.15025566666666668 -0.438914
2239229653 -0.15162066666666665 -0.4396886666666666
2240715532 -0.15300099999999997 -0.43648866666666664
2242201411 -0.146737 -0.4356496666666666
2243687290 -0.14692533333333335 -0.43550500000000003
2245173169 -0.14850966666666665 -0.43299733333333335
2246659048 -0.14873966666666666 -0.43083866666666665
2248144927 -0.15045233333333333 -0.42974599999999996
2249630806 -0.147362 -0.427152
2251116685 -0.1477173333333333 -0.42707266666666666
2252602564 -0.15208166666666667 -0.43202166666666664
2254088443 -0.153497 -0.43008899999999994
2255574322 -0.15203066666666665 -0.43487
2257060201 -0.15123766666666666 -0.43629133333333325
2258546080 -0.15711533333333333 -0.4391036666666666
2260031959 -0.15482766666666664 -0.4397173333333333
2261517838 -0.15683933333333333 -0.439897
2263003717 -0.15936833333333333 -0.4429236666666666
2264489596 -0.155376 -0.44094533333333336
2265975475 -0.157944 -0.4437656666666666
2267461354 -0.16114333333333333 -0.4434823333333333
2268947233 -0.15700966666666666 -0.43823033333333333
2270433112 -0.158933 -0.441686
2271918991 -0.15752666666666665 -0.44256199999999996
2273404870 -0.16025066666666665 -0.44221166666666667
2274890749 -0.15759466666666666 -0.43854399999999993
2276376628 -0.15812099999999998 -0.4370943333333333
2277862507 -0.15653166666666665 -0.4353476666666666
2279348386 -0.15821133333333331 -0.43196933333333326
2280834265 -0.159959 -0.43313633333333335
2282320144 -0.15969633333333333 -0.433775
2283806023 -0.1593863333333333 -0.43625933333333333
2285291902 -0.15945233333333333 -0.4402263333333334
2286777781 -0.15922166666666665 -0.4419496666666667
2288263660 -0.16155633333333333 -0.4422633333333333
2289749539 -0.16262066666666666 -0.446327
2291235418 -0.16271166666666664 -0.44467033333333333
2292721297 -0.16243933333333332 -0.4432733333333333
2294207176 -0.16051700000000002 -0.4449066666666666
2295693055 -0.16121133333333332 -0.4451163333333333
2297178934 -0.15829366666666667 -0.446062
2298664813 -0.1594463333333333 -0.4463423333333333
2300150692 -0.15900933333333334 -0.4449976666666667
2301636571 -0.154452 -0.4429973333333333
2303122450 -0.1570403333333333 -0.43954099999999996
2304608329 -0.154055 -0.4398063333333333
2306094208 -0.15691133333333332 -0.43815199999999993
2307580087 -0.15752333333333335 -0.43584266666666666
2309065966 -0.15277266666666667 -0.43212866666666666
2310551845 -0.15457833333333332 -0.429188
2312037724 -0.15281033333333333 -0.43387266666666663
2313523603 -0.15752233333333332 -0.43555699999999997
2315009482 -0.15794533333333333 -0.43898233333333336
2316495361 -0.15950566666666666 -0.4400536666666667
2317981240 -0.15922133333333333 -0.44033833333333333
2319467119 -0.15969966666666668 -0.4413996666666667
2320952998 -0.15900766666666666 -0.4410299999999999
2322438877 -0.15927033333333332 -0.4438116666666666
2323924756 -0.15958433333333333 -0.431006
2325410635 -0.15863466666666665 -0.44350566666666663
2326896514 -0.1610663333333333 -0.44173633333333334
2328382393 -0.16025266666666665 -0.4405003333333333
2329868272 -0.15562866666666667 -0.44408866666666663
2331354151 -0.15890533333333332 -0.442821
2332840030 -0.158476 -0.43843433333333337
2334325909 -0.157597 -0.43776233333333325
2335811788 -0.15638766666666665 -0.435716
2337297667 -0.15770599999999996 -0.43297966666666665
2338783546 -0.15725766666666666 -0.4302983333333333
2340269425 -0.16047899999999998 -0.4286026666666667
2341755304 -0.15990699999999997 -0.43281133333333327
2343241183 -0.16155533333333333 -0.43396899999999994
2344727062 -0.16228933333333334 -0.4343123333333333
2346212941 -0.16401166666666667 -0.4351303333333333
2347698820 -0.162292 -0.43898966666666667
2349184699 -0.16545466666666667 -0.44164899999999996
2350670578 -0.16183433333333333 -0.44032066666666664
2352156457 -0.16610566666666665 -0.44314733333333334
2353642336 -0.16554566666666665 -0.4450773333333333
2355128215 -0.16125433333333333 -0.44489699999999993
2356614094 -0.16314866666666666 -0.4437666666666667
2358099973 -0.163389 -0.44442633333333337
2359585852 -0.16375699999999999 -0.44320366666666666
2361071731 -0.162317 -0.4439726666666666
2362557610 -0.16457066666666664 -0.44073966666666664
2364043489 -0.1626393333333333 -0.441106
2365529368 -0.16135833333333333 -0.4421946666666666
2367015247 -0.16255299999999998 -0.43689433333333333
2368501126 -0.162211 -0.4352863333333333
2369987005 -0.158461 -0.43206
2371472884 -0.16061099999999998 -0.436149
2372958763 -0.1636703333333333 -0.43885033333333334
2374444642 -0.16485333333333332 -0.4405566666666666
2375930521 -0.16629766666666668 -0.44422066666666665
2377416400 -0.1682063333333333 -0.44490199999999996
2378902279 -0.16538433333333333 -0.44411566666666663
2380388158 -0.169407 -0.44507266666666667
2381874037 -0.16855399999999998 -0.44607533333333327
2383359916 -0.17062566666666668 -0.4469086666666667
2384845795 -0.17414666666666667 -0.44330600000000003
2386331674 -0.170098 -0.4474973333333333
2387817553 -0.16928733333333335 -0.4490936666666666
2389303432 -0.17213499999999998 -0.445488
2390789311 -0.17233566666666666 -0.44626166666666667
2392275190 -0.17046799999999998 -0.44726133333333334
2393761069 -0.1720463333333333 -0.4453336666666666
2395246948 -0.17096 -0.44116500000000003
2396732827 -0.17014599999999996 -0.439101
2398218706 -0.17177966666666666 -0.4373533333333333
2399704585 -0.17075366666666664 -0.4384733333333333
2401190464 -0.17524399999999998 -0.43713199999999997
2402676343 -0.17251366666666668 -0.4355643333333333
2404162222 -0.1748873333333333 -0.44317166666666663
2405648101 -0.17374233333333333 -0.4406253333333333
2407133980 -0.17540033333333332 -0.4428533333333333
2408619859 -0.17274633333333334 -0.44908200000000004
2410105738 -0.17516199999999998 -0.44468399999999997
2411591617 -0.1727483333333333 -0.447534
2413077496 -0.17464933333333335 -0.44664466666666663
2414563375 -0.17253533333333332 -0.4506013333333333
2416049254 -0.174218 -0.44440366666666664
2417535133 -0.17371833333333334 -0.44434833333333335
2419021012 -0.17165066666666667 -0.4546476666666666
2420506891 -0.16799999999999998 -0.4481453333333333
2421992770 -0.16951833333333333 -0.447301
2423478649 -0.16695466666666664 -0.4457946666666667
2424964528 -0.169574 -0.4452703333333333
2426450407 -0.16693933333333333 -0.44001399999999996
2427936286 -0.164467 -0.43873966666666664
2429422165 -0.16423733333333332 -0.4422756666666666
2430908044 -0.16480999999999998 -0.441789
2432393923 -0.169063 -0.44084733333333337
2433879802 -0.1664523333333333 -0.44221266666666664
2435365681 -0.16893633333333336 -0.4427283333333333
2436851560 -0.17093866666666663 -0.442055
2438337439 -0.17058666666666666 -0.44783666666666666
2439823318 -0.17086266666666666 -0.4485743333333333
2441309197 -0.163295 -0.45031133333333334
2442795076 -0.169951 -0.446734
2444280955 -0.17018 -0.44856066666666666
2445766834 -0.17743033333333336 -0.44144533333333336
2447252713 -0.166182 -0.45361366666666664
2448738592 -0.1749386666666667 -0.4469303333333333
2450224471 -0.17297199999999996 -0.450065
2451710350 -0.17364833333333332 -0.4426346666666666
2453196229 -0.17196166666666662 -0.4434243333333333
2454682108 -0.174909 -0.439813
2456167987 -0.172697 -0.435492
2457653866 -0.16974433333333333 -0.4425996666666667
2459139745 -0.16584333333333334 -0.43505933333333335
2460625624 -0.1689223333333333 -0.43593366666666666
2462111503 -0.17254933333333333 -0.43554566666666666
2463597382 -0.17155966666666667 -0.43730233333333335
2465083261 -0.17491766666666667 -0.44187199999999993
2466569140 -0.172372 -0.442048
2468055019 -0.17426233333333332 -0.4413733333333333
2469540898 -0.16750899999999996 -0.44879199999999997
2471026777 -0.16745466666666667 -0.4491063333333334
2472512656 -0.16866766666666666 -0.45181699999999997
2473998535 -0.16037966666666664 -0.4664343333333333
2475484414 -0.17192066666666667 -0.45222199999999996
2476970293 -0.16588166666666665 -0.4545653333333333
2478456172 -0.168535 -0.452151
2479942051 -0.167021 -0.45257900000000006
2481427930 -0.17454133333333333 -0.4456866666666667
2482913809 -0.16284566666666667 -0.4511746666666666
2484399688 -0.16293333333333332 -0.4520906666666667
2485885567 -0.16954533333333335 -0.443668
2487371446 -0.165151 -0.441857
2488857325 -0.16579066666666667 -0.4429396666666666
2490343204 -0.16430866666666666 -0.4422903333333333
2491829083 -0.16089666666666663 -0.4448616666666667
2493314962 -0.16593233333333335 -0.44528366666666663
2494800841 -0.16390866666666665 -0.44872999999999996
2496286720 -0.16162300000000002 -0.4522646666666666
2497772599 -0.161901 -0.44970033333333326
2499258478 -0.15667599999999998 -0.4543276666666667
2500744357 -0.152952 -0.45732033333333333
2502230236 -0.15949566666666667 -0.45442133333333334
2503716115 -0.15610133333333334 -0.45536033333333326
2505201994 -0.16066866666666668 -0.45204333333333335
2506687873 -0.156947 -0.45147899999999996
2508173752 -0.15342366666666665 -0.4531936666666666
2509659631 -0.1547363333333333 -0.45486766666666656
2511145510 -0.15787266666666666 -0.44974366666666665
2512631389 -0.15858833333333333 -0.4470103333333333
2514117268 -0.15796733333333332 -0.4457479999999999
2515603147 -0.15444333333333332 -0.4430806666666667
2517089026 -0.1561373333333333 -0.4414163333333333
2518574905 -0.15223166666666665 -0.43882266666666664
2520060784 -0.15197833333333333 -0.4366
2521546663 -0.15120066666666665 -0.44060433333333326
2523032542 -0.15721233333333334 -0.43993266666666664
2524518421 -0.156191 -0.44670333333333334
2526004300 -0.15799866666666668 -0.4440806666666666
2527490179 -0.15787033333333333 -0.44333399999999995
2528976058 -0.1564253333333333 -0.44557433333333335
2530461937 -0.15874266666666667 -0.449518
2531947816 -0.16305766666666666 -0.4489893333333333
2533433695 -0.156253 -0.453563
2534919574 -0.16161933333333334 -0.4486026666666667
2536405453 -0.16056933333333334 -0.45016999999999996
2537891332 -0.15964133333333333 -0.45038
2539377211 -0.16236899999999999 -0.44788133333333324
2540863090 -0.16071733333333332 -0.4479473333333333
2542348969 -0.1680063333333333 -0.4458936666666667
2543834848 -0.163955 -0.4447793333333333
2545320727 -0.16287433333333332 -0.4436703333333333
2546806606 -0.16739766666666667 -0.4418823333333333
2548292485 -0.16555733333333333 -0.4392043333333333
2549778364 -0.167268 -0.43845499999999993
2551264243 -0.16771999999999998 -0.44036566666666666
2552750122 -0.17195733333333332 -0.44293499999999997
2554236001 -0.167894 -0.44346699999999994
2555721880 -0.17177333333333333 -0.4490433333333333
2557207759 -0.17091933333333334 -0.44843066666666664
2558693638 -0.17246233333333333 -0.448315
2560179517 -0.173655 -0.45458466666666664
2561665396 -0.16533466666666666 -0.4565503333333333
2563151275 -0.173041 -0.45119266666666663
2564637154 -0.16993533333333333 -0.45374733333333334
2566123033 -0.17534333333333332 -0.45424
2567608912 -0.17393799999999998 -0.452657
2569094791 -0.17619466666666664 -0.45600933333333327
2570580670 -0.17606833333333333 -0.4538593333333334
2572066549 -0.17976466666666663 -0.4516523333333333
2573552428 -0.174695 -0.4522083333333333
2575038307 -0.17628500000000003 -0.4521339999999999
2576524186 -0.17759866666666663 -0.44688533333333336
2578010065 -0.174838 -0.4474463333333333
2579495944 -0.1774883333333333 -0.44418533333333327
2580981823 -0.17781000000000002 -0.44634833333333335
2582467702 -0.17757533333333334 -0.4444276666666667
2583953581 -0.17937266666666665 -0.45186366666666666
2585439460 -0.1866836666666667 -0.45397166666666666
2586925339 -0.18055633333333332 -0.45372833333333334
2588411218 -0.18368933333333332 -0.4568433333333333
2589897097 -0.18021066666666666 -0.45843799999999996
2591382976 -0.18037133333333333 -0.45660366666666663
2592868855 -0.17878166666666667 -0.45885933333333334
2594354734 -0.18488666666666667 -0.46092066666666665
2595840613 -0.1784883333333333 -0.45935266666666663
2597326492 -0.17466366666666666 -0.4572943333333333
2598812371 -0.17705533333333334 -0.4576096666666667
2600298250 -0.17577933333333332 -0.4556543333333333
2601784129 -0.17653299999999997 -0.4572293333333333
2603270008 -0.17824466666666666 -0.4565883333333334
2604755887 -0.17845499999999997 -0.45633799999999997
2606241766 -0.18270366666666665 -0.4497686666666666
2607727645 -0.17727799999999996 -0.44893833333333333
2609213524 -0.1747176666666667 -0.4438946666666666
2610699403 -0.17748366666666665 -0.44456433333333334
2612185282 -0.17524033333333333 -0.44785033333333335
2613671161 -0.17401366666666665 -0.4471946666666667
2615157040 -0.18204466666666666 -0.45536266666666664
2616642919 -0.18321999999999997 -0.4539213333333333
2618128798 -0.18033199999999996 -0.4567456666666666
2619614677 -0.18022699999999997 -0.45361366666666664
2621100556 -0.1828893333333333 -0.45388033333333333
2622586435 -0.16545233333333334 -0.452067
2624072314 -0.18301466666666666 -0.45802533333333334
2625558193 -0.1809243333333333 -0.453785
2627044072 -0.18258333333333332 -0.45561799999999997
2628529951 -0.17588399999999998 -0.4536
2630015830 -0.17908333333333332 -0.45283566666666664
2631501709 -0.181938 -0.450699
2632987588 -0.17746966666666666 -0.4502573333333333
2634473467 -0.18003333333333332 -0.4479523333333333
2635959346 -0.17830466666666667 -0.444091
2637445225 -0.18021466666666663 -0.4444123333333333
2638931104 -0.18052966666666664 -0.436486
2640416983 -0.183108 -0.44196833333333335
2641902862 -0.18201866666666666 -0.440353
2643388741 -0.18745 -0.44195066666666666
2644874620 -0.18806466666666666 -0.44518366666666664
2646360499 -0.1886653333333333 -0.448459
2647846378 -0.182905 -0.4519066666666667
2649332257 -0.18442766666666666 -0.45059566666666667
2650818136 -0.18615866666666664 -0.4526629999999999
2652304015 -0.18994666666666665 -0.457402
2653789894 -0.1874033333333333 -0.45672999999999997
2655275773 -0.189371 -0.4567549999999999
2656761652 -0.18837933333333334 -0.4563229999999999
2658247531 -0.18384766666666666 -0.4619226666666667
2659733410 -0.18891033333333332 -0.4608216666666667
2661219289 -0.18719133333333332 -0.4569706666666667
2662705168 -0.18466766666666662 -0.4562963333333333
2664191047 -0.1857393333333333 -0.45364766666666667
2665676926 -0.18800699999999998 -0.452459
2667162805 -0.18586366666666665 -0.44944799999999996
2668648684 -0.1865423333333333 -0.44839866666666667
2670134563 -0.18553233333333333 -0.44823099999999994
2671620442 -0.18661233333333332 -0.4532763333333333
2673106321 -0.18504566666666666 -0.453882
2674592200 -0.18497266666666667 -0.4565033333333333
2676078079 -0.18730466666666667 -0.4587213333333333
2677563958 -0.18685433333333334 -0.45797233333333326
2679049837 -0.18982266666666664 -0.46293133333333336
2680535716 -0.18705366666666667 -0.4633223333333333
2682021595 -0.18640566666666664 -0.46401699999999996
2683507474 -0.18638500000000002 -0.46384666666666663
2684993353 -0.18211399999999994 -0.46332666666666666
2686479232 -0.184167 -0.463483
2687965111 -0.17974033333333334 -0.4675043333333333
2689450990 -0.18463399999999996 -0.462669
2690936869 -0.180449 -0.4602913333333333
2692422748 -0.17697599999999997 -0.4622806666666666
2693908627 -0.178766 -0.45823033333333335
2695394506 -0.17880366666666664 -0.459418
2696880385 -0.177782 -0.4561106666666666
2698366264 -0.17466966666666664 -0.45263566666666666
2699852143 -0.17506833333333333 -0.45073300000000005
2701338022 -0.17372966666666667 -0.45427633333333334
2702823901 -0.17716633333333331 -0.45479699999999995
2704309780 -0.17905266666666667 -0.4563343333333333
2705795659 -0.17743233333333333 -0.45866299999999993
2707281538 -0.17567 -0.4606
2708767417 -0.180186 -0.46103633333333327
2710253296 -0.17578233333333332 -0.461151
2711739175 -0.17861366666666667 -0.4598663333333333
2713225054 -0.17807166666666666 -0.46055
2714710933 -0.17645866666666665 -0.4597826666666667
2716196812 -0.17779699999999998 -0.4611223333333333
2717682691 -0.18025433333333332 -0.49420933333333333
2719168570 -0.1748553333333333 -0.462024
2720654449 -0.17790966666666666 -0.4579579999999999
2722140328 -0.17445666666666665 -0.459257
2723626207 -0.17555433333333337 -0.4602223333333333
2725112086 -0.17864333333333332 -0.45783766666666664
2726597965 -0.17805066666666663 -0.4544836666666666
2728083844 -0.172844 -0.4523419999999999
2729569723 -0.1757503333333333 -0.45031766666666667
2731055602 -0.17457766666666666 -0.45120699999999997
2732541481 -0.17804733333333334 -0.45299266666666665
2734027360 -0.180438 -0.45394999999999996
2735513239 -0.18245366666666665 -0.45756966666666665
2736999118 -0.18203766666666665 -0.4580469999999999
2738484997 -0.18069466666666667 -0.4605123333333333
2739970876 -0.184135 -0.4621533333333333
2741456755 -0.18323766666666666 -0.46044033333333334
2742942634 -0.18425399999999997 -0.46160333333333337
2744428513 -0.18608566666666665 -0.46070900000000004
2745914392 -0.18841933333333333 -0.46337366666666663
2747400271 -0.18460066666666666 -0.46396399999999993
2748886150 -0.18687766666666666 -0.4633423333333333
2750372029 -0.18404766666666666 -0.4622556666666666
2751857908 -0.18168966666666667 -0.4628886666666666
2753343787 -0.18564733333333333 -0.45933199999999996
2754829666 -0.1861173333333333 -0.46233199999999997
2756315545 -0.18639433333333333 -0.458039
2757801424 -0.18555366666666664 -0.454902
2759287303 -0.18759299999999995 -0.45440533333333333
2760773182 -0.1870903333333333 -0.45487666666666665
2762259061 -0.186197 -0.456414
2763744940 -0.18884799999999996 -0.45728733333333327
2765230819 -0.18946733333333332 -0.4589103333333333
2766716698 -0.190567 -0.4629
2768202577 -0.188347 -0.46441099999999996
2769688456 -0.18691366666666667 -0.46685033333333337
2771174335 -0.19072766666666666 -0.4680626666666666
2772660214 -0.18958433333333335 -0.4655996666666667
2774146093 -0.18987566666666666 -0.4652683333333333
2775631972 -0.18566533333333335 -0.46554799999999996
2777117851 -0.18972999999999998 -0.4650343333333333
2778603730 -0.1871863333333333 -0.46866133333333326
2780089609 -0.18759133333333333 -0.46146099999999995
2781575488 -0.19040166666666664 -0.4615783333333333
2783061367 -0.18473166666666666 -0.46071333333333336
2784547246 -0.18156699999999998 -0.46029733333333334
2786033125 -0.18663366666666664 -0.4609266666666666
2787519004 -0.18587899999999996 -0.45380033333333325
2789004883 -0.18547066666666662 -0.45593466666666665
2790490762 -0.1880423333333333 -0.45182066666666665
2791976641 -0.18790033333333334 -0.4552826666666666
2793462520 -0.18928066666666665 -0.44982866666666665
2794948399 -0.18595333333333333 -0.45816799999999996
2796434278 -0.18927833333333335 -0.4607636666666666
2797920157 -0.1844763333333333 -0.4590976666666666
2799406036 -0.18915099999999999 -0.4597273333333334
2800891915 -0.18926166666666666 -0.4562926666666667
2802377794 -0.18546533333333332 -0.464707
2803863673 -0.187544 -0.46101666666666663
2805349552 -0.18623066666666666 -0.45905733333333326
2806835431 -0.18589933333333333 -0.459577
2808321310 -0.1905 -0.45260599999999995
2809807189 -0.18569866666666668 -0.4590443333333333
2811293068 -0.18419466666666665 -0.45633033333333334
2812778947 -0.18307099999999998 -0.45580899999999996
2814264826 -0.18694433333333332 -0.44666833333333333
2815750705 -0.190504 -0.4415526666666666
2817236584 -0.187855 -0.444261
2818722463 -0.18781266666666668 -0.444202
2820208342 -0.190218 -0.4495446666666667
2821694221 -0.18927133333333335 -0.441177
2823180100 -0.18945866666666666 -0.45259133333333335
2824665979 -0.18790966666666667 -0.45094100000000004
2826151858 -0.1862303333333333 -0.4566663333333333
2827637737 -0.18715066666666663 -0.46465566666666663
2829123616 -0.19178399999999998 -0.4606923333333333
2830609495 -0.1858393333333333 -0.4608633333333333
2832095374 -0.18923 -0.46116633333333334
2833581253 -0.18707933333333332 -0.45918
2835067132 -0.18962 -0.4598073333333333
2836553011 -0.18903533333333333 -0.46251133333333333
2838038890 -0.18219 -0.469178
2839524769 -0.18847233333333335 -0.4657779999999999
2841010648 -0.181804 -0.46168599999999993
2842496527 -0.18214133333333332 -0.4623453333333333
2843982406 -0.18262866666666666 -0.4653236666666667
2845468285 -0.17997333333333332 -0.45816899999999994
2846954164 -0.18360466666666664 -0.4544953333333333
2848440043 -0.179946 -0.451881
2849925922 -0.17844433333333332 -0.4512933333333333
2851411801 -0.17278666666666667 -0.46071566666666663
2852897680 -0.18548466666666666 -0.4507676666666667
2854383559 -0.184519 -0.455665
2855869438 -0.180203 -0.45855766666666664
2857355317 -0.178341 -0.467267
2858841196 -0.183272 -0.46079666666666663
2860327075 -0.182538 -0.459723
2861812954 -0.1822603333333333 -0.462449
2863298833 -0.18657533333333332 -0.46238233333333334
2864784712 -0.1856503333333333 -0.46182966666666664
2866270591 -0.188077 -0.461591
2867756470 -0.18966166666666667 -0.46087666666666666
2869242349 -0.193513 -0.4575896666666666
2870728228 -0.18593266666666666 -0.45246166666666665
2872214107 -0.19244499999999998 -0.45274
2873699986 -0.19069499999999998 -0.44994999999999996
2875185865 -0.193511 -0.4478553333333333
2876671744 -0.2015643333333333 -0.444333
2878157623 -0.19578433333333334 -0.43976533333333334
2879643502 -0.19472066666666665 -0.44181566666666666
2881129381 -0.20589466666666661 -0.427712
2882615260 -0.19454933333333335 -0.445339
2884101139 -0.192039 -0.4521613333333333
2885587018 -0.19754833333333333 -0.45001433333333335
2887072897 -0.19917066666666666 -0.4516256666666666
2888558776 -0.19625199999999998 -0.45541066666666663
2890044655 -0.19840999999999998 -0.45911199999999996
2891530534 -0.198797 -0.46038566666666664
2893016413 -0.20636833333333332 -0.45748866666666665
2894502292 -0.20152533333333333 -0.4586313333333334
2895988171 -0.19805066666666665 -0.46050066666666667
2897474050 -0.19319999999999998 -0.4635646666666666
2898959929 -0.19969299999999995 -0.458855
2900445808 -0.195974 -0.46001566666666666
2901931687 -0.19152399999999997 -0.4594106666666667
2903417566 -0.18897 -0.46007699999999996
2904903445 -0.19237166666666666 -0.45635433333333336
2906389324 -0.19168200000000002 -0.4545836666666666
2907875203 -0.189731 -0.4519546666666666
2909361082 -0.19379333333333332 -0.44912966666666665
2910846961 -0.1941633333333333 -0.4500993333333333
2912332840 -0.19404066666666667 -0.45229733333333333
2913818719 -0.20011633333333334 -0.45679499999999995
2915304598 -0.19627699999999998 -0.46001866666666663
2916790477 -0.19724566666666665 -0.4604356666666667
2918276356 -0.20886566666666667 -0.46116499999999994
2919762235 -0.20407199999999998 -0.46425900000000003
2921248114 -0.202077 -0.464352
2922733993 -0.20322999999999997 -0.465707
2924219872 -0.20611233333333334 -0.4664226666666667
2925705751 -0.204519 -0.467682
2927191630 -0.19798033333333334 -0.4666773333333333
2928677509 -0.1994143333333333 -0.46628933333333333
2930163388 -0.20271033333333335 -0.46625833333333333
2931649267 -0.198403 -0.464516
2933135146 -0.20088099999999998 -0.459644
2934621025 -0.20613066666666668 -0.4623523333333333
2936106904 -0.20076266666666667 -0.46029533333333333
2937592783 -0.195564 -0.4530523333333333
2939078662 -0.19682 -0.45493999999999996
2940564541 -0.2002803333333333 -0.457368
2942050420 -0.20145433333333332 -0.4556633333333333
2943536299 -0.19831533333333332 -0.4581856666666666
2945022178 -0.2028463333333333 -0.45956633333333335
2946508057 -0.20258266666666663 -0.4627226666666666
2947993936 -0.20527066666666666 -0.46311233333333335
2949479815 -0.19850533333333334 -0.46244566666666664
2950965694 -0.21239233333333332 -0.46670733333333336
2952451573 -0.2042983333333333 -0.466097
2953937452 -0.204723 -0.46323666666666663
2955423331 -0.20171966666666666 -0.46557933333333335
2956909210 -0.20570466666666665 -0.4647983333333333
2958395089 -0.200469 -0.4615956666666666
2959880968 -0.20484799999999997 -0.4638293333333333
2961366847 -0.19765899999999997 -0.45946699999999996
2962852726 -0.20508366666666666 -0.4569563333333333
2964338605 -0.19573333333333334 -0.452754
2965824484 -0.20155766666666666 -0.4510346666666667
2967310363 -0.20589433333333332 -0.4530703333333333
2968796242 -0.19761499999999999 -0.4485566666666667
2970282121 -0.19903066666666663 -0.44562133333333326
2971768000 -0.19673466666666667 -0.44674900000000006
2973253879 -0.20456633333333332 -0.4487473333333334
2974739758 -0.21043766666666666 -0.455819
2976225637 -0.20593566666666666 -0.45427566666666663
2977711516 -0.20238933333333334 -0.45760266666666666
2979197395 -0.21082266666666666 -0.458827
2980683274 -0.21094566666666664 -0.462864
2982169153 -0.20785966666666666 -0.45950266666666667
2983655032 -0.20517599999999997 -0.46185066666666663
2985140911 -0.20554966666666666 -0.45996299999999996
2986626790 -0.20285466666666666 -0.4614206666666667
2988112669 -0.20352933333333334 -0.4639336666666667
2989598548 -0.21052566666666664 -0.461485
2991084427 -0.20212466666666665 -0.4635746666666667
2992570306 -0.20437433333333332 -0.46192866666666665
2994056185 -0.204067 -0.461379
2995542064 -0.20696833333333334 -0.45769166666666666
2997027943 -0.20263899999999996 -0.4592693333333333
2998513822 -0.20324066666666665 -0.460642
2999999701 -0.20299566666666663 -0.4575796666666666
